LAMMPS data file via write_data, version 30 Mar 2026, timestep = 2, units = lj

4783 atoms
2 atom types

-14.350547 14.350547 xlo xhi
-14.350547 14.350547 ylo yhi
-14.350547 14.350547 zlo zhi

Atoms # dipole_sphere_angle

2507 2 -12.038303959022057 -13.763033283707932 -13.183853279193604 0 1 1.90985931710274 0 0 0 1 0 0 0
2618 2 -12.482233261468506 -12.598379501173763 -12.993838227447672 0 1 1.90985931710274 0 0 0 1 0 0 0
2531 2 -9.623632221752878 -13.722061000619137 -13.388947405815346 0 1 1.90985931710274 0 0 0 1 0 0 0
2495 2 -6.290256929816035 -14.219017418093351 -13.717101894948755 0 1 1.90985931710274 0 0 0 1 0 0 0
2619 2 -2.3796338765606837 -13.882621355412128 -14.02399441164449 0 1 1.90985931710274 0 0 0 1 0 0 0
2597 2 -12.958593884351115 -11.186142289192398 -13.327754456628947 0 1 1.90985931710274 0 0 0 1 0 0 0
2583 2 -9.338327596101587 -11.689915679372449 -13.424393212746823 0 1 1.90985931710274 0 0 0 1 0 0 0
2551 2 -5.511401419381013 -11.69331753669113 -13.197221167781487 0 1 1.90985931710274 0 0 0 1 0 0 0
2508 2 -2.5400009869866107 -11.269810283987274 -13.182136974115128 0 1 1.90985931710274 0 0 0 1 0 0 0
2574 2 -1.7340326062285296 -12.275602882891816 -12.593980762736408 0 1 1.90985931710274 0 0 0 1 0 0 0
2429 2 -12.859426926840326 -9.150539405355442 -12.654133808906515 0 1 1.90985931710274 0 0 0 1 0 0 0
2592 2 -13.95917496641463 -9.111304530661783 -13.358756832601905 0 1 1.90985931710274 0 0 0 1 0 0 0
2456 2 -10.477196774318388 -9.034495969140846 -13.986493350164093 0 1 1.90985931710274 0 0 0 1 0 0 0
2511 2 -8.397313665847342 -10.371583896274306 -13.466682682265942 0 1 1.90985931710274 0 0 0 1 0 0 0
2510 2 -4.240758093335099 -9.604872683010509 -14.142527357610625 0 1 1.90985931710274 0 0 0 1 0 0 0
2546 2 -1.1839836788383789 -9.355548236621308 -14.106280894319942 0 1 1.90985931710274 0 0 0 1 0 0 0
2572 2 -11.720331171975428 -7.997885391008099 -13.236564673100743 0 1 1.90985931710274 0 0 0 1 0 0 0
2458 2 -4.153570856528555 -8.004777675423487 -14.270812842521496 0 1 1.90985931710274 0 0 0 1 0 0 0
2530 2 -1.4076223817292988 -8.20791372432686 -12.948200761513068 0 1 1.90985931710274 0 0 0 1 0 0 0
2457 2 -13.503068929970146 -6.529248008230257 -12.788912325934737 0 1 1.90985931710274 0 0 0 1 0 0 0
2525 2 -7.042913106979102 -6.928932997766409 -14.238535460021557 0 1 1.90985931710274 0 0 0 1 0 0 0
2445 2 -4.986774129953659 -5.518322131126697 -13.205343846392624 0 1 1.90985931710274 0 0 0 1 0 0 0
2559 2 -4.15947380095211 -6.9917782235064765 -13.154085212501984 0 1 1.90985931710274 0 0 0 1 0 0 0
2444 2 -1.2282350885575077 -6.860547386050659 -12.925319353432732 0 1 1.90985931710274 0 0 0 1 0 0 0
2533 2 -11.67567364035423 -3.667195433534122 -13.30483340799306 0 1 1.90985931710274 0 0 0 1 0 0 0
2430 2 -2.920386291774797 -4.061665859011894 -13.216560412895074 0 1 1.90985931710274 0 0 0 1 0 0 0
2506 2 -2.297095303474304 -4.309335492634178 -14.141462702635843 0 1 1.90985931710274 0 0 0 1 0 0 0
2568 2 -11.071101975546055 -2.8185010025463235 -13.741249796058469 0 1 1.90985931710274 0 0 0 1 0 0 0
2517 2 -10.615147939114479 -2.7911086970461003 -12.576275253803052 0 1 1.90985931710274 0 0 0 1 0 0 0
2450 2 -8.640184395224933 -2.4475615204306047 -14.191843714832466 0 1 1.90985931710274 0 0 0 1 0 0 0
2532 2 -6.031754665712647 -3.436658632457867 -13.32050771935659 0 1 1.90985931710274 0 0 0 1 0 0 0
2422 2 -2.6470452285567934 -2.193456354024816 -13.216246095098226 0 1 1.90985931710274 0 0 0 1 0 0 0
2599 2 -0.1846138389422567 -3.086639102515866 -14.266537984161483 0 1 1.90985931710274 0 0 0 1 0 0 0
2440 2 -12.13146307358885 -0.9281018078177858 -13.913041993535636 0 1 1.90985931710274 0 0 0 1 0 0 0
2588 2 -11.100023730222139 -0.9878338434887652 -13.291075515679102 0 1 1.90985931710274 0 0 0 1 0 0 0
2516 2 -8.850675330412127 -1.3691368231446437 -12.679193267428621 0 1 1.90985931710274 0 0 0 1 0 0 0
2544 2 -8.267315984074067 -0.9446297463193053 -13.51426371316196 0 1 1.90985931710274 0 0 0 1 0 0 0
2521 2 -4.841318871668861 -0.44478613853433124 -13.236190346506044 0 1 1.90985931710274 0 0 0 1 0 0 0
2562 2 -13.834805930970239 -14.02078781680612 -11.399097060462992 0 1 1.90985931710274 0 0 0 1 0 0 0
2447 2 -12.167556777594214 -14.057498964961127 -11.189566663626952 0 1 1.90985931710274 0 0 0 1 0 0 0
2473 2 -10.03003274373302 -13.235261920857875 -11.568603858291244 0 1 1.90985931710274 0 0 0 1 0 0 0
2481 2 -2.2346917361777074 -14.262904278533462 -11.913419181182036 0 1 1.90985931710274 0 0 0 1 0 0 0
2570 2 -3.1122061515522965 -13.455521139420673 -11.024164243256424 0 1 1.90985931710274 0 0 0 1 0 0 0
2462 2 -13.100371111197239 -11.845191891977528 -11.352144466306276 0 1 1.90985931710274 0 0 0 1 0 0 0
2468 2 -8.487859978644742 -11.02548108219705 -10.997684485798167 0 1 1.90985931710274 0 0 0 1 0 0 0
2494 2 -8.732135413086695 -12.30626574806482 -11.325063725415292 0 1 1.90985931710274 0 0 0 1 0 0 0
2491 2 -6.440383398556403 -11.698305537466398 -10.92726819774714 0 1 1.90985931710274 0 0 0 1 0 0 0
2479 2 -7.50249089963152 -10.458608106952525 -12.326797551092035 0 1 1.90985931710274 0 0 0 1 0 0 0
2607 2 -8.885689359828476 -9.988988637196641 -12.233219363949429 0 1 1.90985931710274 0 0 0 1 0 0 0
2542 2 -1.812410324305823 -9.319586607963096 -12.422162035757294 0 1 1.90985931710274 0 0 0 1 0 0 0
2515 2 -12.818426991590561 -8.890883662564462 -11.186352720934526 0 1 1.90985931710274 0 0 0 1 0 0 0
2565 2 -13.92495964723382 -8.076315058795245 -11.1536671716893 0 1 1.90985931710274 0 0 0 1 0 0 0
2427 2 -10.437541165244271 -8.436396009733446 -11.120562761124441 0 1 1.90985931710274 0 0 0 1 0 0 0
2563 2 -9.640711638986419 -7.99632669543276 -11.723474967317005 0 1 1.90985931710274 0 0 0 1 0 0 0
2437 2 -8.20247772914091 -7.688711671269802 -11.851871031558145 0 1 1.90985931710274 0 0 0 1 0 0 0
2475 2 -3.3586115876498077 -7.253560008920758 -12.420533192018818 0 1 1.90985931710274 0 0 0 1 0 0 0
2497 2 -2.895475307166878 -8.202972424548516 -11.461816114635152 0 1 1.90985931710274 0 0 0 1 0 0 0
2526 2 -2.0833640625948373 -7.461305160585711 -11.617389236343218 0 1 1.90985931710274 0 0 0 1 0 0 0
2535 2 -12.039612431479954 -7.053435883569478 -11.578675152208973 0 1 1.90985931710274 0 0 0 1 0 0 0
2577 2 -10.395035147364432 -5.796543753978341 -10.997837113965529 0 1 1.90985931710274 0 0 0 1 0 0 0
2478 2 -4.1022291868210825 -6.13815490195249 -12.237601115486548 0 1 1.90985931710274 0 0 0 1 0 0 0
2459 2 -0.6168556327905179 -6.3976863102565185 -11.615692481299746 0 1 1.90985931710274 0 0 0 1 0 0 0
2485 2 -12.700294727976221 -3.817415096338502 -12.350434161206078 0 1 1.90985931710274 0 0 0 1 0 0 0
2610 2 -11.70309121904749 -5.256936531159019 -11.364947189630307 0 1 1.90985931710274 0 0 0 1 0 0 0
1773 1 -2.5293110254501143 -4.017420313103844 -10.967922118238022 0 4 0.0298415518297304 1 -0.214148 -0.333881 -0.917967 0 0 0
1791 1 -1.8043773161599217 -3.960234221833683 -11.13171558938183 0 4 0.0298415518297304 1 -0.149145 -0.333904 -0.930733 0 0 0
1792 1 -1.3942285429139425 -4.527409841300541 -10.975640721862607 0 4 0.0298415518297304 1 -0.119553 -0.374767 -0.919379 0 0 0
1811 1 -0.3522053557303874 -3.8619611313205353 -11.308090336798315 0 4 0.0298415518297304 1 -0.030774 -0.318484 -0.947429 0 0 0
1812 1 -0.7106141284784225 -4.422370927131481 -11.08496819773124 0 4 0.0298415518297304 1 -0.057112 -0.374801 -0.925344 0 0 0
1813 1 -0.3282260859712711 -4.959509308734032 -10.876011960372498 0 4 0.0298415518297304 1 -0.03097 -0.408879 -0.912063 0 0 0
2431 2 -10.205289560514323 -2.5638995642379943 -11.117882147987611 0 1 1.90985931710274 0 0 0 1 0 0 0
2451 2 -7.721769551102534 -2.75819686060566 -11.891932957722194 0 1 1.90985931710274 0 0 0 1 0 0 0
2567 2 -8.715021309513318 -2.3560475100148426 -12.137768061060495 0 1 1.90985931710274 0 0 0 1 0 0 0
1754 1 -3.8114019686846525 -2.115633286578001 -11.123083633229703 0 4 0.0298415518297304 1 -0.319741 -0.176449 -0.930931 0 0 0
1755 1 -4.148160133050597 -2.787820095153561 -10.852187900093165 0 4 0.0298415518297304 1 -0.346156 -0.232877 -0.908815 0 0 0
1756 1 -3.7071227937142512 -3.4315134233143305 -10.828792332517375 0 4 0.0298415518297304 1 -0.312038 -0.286305 -0.905904 0 0 0
1770 1 -3.039448746477639 -2.103550570471817 -11.360997099847129 0 4 0.0298415518297304 1 -0.254167 -0.176454 -0.950927 0 0 0
1771 1 -2.616436136241011 -2.7661375647652378 -11.325622741883521 0 4 0.0298415518297304 1 -0.220102 -0.229781 -0.948027 0 0 0
1772 1 -2.963422670948167 -3.412019013526081 -11.06193314522361 0 4 0.0298415518297304 1 -0.246557 -0.286314 -0.925869 0 0 0
1789 1 -1.8548371467004798 -2.726875306230269 -11.48537574342067 0 4 0.0298415518297304 1 -0.155112 -0.229798 -0.960798 0 0 0
1788 1 -1.4926796990507116 -2.0629124085374824 -11.674634439008784 0 4 0.0298415518297304 1 -0.124901 -0.170648 -0.977384 0 0 0
1790 1 -1.4521994712227135 -3.3517287379160643 -11.379342313562363 0 4 0.0298415518297304 1 -0.122693 -0.277359 -0.9529 0 0 0
1808 1 -0.7363147481133524 -2.0167350080379154 -11.756097880475448 0 4 0.0298415518297304 1 -0.063153 -0.170666 -0.983303 0 0 0
1809 1 -0.3678117563873662 -2.6502621255199252 -11.648741412035173 0 4 0.0298415518297304 1 -0.030501 -0.218543 -0.97535 0 0 0
1810 1 -0.7237953884855253 -3.276131940429869 -11.472097285570149 0 4 0.0298415518297304 1 -0.060552 -0.277386 -0.958848 0 0 0
2486 2 -12.917033595233317 -1.50861908633998 -12.294982116050651 0 1 1.90985931710274 0 0 0 1 0 0 0
2513 2 -14.218221933984653 -0.3474004800405357 -12.437786041304541 0 1 1.90985931710274 0 0 0 1 0 0 0
2581 2 -7.187669002151669 -0.24827316308529923 -11.068421974615061 0 1 1.90985931710274 0 0 0 1 0 0 0
1752 1 -3.86648581940601 -0.7152375895268429 -11.279869072120212 0 4 0.0298415518297304 1 -0.323807 -0.059642 -0.944241 0 0 0
1753 1 -4.2327990080513676 -1.423347517251903 -11.07989365716363 0 4 0.0298415518297304 1 -0.354065 -0.118867 -0.927636 0 0 0
1768 1 -3.0804279528325313 -0.7111428724090038 -11.52006018579294 0 4 0.0298415518297304 1 -0.258241 -0.059644 -0.964238 0 0 0
1769 1 -2.672170851459992 -1.4115491063592356 -11.558231437056955 0 4 0.0298415518297304 1 -0.22391 -0.117222 -0.967535 0 0 0
1787 1 -1.8888478978032397 -1.3914885773027972 -11.715167821109105 0 4 0.0298415518297304 1 -0.159038 -0.117231 -0.980288 0 0 0
1786 1 -1.5137182198694838 -0.6968056081181138 -11.83119651802187 0 4 0.0298415518297304 1 -0.126041 -0.05763 -0.99035 0 0 0
1806 1 -0.7436907815813953 -0.6812230974745015 -11.906795768543468 0 4 0.0298415518297304 1 -0.064561 -0.057636 -0.996248 0 0 0
1807 1 -0.37686877902933724 -1.3496076122842269 -11.86812127662825 0 4 0.0298415518297304 1 -0.030269 -0.111273 -0.993329 0 0 0
2446 2 -7.846711175326929 -13.942904594676435 -10.694116549071154 0 1 1.90985931710274 0 0 0 1 0 0 0
2602 2 -5.521770672349806 -13.762788183185931 -9.064448805940884 0 1 1.90985931710274 0 0 0 1 0 0 0
2503 2 -1.827981083739342 -12.707494407124473 -10.018046541009408 0 1 1.90985931710274 0 0 0 1 0 0 0
2424 2 -13.220957801748314 -10.803583659580067 -9.176609796082444 0 1 1.90985931710274 0 0 0 1 0 0 0
2571 2 -12.169619353624842 -10.796632372708789 -10.684020116597388 0 1 1.90985931710274 0 0 0 1 0 0 0
2555 2 -9.799362306137898 -11.00490725964635 -9.626576876183881 0 1 1.90985931710274 0 0 0 1 0 0 0
2439 2 -6.607708869900296 -11.230290414281287 -9.096848825574249 0 1 1.90985931710274 0 0 0 1 0 0 0
2438 2 -2.5058656305313125 -11.578754339765156 -10.70686843296648 0 1 1.90985931710274 0 0 0 1 0 0 0
2541 2 -10.87340217576341 -9.404870055634094 -10.726367042201575 0 1 1.90985931710274 0 0 0 1 0 0 0
2537 2 -1.0712867956205194 -9.53123599408811 -10.67773863888119 0 1 1.90985931710274 0 0 0 1 0 0 0
2522 2 -9.440583349443116 -8.23672209044148 -9.211812049967584 0 1 1.90985931710274 0 0 0 1 0 0 0
2616 2 -9.99894088916282 -7.294154159527712 -10.476485182241785 0 1 1.90985931710274 0 0 0 1 0 0 0
2505 2 -7.748245704637852 -7.902079848361133 -10.294073405563367 0 1 1.90985931710274 0 0 0 1 0 0 0
1571 1 -0.6155775977841709 -7.430419130501573 -9.348906162508925 0 4 0.0298415518297304 1 -0.052348 -0.627009 -0.777251 0 0 0
1672 1 -1.7891570029506303 -7.246032847391109 -9.33984966043232 0 4 0.0298415518297304 1 -0.144752 -0.604243 -0.783541 0 0 0
2498 2 -12.642423165513431 -7.0072607842470935 -10.443318840904379 0 1 1.90985931710274 0 0 0 1 0 0 0
2520 2 -13.494516767457245 -6.2985226538978605 -9.635572061331782 0 1 1.90985931710274 0 0 0 1 0 0 0
2606 2 -11.848735610400576 -5.5380166802681 -10.098016815889157 0 1 1.90985931710274 0 0 0 1 0 0 0
2605 2 -9.755607365990102 -6.037303513778069 -9.297931549501536 0 1 1.90985931710274 0 0 0 1 0 0 0
2575 2 -8.204129320945626 -6.745921133109485 -9.375184171112062 0 1 1.90985931710274 0 0 0 1 0 0 0
1667 1 -4.629649181325049 -5.846719577457926 -9.336112728622068 0 4 0.0298415518297304 1 -0.389231 -0.488399 -0.781003 0 0 0
1668 1 -4.109775397540957 -6.413209013816228 -9.207096031147115 0 4 0.0298415518297304 1 -0.342421 -0.53729 -0.770758 0 0 0
1669 1 -3.4268197334280326 -6.3671283268970695 -9.515722686147727 0 4 0.0298415518297304 1 -0.289976 -0.532402 -0.795275 0 0 0
1670 1 -2.9195443775880694 -6.8797784902812955 -9.327338261728201 0 4 0.0298415518297304 1 -0.241321 -0.575225 -0.781589 0 0 0
1671 1 -2.2559092717178135 -6.783319053141226 -9.581412179409126 0 4 0.0298415518297304 1 -0.193441 -0.568207 -0.799826 0 0 0
1689 1 -3.309267907455417 -5.7687017515614585 -9.931604703079781 0 4 0.0298415518297304 1 -0.273726 -0.483981 -0.831166 0 0 0
1690 1 -2.63849077709189 -5.710312428807246 -10.165746059644487 0 4 0.0298415518297304 1 -0.225565 -0.47691 -0.849516 0 0 0
1691 1 -2.184302998367814 -6.211528291683313 -9.979208801255677 0 4 0.0298415518297304 1 -0.177101 -0.519552 -0.835883 0 0 0
1673 1 -1.14665875491715 -7.102193318178118 -9.551761345313452 0 4 0.0298415518297304 1 -0.102459 -0.596039 -0.796392 0 0 0
1692 1 -1.5271061926927691 -6.106168118875939 -10.16733844680462 0 4 0.0298415518297304 1 -0.134812 -0.511338 -0.84874 0 0 0
1693 1 -1.1377675643454386 -6.570502549743725 -9.928117389224152 0 4 0.0298415518297304 1 -0.086106 -0.547371 -0.832448 0 0 0
1694 1 -0.4865794786618666 -6.417728021582561 -10.08337967517057 0 4 0.0298415518297304 1 -0.050161 -0.538863 -0.840898 0 0 0
1794 1 -1.324251409088832 -5.575087225059108 -10.49556439859258 0 4 0.0298415518297304 1 -0.115671 -0.461227 -0.87971 0 0 0
1814 1 -0.7031792711430755 -5.432734791968485 -10.631296536123939 0 4 0.0298415518297304 1 -0.053217 -0.461265 -0.885665 0 0 0
1815 1 -0.3007226119801671 -5.931148609750038 -10.38410240725975 0 4 0.0298415518297304 1 -0.031001 -0.488703 -0.871899 0 0 0
2469 2 -13.25362541489942 -4.491814214539419 -10.044283764023433 0 1 1.90985931710274 0 0 0 1 0 0 0
2455 2 -11.101487298252602 -4.856143053674591 -9.68654755893603 0 1 1.90985931710274 0 0 0 1 0 0 0
1665 1 -5.819635519704458 -5.229067623256141 -9.030104738562834 0 4 0.0298415518297304 1 -0.4875 -0.436819 -0.755998 0 0 0
1683 1 -6.734332239905998 -3.9404487203291834 -9.050444772702892 0 4 0.0298415518297304 1 -0.564703 -0.33127 -0.755891 0 0 0
1684 1 -6.089382005172075 -3.9982103829107847 -9.472968743546604 0 4 0.0298415518297304 1 -0.509098 -0.333291 -0.793559 0 0 0
1685 1 -5.632089492713752 -4.621672847602975 -9.471464327594123 0 4 0.0298415518297304 1 -0.471446 -0.388906 -0.791512 0 0 0
2609 2 -7.133317470234862 -5.197084237322548 -9.965734680065063 0 1 1.90985931710274 0 0 0 1 0 0 0
1686 1 -4.958664267611715 -4.6471478823731145 -9.830129370841252 0 4 0.0298415518297304 1 -0.415996 -0.38708 -0.822871 0 0 0
1687 1 -4.474010090314408 -5.236891991858055 -9.765930954750743 0 4 0.0298415518297304 1 -0.373095 -0.440282 -0.816671 0 0 0
1688 1 -3.7939239923523522 -5.222355621366762 -10.059100048941238 0 4 0.0298415518297304 1 -0.320296 -0.435348 -0.841358 0 0 0
1743 1 -4.725745922084348 -4.03736240898212 -10.206998193417988 0 4 0.0298415518297304 1 -0.397289 -0.338104 -0.85314 0 0 0
1757 1 -4.018942358833174 -4.045510343949046 -10.502245767290724 0 4 0.0298415518297304 1 -0.334064 -0.338099 -0.879824 0 0 0
1758 1 -3.566604096775424 -4.627224043334814 -10.426911840880612 0 4 0.0298415518297304 1 -0.301445 -0.385995 -0.871859 0 0 0
1774 1 -2.861937509150159 -4.597576101275517 -10.65540007802271 0 4 0.0298415518297304 1 -0.236303 -0.386006 -0.891718 0 0 0
1775 1 -2.4208158069392542 -5.140432586494049 -10.517951734564901 0 4 0.0298415518297304 1 -0.206546 -0.427117 -0.88029 0 0 0
4107 2 -1.9569870801987506 -4.412106900405846 -9.788875121077606 0 1 1.90985931710274 0 0 0 1 0 0 0
1793 1 -1.745118796613131 -5.061730274197689 -10.689822936524607 0 4 0.0298415518297304 1 -0.141803 -0.427143 -0.892995 0 0 0
4149 2 -0.42580891940548504 -5.214686447978571 -9.229339175855092 0 1 1.90985931710274 0 0 0 1 0 0 0
2492 2 -13.289327829607897 -1.8193242199074309 -10.717053984169915 0 1 1.90985931710274 0 0 0 1 0 0 0
2603 2 -10.987462595191312 -3.445041380377994 -10.703882012946773 0 1 1.90985931710274 0 0 0 1 0 0 0
1718 1 -7.28208785979175 -2.02877540751461 -9.255835233925785 0 4 0.0298415518297304 1 -0.610208 -0.167433 -0.774346 0 0 0
2539 2 -8.135583783778856 -2.744837971231819 -9.833724493176074 0 1 1.90985931710274 0 0 0 1 0 0 0
1682 1 -7.142375312258343 -3.2975402454766938 -8.996025895892759 0 4 0.0298415518297304 1 -0.59604 -0.275807 -0.7541 0 0 0
1719 1 -6.909457866036755 -2.6877540399909075 -9.37289470523265 0 4 0.0298415518297304 1 -0.577333 -0.226831 -0.784369 0 0 0
1728 1 -6.011561039835598 -2.0830139269438743 -10.113173319118141 0 4 0.0298415518297304 1 -0.502849 -0.175251 -0.846422 0 0 0
1729 1 -6.274706368145702 -2.737132063013731 -9.79413632702012 0 4 0.0298415518297304 1 -0.524802 -0.226809 -0.820451 0 0 0
1730 1 -5.854617017001387 -3.383586720413358 -9.85282733924287 0 4 0.0298415518297304 1 -0.490447 -0.284461 -0.823738 0 0 0
1740 1 -5.310097654165997 -2.1070288296765565 -10.492772653721886 0 4 0.0298415518297304 1 -0.443955 -0.17524 -0.878746 0 0 0
1741 1 -4.884105722525149 -2.7798204017072834 -10.54382301778774 0 4 0.0298415518297304 1 -0.409603 -0.232881 -0.882039 0 0 0
1742 1 -5.172463522025751 -3.4183554655301926 -10.215155116265121 0 4 0.0298415518297304 1 -0.431545 -0.284445 -0.856072 0 0 0
4124 2 -1.7904120820041882 -3.142738244405596 -9.989449724839094 0 1 1.90985931710274 0 0 0 1 0 0 0
4137 2 -1.6565710472690753 -1.9287994513625328 -9.014189050088326 0 1 1.90985931710274 0 0 0 1 0 0 0
2433 2 -14.16704557581852 -1.2591687818551538 -10.143438639584723 0 1 1.90985931710274 0 0 0 1 0 0 0
1716 1 -7.375600354702212 -0.6851437658954604 -9.376631494888152 0 4 0.0298415518297304 1 -0.618377 -0.056516 -0.783847 0 0 0
1717 1 -7.044985182758772 -1.3686009819231013 -9.553842441772057 0 4 0.0298415518297304 1 -0.588153 -0.115657 -0.800437 0 0 0
1726 1 -6.095336996791155 -0.7040841837917592 -10.25069844397294 0 4 0.0298415518297304 1 -0.50941 -0.059226 -0.858483 0 0 0
1727 1 -6.399635919207783 -1.3963315588536618 -9.992199987587664 0 4 0.0298415518297304 1 -0.53584 -0.115646 -0.836362 0 0 0
1738 1 -5.383451567067813 -0.7122045543855867 -10.64038312370757 0 4 0.0298415518297304 1 -0.450572 -0.059223 -0.890774 0 0 0
4098 2 -5.414868366111789 -1.3083392408467134 -9.003438910692859 0 1 1.90985931710274 0 0 0 1 0 0 0
1739 1 -4.98783925556015 -1.4192693658356634 -10.76190507047654 0 4 0.0298415518297304 1 -0.417556 -0.118869 -0.900842 0 0 0
4099 2 -0.587745620720515 -0.28093344970092815 -9.88562312348969 0 1 1.90985931710274 0 0 0 1 0 0 0
2432 2 -14.251408469819507 -12.792722256443787 -7.387810050712791 0 1 1.90985931710274 0 0 0 1 0 0 0
2426 2 -10.649976016282782 -14.124721664724332 -7.448545021842188 0 1 1.90985931710274 0 0 0 1 0 0 0
2489 2 -9.596269893921605 -13.060921140380506 -8.934694375156575 0 1 1.90985931710274 0 0 0 1 0 0 0
2477 2 -6.826445709366091 -13.800319315890194 -8.426128166491633 0 1 1.90985931710274 0 0 0 1 0 0 0
2500 2 -4.295680724570602 -14.254527858108661 -7.818093232243149 0 1 1.90985931710274 0 0 0 1 0 0 0
2448 2 -7.640919702382528 -12.242881943157343 -7.973932645458789 0 1 1.90985931710274 0 0 0 1 0 0 0
2569 2 -5.190319174231602 -11.069695310518492 -7.877775884282045 0 1 1.90985931710274 0 0 0 1 0 0 0
2454 2 -3.4707561793610235 -12.37609852072294 -8.259619790442658 0 1 1.90985931710274 0 0 0 1 0 0 0
2461 2 -12.206069432233866 -10.654571878901667 -8.797415466413279 0 1 1.90985931710274 0 0 0 1 0 0 0
2614 2 -9.59096414054747 -9.990406181324751 -7.356789525085605 0 1 1.90985931710274 0 0 0 1 0 0 0
2493 2 -8.376811345984503 -10.202221961555164 -8.408951857638385 0 1 1.90985931710274 0 0 0 1 0 0 0
2536 2 -5.413903321239934 -9.005140079547036 -8.520654947049882 0 1 1.90985931710274 0 0 0 1 0 0 0
2579 2 -5.477175728969218 -10.484018785624844 -8.887663996767454 0 1 1.90985931710274 0 0 0 1 0 0 0
1566 1 -2.02877540751461 -9.255835233925785 -7.28208785979175 0 4 0.0298415518297304 1 -0.167433 -0.774346 -0.610208 0 0 0
2595 2 -2.861012785282245 -10.709432238688452 -8.867161636809652 0 1 1.90985931710274 0 0 0 1 0 0 0
1547 1 -0.6851437658954603 -9.376631494888152 -7.375600354702212 0 4 0.0298415518297304 1 -0.056516 -0.783847 -0.618377 0 0 0
2557 2 -14.140152265524653 -8.480806672849289 -7.28494657798439 0 1 1.90985931710274 0 0 0 1 0 0 0
2558 2 -11.745956011221635 -8.158148602014318 -8.877516054641337 0 1 1.90985931710274 0 0 0 1 0 0 0
2554 2 -7.560397999598425 -7.86604125073481 -7.3163370999500374 0 1 1.90985931710274 0 0 0 1 0 0 0
1632 1 -5.696441317200801 -7.5599552786647415 -7.2872611811923225 0 4 0.0298415518297304 1 -0.477065 -0.632533 -0.610173 0 0 0
1633 1 -5.027747336910463 -7.578527615711209 -7.746829429466787 0 4 0.0298415518297304 1 -0.421521 -0.634573 -0.647794 0 0 0
1634 1 -4.452551263255395 -8.103352022611611 -7.567008598743931 0 4 0.0298415518297304 1 -0.372974 -0.677324 -0.634131 0 0 0
1635 1 -3.7838070843487692 -8.061162762905834 -7.967511654140036 0 4 0.0298415518297304 1 -0.317751 -0.675536 -0.665346 0 0 0
1651 1 -3.6863335632185215 -7.521794481100211 -8.521952334138087 0 4 0.0298415518297304 1 -0.307492 -0.628735 -0.714242 0 0 0
1567 1 -1.976962086269973 -8.788959806380333 -7.8548174342616175 0 4 0.0298415518297304 1 -0.167452 -0.736792 -0.655055 0 0 0
1636 1 -3.2201579666754445 -8.519520450007567 -7.737155463213315 0 4 0.0298415518297304 1 -0.269616 -0.711194 -0.649239 0 0 0
1637 1 -2.572094274093865 -8.421148108100308 -8.08213718829916 0 4 0.0298415518297304 1 -0.216805 -0.706291 -0.673906 0 0 0
1652 1 -3.015399555322699 -7.444239992366906 -8.850031126127387 0 4 0.0298415518297304 1 -0.255043 -0.623858 -0.738752 0 0 0
1653 1 -2.492570003313927 -7.906844018523753 -8.610159610496206 0 4 0.0298415518297304 1 -0.206595 -0.659732 -0.722546 0 0 0
1654 1 -1.848351927259901 -7.778922635537865 -8.887274502417357 0 4 0.0298415518297304 1 -0.158426 -0.652682 -0.740883 0 0 0
4121 2 -2.9395137077183087 -7.181564316523066 -7.491357570773545 0 1 1.90985931710274 0 0 0 1 0 0 0
1548 1 -0.6656915704953396 -8.896439356475284 -7.952522696613374 0 4 0.0298415518297304 1 -0.056523 -0.74655 -0.662924 0 0 0
1568 1 -1.321444919037123 -8.630639292972145 -8.162830137834208 0 4 0.0298415518297304 1 -0.10862 -0.720284 -0.685123 0 0 0
1569 1 -1.2784715515496379 -8.131128066779423 -8.669599745290057 0 4 0.0298415518297304 1 -0.108633 -0.683456 -0.721864 0 0 0
1570 1 -0.6393586009192921 -7.9566467609051275 -8.9006657194245 0 4 0.0298415518297304 1 -0.052342 -0.661356 -0.748244 0 0 0
2488 2 -14.181056387172683 -7.130123211280774 -8.913361995960084 0 1 1.90985931710274 0 0 0 1 0 0 0
2552 2 -11.873920148351768 -6.269351348158644 -7.272034502325391 0 1 1.90985931710274 0 0 0 1 0 0 0
2545 2 -9.884322639543656 -6.027107467993242 -7.720520339725828 0 1 1.90985931710274 0 0 0 1 0 0 0
2590 2 -10.252460580634477 -5.3947947476913045 -8.568281188967903 0 1 1.90985931710274 0 0 0 1 0 0 0
1645 1 -7.2872611811923225 -5.696441317200801 -7.5599552786647415 0 4 0.0298415518297304 1 -0.610173 -0.477065 -0.632533 0 0 0
2441 2 -8.129005723605399 -6.991756635915688 -8.174943834953732 0 1 1.90985931710274 0 0 0 1 0 0 0
1631 1 -6.266867052693044 -6.983444409887206 -7.425803701528152 0 4 0.0298415518297304 1 -0.523931 -0.583573 -0.620434 0 0 0
1646 1 -6.651223165669366 -5.774066719283829 -8.070493389834603 0 4 0.0298415518297304 1 -0.556751 -0.483286 -0.67562 0 0 0
1647 1 -6.136607830526459 -6.407584207931539 -7.9994657362479495 0 4 0.0298415518297304 1 -0.513666 -0.536709 -0.669396 0 0 0
1648 1 -5.46289520267755 -6.439296458190344 -8.450912740693703 0 4 0.0298415518297304 1 -0.458125 -0.538743 -0.70702 0 0 0
1649 1 -4.917931978313914 -7.021482536804528 -8.321548324326256 0 4 0.0298415518297304 1 -0.411251 -0.587705 -0.69676 0 0 0
1650 1 -4.233482399091309 -6.999619942319504 -8.709186563023858 0 4 0.0298415518297304 1 -0.356132 -0.585913 -0.727926 0 0 0
1666 1 -5.315532000828298 -5.844040723021723 -8.963339986921262 0 4 0.0298415518297304 1 -0.444447 -0.490205 -0.749777 0 0 0
4134 2 -3.9906792190381184 -6.456922373661164 -7.442948123181712 0 1 1.90985931710274 0 0 0 1 0 0 0
4109 2 -0.9154098351909106 -6.290446053629472 -7.832063350542812 0 1 1.90985931710274 0 0 0 1 0 0 0
2490 2 -13.625940578845812 -5.154282661543466 -8.127000561032947 0 1 1.90985931710274 0 0 0 1 0 0 0
2529 2 -11.585253800441919 -5.138928027337126 -8.371509455092013 0 1 1.90985931710274 0 0 0 1 0 0 0
2471 2 -10.471805859238263 -4.532668217481003 -7.851255203229352 0 1 1.90985931710274 0 0 0 1 0 0 0
1644 1 -7.746829429466787 -5.027747336910463 -7.578527615711209 0 4 0.0298415518297304 1 -0.647794 -0.421521 -0.634573 0 0 0
1660 1 -8.521952334138087 -3.6863335632185215 -7.521794481100211 0 4 0.0298415518297304 1 -0.714242 -0.307492 -0.628735 0 0 0
1661 1 -7.967511654140036 -3.7838070843487692 -8.061162762905834 0 4 0.0298415518297304 1 -0.665346 -0.317751 -0.675536 0 0 0
1662 1 -7.567008598743931 -4.452551263255395 -8.103352022611611 0 4 0.0298415518297304 1 -0.634131 -0.372974 -0.677324 0 0 0
1663 1 -6.947090881314812 -4.532261116183702 -8.599454995390728 0 4 0.0298415518297304 1 -0.580747 -0.379189 -0.720381 0 0 0
1664 1 -6.484890297575802 -5.182674844411291 -8.591918993333321 0 4 0.0298415518297304 1 -0.543095 -0.434791 -0.718335 0 0 0
4090 2 -2.8136739583214183 -4.366511508090132 -8.82961247085109 0 1 1.90985931710274 0 0 0 1 0 0 0
4110 2 -1.4987324411480571 -3.986504375399373 -8.043059337265051 0 1 1.90985931710274 0 0 0 1 0 0 0
4145 2 -0.41150495168543344 -3.9836809770923445 -8.425359991030703 0 1 1.90985931710274 0 0 0 1 0 0 0
2452 2 -9.018277239317221 -2.864794395321208 -8.943963767402462 0 1 1.90985931710274 0 0 0 1 0 0 0
1659 1 -8.850031126127387 -3.015399555322699 -7.444239992366906 0 4 0.0298415518297304 1 -0.738752 -0.255043 -0.623858 0 0 0
1678 1 -8.887274502417357 -1.848351927259901 -7.778922635537865 0 4 0.0298415518297304 1 -0.740883 -0.158426 -0.652682 0 0 0
1679 1 -8.610159610496206 -2.492570003313927 -7.906844018523753 0 4 0.0298415518297304 1 -0.722546 -0.206595 -0.659732 0 0 0
1680 1 -8.080617290748208 -2.571622944473164 -8.420311569116006 0 4 0.0298415518297304 1 -0.673906 -0.216805 -0.706291 0 0 0
1681 1 -7.737155463213315 -3.2201579666754445 -8.519520450007567 0 4 0.0298415518297304 1 -0.649239 -0.269616 -0.711194 0 0 0
1710 1 -7.8548174342616175 -1.976962086269973 -8.788959806380333 0 4 0.0298415518297304 1 -0.655055 -0.167452 -0.736792 0 0 0
4080 2 -4.0943344701013205 -2.607532992899852 -7.804115667794729 0 1 1.90985931710274 0 0 0 1 0 0 0
4072 2 -0.767214881092352 -3.005964519172455 -7.320937731450517 0 1 1.90985931710274 0 0 0 1 0 0 0
2613 2 -13.584738043737113 -1.4895310896430498 -7.195055630757456 0 1 1.90985931710274 0 0 0 1 0 0 0
2566 2 -11.533779135735024 -1.0370582985611634 -8.274765917465196 0 1 1.90985931710274 0 0 0 1 0 0 0
1677 1 -9.33984966043232 -1.7891570029506303 -7.246032847391109 0 4 0.0298415518297304 1 -0.783541 -0.144752 -0.604243 0 0 0
1698 1 -9.348906162508925 -0.6155775977841709 -7.430419130501573 0 4 0.0298415518297304 1 -0.777251 -0.052348 -0.627009 0 0 0
1702 1 -8.9006657194245 -0.6393586009192921 -7.9566467609051275 0 4 0.0298415518297304 1 -0.748244 -0.052342 -0.661356 0 0 0
1703 1 -8.669599745290057 -1.2784715515496379 -8.131128066779423 0 4 0.0298415518297304 1 -0.721864 -0.108633 -0.683456 0 0 0
1708 1 -7.952522696613374 -0.6656915704953397 -8.896439356475284 0 4 0.0298415518297304 1 -0.662924 -0.056523 -0.74655 0 0 0
1709 1 -8.162830137834208 -1.321444919037123 -8.630639292972145 0 4 0.0298415518297304 1 -0.685123 -0.10862 -0.720284 0 0 0
4122 2 -7.624870348937659 -0.8130305952385299 -7.668176173987489 0 1 1.90985931710274 0 0 0 1 0 0 0
4116 2 -6.6728590401209384 -1.2186453126186052 -8.325001180894349 0 1 1.90985931710274 0 0 0 1 0 0 0
4125 2 -5.810434906689085 -0.5085027234519792 -7.829927057416591 0 1 1.90985931710274 0 0 0 1 0 0 0
4136 2 -2.223133631188069 -1.5807234658017466 -7.920516645404335 0 1 1.90985931710274 0 0 0 1 0 0 0
4100 2 -0.4767677260354759 -0.6465414782306382 -7.842212622343828 0 1 1.90985931710274 0 0 0 1 0 0 0
2443 2 -1.455720662785378 -12.96509143383454 -5.586080457112576 0 1 1.90985931710274 0 0 0 1 0 0 0
2553 2 -0.37306636316607644 -13.287873732236553 -6.081403699736072 0 1 1.90985931710274 0 0 0 1 0 0 0
2472 2 -11.788823543218399 -11.105408871627283 -5.39262343971782 0 1 1.90985931710274 0 0 0 1 0 0 0
2467 2 -10.724998307011049 -12.176225934683515 -7.029064225824217 0 1 1.90985931710274 0 0 0 1 0 0 0
2483 2 -7.630594219750699 -10.909059349986203 -5.972023218101157 0 1 1.90985931710274 0 0 0 1 0 0 0
2470 2 -6.860514802208976 -12.377682726256216 -6.184268188203591 0 1 1.90985931710274 0 0 0 1 0 0 0
2523 2 -4.966626102567929 -11.303553859173045 -6.288525121351032 0 1 1.90985931710274 0 0 0 1 0 0 0
2612 2 -5.007681916834132 -12.502368231260583 -6.5936887966091815 0 1 1.90985931710274 0 0 0 1 0 0 0
2560 2 -3.19920722743562 -11.926809510444246 -5.446946036434772 0 1 1.90985931710274 0 0 0 1 0 0 0
2514 2 -11.802394205410067 -9.578776326974065 -6.057481453090258 0 1 1.90985931710274 0 0 0 1 0 0 0
2549 2 -7.531459779256651 -9.419969966526796 -6.20072341583848 0 1 1.90985931710274 0 0 0 1 0 0 0
2617 2 -8.33926417529418 -10.570992169252234 -6.893528622298926 0 1 1.90985931710274 0 0 0 1 0 0 0
1607 1 -5.229067623256141 -9.030104738562834 -5.819635519704458 0 4 0.0298415518297304 1 -0.436819 -0.755998 -0.4875 0 0 0
1608 1 -4.621672847602975 -9.471464327594123 -5.632089492713752 0 4 0.0298415518297304 1 -0.388906 -0.791512 -0.471446 0 0 0
1609 1 -3.9982103829107847 -9.472968743546604 -6.089382005172075 0 4 0.0298415518297304 1 -0.333291 -0.793559 -0.509098 0 0 0
1621 1 -3.9404487203291834 -9.050444772702892 -6.734332239905998 0 4 0.0298415518297304 1 -0.33127 -0.755891 -0.564703 0 0 0
1544 1 -2.0830139269438743 -10.113173319118141 -6.011561039835598 0 4 0.0298415518297304 1 -0.175251 -0.846422 -0.502849 0 0 0
1563 1 -3.383586720413358 -9.85282733924287 -5.854617017001387 0 4 0.0298415518297304 1 -0.284461 -0.823738 -0.490447 0 0 0
1564 1 -2.737132063013731 -9.79413632702012 -6.274706368145702 0 4 0.0298415518297304 1 -0.226809 -0.820451 -0.524802 0 0 0
1565 1 -2.6877540399909075 -9.37289470523265 -6.909457866036755 0 4 0.0298415518297304 1 -0.226831 -0.784369 -0.577333 0 0 0
1622 1 -3.2975402454766938 -8.996025895892759 -7.142375312258343 0 4 0.0298415518297304 1 -0.275807 -0.7541 -0.59604 0 0 0
1526 1 -0.7122045543855867 -10.64038312370757 -5.383451567067813 0 4 0.0298415518297304 1 -0.059223 -0.890774 -0.450572 0 0 0
1527 1 -0.7040841837917592 -10.25069844397294 -6.095336996791155 0 4 0.0298415518297304 1 -0.059226 -0.858483 -0.50941 0 0 0
1545 1 -1.3963315588536618 -9.992199987587664 -6.399635919207783 0 4 0.0298415518297304 1 -0.115646 -0.836362 -0.53584 0 0 0
1546 1 -1.3686009819231013 -9.553842441772057 -7.044985182758772 0 4 0.0298415518297304 1 -0.115657 -0.800437 -0.588153 0 0 0
2547 2 -13.226550835268082 -8.666858350654518 -5.836249450482839 0 1 1.90985931710274 0 0 0 1 0 0 0
2576 2 -13.726838075147707 -7.57395700752022 -6.143535392341674 0 1 1.90985931710274 0 0 0 1 0 0 0
2564 2 -11.637643104270767 -8.310087556277127 -5.811413060451276 0 1 1.90985931710274 0 0 0 1 0 0 0
1615 1 -7.5599552786647415 -7.2872611811923225 -5.696441317200801 0 4 0.0298415518297304 1 -0.632533 -0.610173 -0.477065 0 0 0
2585 2 -8.892353557352079 -7.189780416381783 -7.033718128619828 0 1 1.90985931710274 0 0 0 1 0 0 0
1605 1 -6.439296458190344 -8.450912740693703 -5.46289520267755 0 4 0.0298415518297304 1 -0.538743 -0.70702 -0.458125 0 0 0
1616 1 -6.981025106754839 -7.421906075759531 -6.261341078385811 0 4 0.0298415518297304 1 -0.583573 -0.620434 -0.523931 0 0 0
1617 1 -6.407584207931539 -7.9994657362479495 -6.136607830526459 0 4 0.0298415518297304 1 -0.536709 -0.669396 -0.513666 0 0 0
1618 1 -5.774066719283829 -8.070493389834603 -6.651223165669366 0 4 0.0298415518297304 1 -0.483286 -0.67562 -0.556751 0 0 0
1619 1 -5.182674844411291 -8.591918993333321 -6.484890297575802 0 4 0.0298415518297304 1 -0.434791 -0.718335 -0.543095 0 0 0
1620 1 -4.532261116183702 -8.599454995390728 -6.947090881314812 0 4 0.0298415518297304 1 -0.379189 -0.720381 -0.580747 0 0 0
4141 2 -3.7830136871376947 -8.188715723230084 -6.001348328018591 0 1 1.90985931710274 0 0 0 1 0 0 0
4105 2 -2.0022609564764586 -7.394400804937207 -6.920562812058029 0 1 1.90985931710274 0 0 0 1 0 0 0
4118 2 -0.4444558400408454 -7.684967566486223 -6.32868993394884 0 1 1.90985931710274 0 0 0 1 0 0 0
2480 2 -11.418018235374895 -7.117997945853012 -6.031683951559101 0 1 1.90985931710274 0 0 0 1 0 0 0
2604 2 -9.77006154712118 -6.465648465680263 -5.811878688191799 0 1 1.90985931710274 0 0 0 1 0 0 0
1614 1 -8.070493389834603 -6.651223165669366 -5.774066719283829 0 4 0.0298415518297304 1 -0.67562 -0.556751 -0.483286 0 0 0
1627 1 -8.450912740693703 -5.46289520267755 -6.439296458190344 0 4 0.0298415518297304 1 -0.70702 -0.458125 -0.538743 0 0 0
1628 1 -7.9994657362479495 -6.136607830526459 -6.407584207931539 0 4 0.0298415518297304 1 -0.669396 -0.513666 -0.536709 0 0 0
1629 1 -7.413383296015549 -6.256104902255907 -6.971342485334068 0 4 0.0298415518297304 1 -0.620434 -0.523931 -0.583573 0 0 0
1630 1 -6.896660049020172 -6.896660049020172 -6.896660049020172 0 4 0.0298415518297304 1 -0.57735 -0.57735 -0.57735 0 0 0
4088 2 -6.220930685501618 -6.752842664853608 -5.850713175596369 0 1 1.90985931710274 0 0 0 1 0 0 0
4143 2 -5.691866740803738 -6.336627160851767 -6.761859994718992 0 1 1.90985931710274 0 0 0 1 0 0 0
4146 2 -5.90466291830124 -5.6385458889491336 -5.596719568092947 0 1 1.90985931710274 0 0 0 1 0 0 0
4071 2 -2.294401031285437 -6.862396814352597 -5.742142824113827 0 1 1.90985931710274 0 0 0 1 0 0 0
4133 2 -2.6700331350892075 -5.870573444326164 -6.7186287898452015 0 1 1.90985931710274 0 0 0 1 0 0 0
2464 2 -13.571228954046937 -4.051012666864853 -6.374923997587685 0 1 1.90985931710274 0 0 0 1 0 0 0
2611 2 -11.241999373685832 -4.981671537767971 -5.862337266291705 0 1 1.90985931710274 0 0 0 1 0 0 0
1625 1 -9.336112728622068 -4.629649181325049 -5.846719577457926 0 4 0.0298415518297304 1 -0.781003 -0.389231 -0.488399 0 0 0
1641 1 -9.207096031147115 -4.109775397540957 -6.413209013816228 0 4 0.0298415518297304 1 -0.770758 -0.342421 -0.53729 0 0 0
1626 1 -8.963339986921262 -5.315532000828298 -5.844040723021723 0 4 0.0298415518297304 1 -0.749777 -0.444447 -0.490205 0 0 0
1642 1 -8.709186563023858 -4.233482399091309 -6.999619942319504 0 4 0.0298415518297304 1 -0.727926 -0.356132 -0.585913 0 0 0
1643 1 -8.321548324326256 -4.917931978313914 -7.021482536804528 0 4 0.0298415518297304 1 -0.69676 -0.411251 -0.587705 0 0 0
4070 2 -7.9808712898251235 -4.726344090856879 -5.388597031558545 0 1 1.90985931710274 0 0 0 1 0 0 0
4094 2 -4.219718596941115 -5.191688789322274 -5.388938139469857 0 1 1.90985931710274 0 0 0 1 0 0 0
4114 2 -2.695578160496261 -4.689411460667219 -6.5189094339535565 0 1 1.90985931710274 0 0 0 1 0 0 0
4101 2 -0.5937189239962777 -5.003929605445176 -6.8406307170838705 0 1 1.90985931710274 0 0 0 1 0 0 0
4147 2 -1.3051761268146418 -3.6761373736810885 -5.736865458048574 0 1 1.90985931710274 0 0 0 1 0 0 0
2474 2 -12.31429030093123 -2.688253751180289 -5.958840087112714 0 1 1.90985931710274 0 0 0 1 0 0 0
1638 1 -10.165746059644487 -2.63849077709189 -5.710312428807246 0 4 0.0298415518297304 1 -0.849516 -0.225565 -0.47691 0 0 0
1639 1 -9.931604703079781 -3.309267907455417 -5.7687017515614585 0 4 0.0298415518297304 1 -0.831166 -0.273726 -0.483981 0 0 0
1640 1 -9.515722686147727 -3.4268197334280326 -6.3671283268970695 0 4 0.0298415518297304 1 -0.795275 -0.289976 -0.532402 0 0 0
1656 1 -9.979208801255677 -2.184302998367814 -6.211528291683313 0 4 0.0298415518297304 1 -0.835883 -0.177101 -0.519552 0 0 0
1657 1 -9.581412179409126 -2.2559092717178135 -6.783319053141226 0 4 0.0298415518297304 1 -0.799826 -0.193441 -0.568207 0 0 0
1658 1 -9.327338261728201 -2.9195443775880694 -6.8797784902812955 0 4 0.0298415518297304 1 -0.781589 -0.241321 -0.575225 0 0 0
4104 2 -8.329396346363556 -2.5803593323058305 -5.530384064102593 0 1 1.90985931710274 0 0 0 1 0 0 0
2548 2 -12.047762307842454 -0.5229379081179815 -6.48265773890867 0 1 1.90985931710274 0 0 0 1 0 0 0
1655 1 -10.16733844680462 -1.5271061926927691 -6.106168118875939 0 4 0.0298415518297304 1 -0.84874 -0.134812 -0.511338 0 0 0
1674 1 -10.08337967517057 -0.4865794786618666 -6.417728021582561 0 4 0.0298415518297304 1 -0.840898 -0.050161 -0.538863 0 0 0
1675 1 -9.928117389224152 -1.1377675643454386 -6.570502549743725 0 4 0.0298415518297304 1 -0.832448 -0.086106 -0.547371 0 0 0
1676 1 -9.551761345313452 -1.14665875491715 -7.102193318178118 0 4 0.0298415518297304 1 -0.796392 -0.102459 -0.596039 0 0 0
2279 1 -10.38410240725975 -0.3007226119801671 -5.931148609750038 0 4 0.0298415518297304 1 -0.871899 -0.031001 -0.488703 0 0 0
2280 1 -10.631296536123939 -0.7031792711430755 -5.432734791968485 0 4 0.0298415518297304 1 -0.885665 -0.053217 -0.461265 0 0 0
2281 1 -10.49556439859258 -1.324251409088832 -5.575087225059108 0 4 0.0298415518297304 1 -0.87971 -0.115671 -0.461227 0 0 0
4102 2 -6.72974535266713 -0.6037802764499229 -6.68203429385698 0 1 1.90985931710274 0 0 0 1 0 0 0
4154 2 -6.107827144451174 -0.006040790897424486 -5.857260612993472 0 1 1.90985931710274 0 0 0 1 0 0 0
4119 2 -1.959430337540655 -1.0101569578455434 -7.01480359461927 0 1 1.90985931710274 0 0 0 1 0 0 0
2509 2 -11.163911328366805 -12.80621786086068 -4.599681485459362 0 1 1.90985931710274 0 0 0 1 0 0 0
2436 2 -9.80970615226377 -12.647365097173738 -3.963024199004604 0 1 1.90985931710274 0 0 0 1 0 0 0
2518 2 -9.972015970671425 -13.984553074610254 -5.12475897452048 0 1 1.90985931710274 0 0 0 1 0 0 0
2435 2 -7.880066068596801 -13.422698906439228 -4.701680524103985 0 1 1.90985931710274 0 0 0 1 0 0 0
2453 2 -4.597908379180248 -13.70108088242152 -5.189228858479121 0 1 1.90985931710274 0 0 0 1 0 0 0
2550 2 -1.8861359973208902 -14.279930972197553 -4.251821724275455 0 1 1.90985931710274 0 0 0 1 0 0 0
2615 2 -2.1473239023803714 -12.797669306894644 -4.429604978271206 0 1 1.90985931710274 0 0 0 1 0 0 0
2524 2 -9.30586861013947 -11.472524614047135 -4.771696290183078 0 1 1.90985931710274 0 0 0 1 0 0 0
2460 2 -7.471865897470612 -12.363888788568582 -3.9583094721468495 0 1 1.90985931710274 0 0 0 1 0 0 0
2504 2 -5.593416592792243 -12.469825059236625 -4.961382589944705 0 1 1.90985931710274 0 0 0 1 0 0 0
1523 1 -2.115633286578001 -11.123083633229703 -3.8114019686846525 0 4 0.0298415518297304 1 -0.176449 -0.930931 -0.319741 0 0 0
1540 1 -3.4315134233143305 -10.828792332517375 -3.7071227937142512 0 4 0.0298415518297304 1 -0.286305 -0.905904 -0.312038 0 0 0
1541 1 -2.787820095153561 -10.852187900093165 -4.148160133050597 0 4 0.0298415518297304 1 -0.232877 -0.908815 -0.346156 0 0 0
1508 1 -0.7152375895268429 -11.279869072120212 -3.86648581940601 0 4 0.0298415518297304 1 -0.059642 -0.944241 -0.323807 0 0 0
1524 1 -1.423347517251903 -11.07989365716363 -4.2327990080513676 0 4 0.0298415518297304 1 -0.118867 -0.927636 -0.354065 0 0 0
2499 2 -14.2495752879176 -10.683528031090024 -4.011554530040218 0 1 1.90985931710274 0 0 0 1 0 0 0
2484 2 -10.71123123295007 -10.40176419181168 -4.08721777888147 0 1 1.90985931710274 0 0 0 1 0 0 0
1595 1 -6.413209013816228 -9.207096031147115 -4.109775397540957 0 4 0.0298415518297304 1 -0.53729 -0.770758 -0.342421 0 0 0
1596 1 -5.846719577457926 -9.336112728622068 -4.629649181325049 0 4 0.0298415518297304 1 -0.488399 -0.781003 -0.389231 0 0 0
1560 1 -4.045510343949046 -10.502245767290724 -4.018942358833174 0 4 0.0298415518297304 1 -0.338099 -0.879824 -0.334064 0 0 0
1561 1 -4.03736240898212 -10.206998193417988 -4.725745922084348 0 4 0.0298415518297304 1 -0.338104 -0.85314 -0.397289 0 0 0
1589 1 -5.222355621366762 -10.059100048941238 -3.7939239923523522 0 4 0.0298415518297304 1 -0.435348 -0.841358 -0.320296 0 0 0
1597 1 -5.236891991858055 -9.765930954750743 -4.474010090314408 0 4 0.0298415518297304 1 -0.440282 -0.816671 -0.373095 0 0 0
1598 1 -4.6471478823731145 -9.830129370841252 -4.958664267611715 0 4 0.0298415518297304 1 -0.38708 -0.822871 -0.415996 0 0 0
1542 1 -2.7798204017072834 -10.54382301778774 -4.884105722525149 0 4 0.0298415518297304 1 -0.232881 -0.882039 -0.409603 0 0 0
1543 1 -2.1070288296765565 -10.492772653721886 -5.310097654165997 0 4 0.0298415518297304 1 -0.17524 -0.878746 -0.443955 0 0 0
1562 1 -3.4183554655301926 -10.215155116265121 -5.172463522025751 0 4 0.0298415518297304 1 -0.284445 -0.856072 -0.431545 0 0 0
1525 1 -1.4192693658356634 -10.76190507047654 -4.98783925556015 0 4 0.0298415518297304 1 -0.118869 -0.900842 -0.417556 0 0 0
4129 2 -0.528344324716303 -9.244714641632534 -3.731641240672277 0 1 1.90985931710274 0 0 0 1 0 0 0
2573 2 -14.19645268004782 -7.585771563698 -3.8031230722637215 0 1 1.90985931710274 0 0 0 1 0 0 0
2578 2 -12.359046586451608 -8.678700492168325 -3.95946387301864 0 1 1.90985931710274 0 0 0 1 0 0 0
2534 2 -10.742575278709305 -8.183405189748 -5.1553173838544275 0 1 1.90985931710274 0 0 0 1 0 0 0
1592 1 -8.061162762905834 -7.967511654140036 -3.7838070843487692 0 4 0.0298415518297304 1 -0.675536 -0.665346 -0.317751 0 0 0
1593 1 -7.521794481100211 -8.521952334138087 -3.6863335632185215 0 4 0.0298415518297304 1 -0.628735 -0.714242 -0.307492 0 0 0
1602 1 -8.103352022611611 -7.567008598743931 -4.452551263255395 0 4 0.0298415518297304 1 -0.677324 -0.634131 -0.372974 0 0 0
1603 1 -7.578527615711209 -7.746829429466787 -5.027747336910463 0 4 0.0298415518297304 1 -0.634573 -0.647794 -0.421521 0 0 0
1594 1 -6.999619942319504 -8.709186563023858 -4.233482399091309 0 4 0.0298415518297304 1 -0.585913 -0.727926 -0.356132 0 0 0
1604 1 -7.021482536804528 -8.321548324326256 -4.917931978313914 0 4 0.0298415518297304 1 -0.587705 -0.69676 -0.411251 0 0 0
1606 1 -5.844040723021723 -8.963339986921262 -5.315532000828298 0 4 0.0298415518297304 1 -0.490205 -0.749777 -0.444447 0 0 0
1599 1 -9.472968743546604 -6.089382005172075 -3.9982103829107847 0 4 0.0298415518297304 1 -0.793559 -0.509098 -0.333291 0 0 0
1600 1 -9.050444772702892 -6.734332239905998 -3.9404487203291834 0 4 0.0298415518297304 1 -0.755891 -0.564703 -0.33127 0 0 0
1611 1 -9.471464327594123 -5.632089492713752 -4.621672847602975 0 4 0.0298415518297304 1 -0.791512 -0.471446 -0.388906 0 0 0
1612 1 -9.030104738562834 -5.819635519704458 -5.229067623256141 0 4 0.0298415518297304 1 -0.755998 -0.4875 -0.436819 0 0 0
1601 1 -8.599454995390728 -6.947090881314812 -4.532261116183702 0 4 0.0298415518297304 1 -0.720381 -0.580747 -0.379189 0 0 0
1613 1 -8.591918993333321 -6.484890297575802 -5.182674844411291 0 4 0.0298415518297304 1 -0.718335 -0.543095 -0.434791 0 0 0
4120 2 -5.38386989091996 -6.503682691760786 -4.063540423541487 0 1 1.90985931710274 0 0 0 1 0 0 0
4151 2 -7.135633083343642 -5.84913975658893 -5.24630899015687 0 1 1.90985931710274 0 0 0 1 0 0 0
4127 2 -4.322228914015258 -6.016971854436013 -3.726173506075771 0 1 1.90985931710274 0 0 0 1 0 0 0
4106 2 -3.3730863553655226 -6.802514628326668 -3.8405182863129568 0 1 1.90985931710274 0 0 0 1 0 0 0
2586 2 -13.629891272433555 -4.254012126435726 -4.693799015013181 0 1 1.90985931710274 0 0 0 1 0 0 0
2587 2 -12.486894902592393 -4.84329987034231 -5.038336843204036 0 1 1.90985931710274 0 0 0 1 0 0 0
1610 1 -9.830129370841252 -4.958664267611715 -4.6471478823731145 0 4 0.0298415518297304 1 -0.822871 -0.415996 -0.38708 0 0 0
1623 1 -10.059100048941238 -3.7939239923523522 -5.222355621366762 0 4 0.0298415518297304 1 -0.841358 -0.320296 -0.435348 0 0 0
1624 1 -9.765930954750743 -4.474010090314408 -5.236891991858055 0 4 0.0298415518297304 1 -0.816671 -0.373095 -0.440282 0 0 0
2286 1 -10.502245767290724 -4.018942358833174 -4.045510343949046 0 4 0.0298415518297304 1 -0.879824 -0.334064 -0.338099 0 0 0
2287 1 -10.206998193417988 -4.725745922084348 -4.03736240898212 0 4 0.0298415518297304 1 -0.85314 -0.397289 -0.338104 0 0 0
4084 2 -7.220887028842113 -3.6575217493930943 -3.7925820497266347 0 1 1.90985931710274 0 0 0 1 0 0 0
4078 2 -6.1080751429447 -4.17415147157544 -4.7075087684378705 0 1 1.90985931710274 0 0 0 1 0 0 0
4091 2 -2.672814500508352 -4.781826043855574 -5.088239080640085 0 1 1.90985931710274 0 0 0 1 0 0 0
2591 2 -13.256389304841491 -3.439714135253739 -5.335011199819754 0 1 1.90985931710274 0 0 0 1 0 0 0
2263 1 -11.13171558938183 -1.8043773161599217 -3.960234221833683 0 4 0.0298415518297304 1 -0.930733 -0.149145 -0.333904 0 0 0
2264 1 -10.967922118238022 -2.5293110254501143 -4.017420313103844 0 4 0.0298415518297304 1 -0.917967 -0.214148 -0.333881 0 0 0
2598 2 -12.165723259035671 -2.717158612511053 -3.8442464732761916 0 1 1.90985931710274 0 0 0 1 0 0 0
2283 1 -10.517951734564901 -2.4208158069392542 -5.140432586494049 0 4 0.0298415518297304 1 -0.88029 -0.206546 -0.427117 0 0 0
2284 1 -10.65540007802271 -2.861937509150159 -4.597576101275517 0 4 0.0298415518297304 1 -0.891718 -0.236303 -0.386006 0 0 0
2285 1 -10.426911840880612 -3.566604096775424 -4.627224043334814 0 4 0.0298415518297304 1 -0.871859 -0.301445 -0.385995 0 0 0
4155 2 -9.418028106273754 -2.267178142984884 -3.7612951469519764 0 1 1.90985931710274 0 0 0 1 0 0 0
4142 2 -6.3413275215277505 -1.96408631690535 -4.141088228219235 0 1 1.90985931710274 0 0 0 1 0 0 0
4117 2 -3.7271729733057732 -2.459380350126434 -5.230760574973128 0 1 1.90985931710274 0 0 0 1 0 0 0
4148 2 -0.9806713287295832 -2.931779958087569 -4.215075577765754 0 1 1.90985931710274 0 0 0 1 0 0 0
2243 1 -11.308090336798315 -0.3522053557303874 -3.8619611313205353 0 4 0.0298415518297304 1 -0.947429 -0.030774 -0.318484 0 0 0
2260 1 -10.876011960372498 -0.3282260859712711 -4.959509308734032 0 4 0.0298415518297304 1 -0.912063 -0.03097 -0.408879 0 0 0
2261 1 -11.08496819773124 -0.7106141284784225 -4.422370927131481 0 4 0.0298415518297304 1 -0.925344 -0.057112 -0.374801 0 0 0
2262 1 -10.975640721862607 -1.3942285429139425 -4.527409841300541 0 4 0.0298415518297304 1 -0.919379 -0.119553 -0.374767 0 0 0
2282 1 -10.689822936524607 -1.745118796613131 -5.061730274197689 0 4 0.0298415518297304 1 -0.892995 -0.141803 -0.427143 0 0 0
4115 2 -6.5831660919919655 -0.5566801089753763 -4.349593549153153 0 1 1.90985931710274 0 0 0 1 0 0 0
4083 2 -4.12837981734036 -0.7858120394216517 -4.639890559705103 0 1 1.90985931710274 0 0 0 1 0 0 0
4086 2 -5.228408014062865 -0.671920354559397 -3.8685830797701346 0 1 1.90985931710274 0 0 0 1 0 0 0
2482 2 -13.558146194121267 -13.77781859613903 -3.3707533086516683 0 1 1.90985931710274 0 0 0 1 0 0 0
2540 2 -13.062922774596023 -13.87506663534742 -1.8561902840596591 0 1 1.90985931710274 0 0 0 1 0 0 0
2561 2 -12.239747171766558 -12.690017880537125 -3.301004187455854 0 1 1.90985931710274 0 0 0 1 0 0 0
2465 2 -8.764610089545176 -12.787366985787685 -3.485058133622175 0 1 1.90985931710274 0 0 0 1 0 0 0
2600 2 -8.76462380202326 -13.017832604935801 -2.273029155998545 0 1 1.90985931710274 0 0 0 1 0 0 0
2501 2 -5.0825230633041985 -14.086341678014314 -3.556154816951363 0 1 1.90985931710274 0 0 0 1 0 0 0
2425 2 -2.435955501320418 -13.3440666922531 -3.3803806978451636 0 1 1.90985931710274 0 0 0 1 0 0 0
2527 2 -0.7539104078156011 -13.789770156812747 -3.3329755518167303 0 1 1.90985931710274 0 0 0 1 0 0 0
2476 2 -13.473945305624897 -11.887076834166123 -2.6182432049942808 0 1 1.90985931710274 0 0 0 1 0 0 0
2584 2 -14.219295200896546 -11.465812271697443 -1.9285090439297576 0 1 1.90985931710274 0 0 0 1 0 0 0
2538 2 -11.711990523768714 -11.322080980767392 -1.9618237575508424 0 1 1.90985931710274 0 0 0 1 0 0 0
1537 1 -3.960234221833683 -11.13171558938183 -1.8043773161599217 0 4 0.0298415518297304 1 -0.333904 -0.930733 -0.149145 0 0 0
1538 1 -4.017420313103844 -10.967922118238022 -2.5293110254501143 0 4 0.0298415518297304 1 -0.333881 -0.917967 -0.214148 0 0 0
2423 2 -4.1794326169238705 -12.146974639488812 -3.3211438884538182 0 1 1.90985931710274 0 0 0 1 0 0 0
1520 1 -2.726875306230269 -11.48537574342067 -1.8548371467004798 0 4 0.0298415518297304 1 -0.229798 -0.960798 -0.155112 0 0 0
1521 1 -2.7661375647652378 -11.325622741883521 -2.616436136241011 0 4 0.0298415518297304 1 -0.229781 -0.948027 -0.220102 0 0 0
1522 1 -2.103550570471817 -11.360997099847129 -3.039448746477639 0 4 0.0298415518297304 1 -0.176454 -0.950927 -0.254167 0 0 0
1539 1 -3.412019013526081 -11.06193314522361 -2.963422670948167 0 4 0.0298415518297304 1 -0.286314 -0.925869 -0.246557 0 0 0
1505 1 -1.3914885773027972 -11.715167821109105 -1.8888478978032397 0 4 0.0298415518297304 1 -0.117231 -0.980288 -0.159038 0 0 0
1506 1 -1.4115491063592356 -11.558231437056955 -2.672170851459992 0 4 0.0298415518297304 1 -0.117222 -0.967535 -0.22391 0 0 0
1507 1 -0.7111428724090038 -11.52006018579294 -3.0804279528325313 0 4 0.0298415518297304 1 -0.059644 -0.964238 -0.258241 0 0 0
2502 2 -14.094129540434853 -9.906404088550218 -1.8872222634818918 0 1 1.90985931710274 0 0 0 1 0 0 0
2428 2 -10.8819313371313 -9.249015165761904 -3.072786960303814 0 1 1.90985931710274 0 0 0 1 0 0 0
2589 2 -9.092315782368605 -9.926898269135126 -1.919787354086802 0 1 1.90985931710274 0 0 0 1 0 0 0
1580 1 -6.783319053141226 -9.581412179409126 -2.2559092717178135 0 4 0.0298415518297304 1 -0.568207 -0.799826 -0.193441 0 0 0
1581 1 -6.213215330004997 -9.982382107249762 -2.1823371507255294 0 4 0.0298415518297304 1 -0.519552 -0.835883 -0.177101 0 0 0
1582 1 -5.708769445118053 -10.19862237691985 -2.637566210479056 0 4 0.0298415518297304 1 -0.47691 -0.849516 -0.225565 0 0 0
1586 1 -6.8797784902812955 -9.327338261728201 -2.9195443775880694 0 4 0.0298415518297304 1 -0.575225 -0.781589 -0.241321 0 0 0
1587 1 -6.38208679094775 -9.525037331695115 -3.4453317234090255 0 4 0.0298415518297304 1 -0.532402 -0.795275 -0.289976 0 0 0
1588 1 -5.769466472870953 -9.971456207021024 -3.3399025528779873 0 4 0.0298415518297304 1 -0.483981 -0.831166 -0.273726 0 0 0
4096 2 -5.739581187222737 -9.051068436499095 -2.6316887642048514 0 1 1.90985931710274 0 0 0 1 0 0 0
1557 1 -5.140432586494049 -10.517951734564901 -2.4208158069392542 0 4 0.0298415518297304 1 -0.427117 -0.88029 -0.206546 0 0 0
1558 1 -4.597576101275517 -10.65540007802271 -2.861937509150159 0 4 0.0298415518297304 1 -0.386006 -0.891718 -0.236303 0 0 0
1559 1 -4.627224043334814 -10.426911840880612 -3.566604096775424 0 4 0.0298415518297304 1 -0.385995 -0.871859 -0.301445 0 0 0
4095 2 -0.685041342623979 -9.13482748123092 -2.1122950480792433 0 1 1.90985931710274 0 0 0 1 0 0 0
2292 1 -9.255835233925785 -7.28208785979175 -2.02877540751461 0 4 0.0298415518297304 1 -0.774346 -0.610208 -0.167433 0 0 0
1578 1 -7.778922635537865 -8.887274502417357 -1.848351927259901 0 4 0.0298415518297304 1 -0.652682 -0.740883 -0.158426 0 0 0
1583 1 -8.421148108100308 -8.08213718829916 -2.572094274093865 0 4 0.0298415518297304 1 -0.706291 -0.673906 -0.216805 0 0 0
1584 1 -7.906844018523753 -8.610159610496206 -2.492570003313927 0 4 0.0298415518297304 1 -0.659732 -0.722546 -0.206595 0 0 0
1585 1 -7.444239992366906 -8.850031126127387 -3.015399555322699 0 4 0.0298415518297304 1 -0.623858 -0.738752 -0.255043 0 0 0
1591 1 -8.519520450007567 -7.737155463213315 -3.2201579666754445 0 4 0.0298415518297304 1 -0.711194 -0.649239 -0.269616 0 0 0
2293 1 -8.788959806380333 -7.8548174342616175 -1.976962086269973 0 4 0.0298415518297304 1 -0.736792 -0.655055 -0.167452 0 0 0
4077 2 -3.65776780996333 -7.928122053688526 -3.1203183430516575 0 1 1.90985931710274 0 0 0 1 0 0 0
2496 2 -10.861290649543708 -6.754106881100813 -3.4475806613462794 0 1 1.90985931710274 0 0 0 1 0 0 0
1590 1 -8.996025895892759 -7.142375312258343 -3.2975402454766938 0 4 0.0298415518297304 1 -0.7541 -0.59604 -0.275807 0 0 0
2270 1 -10.113173319118141 -6.011561039835598 -2.0830139269438743 0 4 0.0298415518297304 1 -0.846422 -0.502849 -0.175251 0 0 0
2289 1 -9.85282733924287 -5.854617017001387 -3.383586720413358 0 4 0.0298415518297304 1 -0.823738 -0.490447 -0.284461 0 0 0
2290 1 -9.79413632702012 -6.274706368145702 -2.737132063013731 0 4 0.0298415518297304 1 -0.820451 -0.524802 -0.226809 0 0 0
2291 1 -9.37289470523265 -6.909457866036755 -2.6877540399909075 0 4 0.0298415518297304 1 -0.784369 -0.577333 -0.226831 0 0 0
4092 2 -7.5170602571680485 -6.58474622340926 -3.1963708394372166 0 1 1.90985931710274 0 0 0 1 0 0 0
4085 2 -5.32831527693542 -5.582827453621744 -1.9225190206579548 0 1 1.90985931710274 0 0 0 1 0 0 0
4139 2 -0.8072624111191544 -6.3926176796276675 -2.9649655022232864 0 1 1.90985931710274 0 0 0 1 0 0 0
2249 1 -11.123083633229703 -3.8114019686846525 -2.115633286578001 0 4 0.0298415518297304 1 -0.930931 -0.319741 -0.176449 0 0 0
2266 1 -10.828792332517375 -3.7071227937142512 -3.4315134233143305 0 4 0.0298415518297304 1 -0.905904 -0.312038 -0.286305 0 0 0
2267 1 -10.852187900093165 -4.148160133050597 -2.787820095153561 0 4 0.0298415518297304 1 -0.908815 -0.346156 -0.232877 0 0 0
2268 1 -10.54382301778774 -4.884105722525149 -2.7798204017072834 0 4 0.0298415518297304 1 -0.882039 -0.409603 -0.232881 0 0 0
2269 1 -10.492772653721886 -5.310097654165997 -2.1070288296765565 0 4 0.0298415518297304 1 -0.878746 -0.443955 -0.17524 0 0 0
2288 1 -10.215155116265121 -5.172463522025751 -3.4183554655301926 0 4 0.0298415518297304 1 -0.856072 -0.431545 -0.284445 0 0 0
4153 2 -9.300030195849665 -4.235271645320767 -3.498414906129387 0 1 1.90985931710274 0 0 0 1 0 0 0
4152 2 -8.423380246466255 -3.6076203583544384 -2.215132863051714 0 1 1.90985931710274 0 0 0 1 0 0 0
4087 2 -4.441681135630236 -4.573908537377635 -2.585095705923763 0 1 1.90985931710274 0 0 0 1 0 0 0
2442 2 -13.005910500696485 -2.8058812058183253 -2.5479841885789583 0 1 1.90985931710274 0 0 0 1 0 0 0
2246 1 -11.48537574342067 -1.8548371467004798 -2.726875306230269 0 4 0.0298415518297304 1 -0.960798 -0.155112 -0.229798 0 0 0
2247 1 -11.325622741883521 -2.616436136241011 -2.7661375647652378 0 4 0.0298415518297304 1 -0.948027 -0.220102 -0.229781 0 0 0
2248 1 -11.360997099847129 -3.039448746477639 -2.103550570471817 0 4 0.0298415518297304 1 -0.950927 -0.254167 -0.176454 0 0 0
2265 1 -11.06193314522361 -2.963422670948167 -3.412019013526081 0 4 0.0298415518297304 1 -0.925869 -0.246557 -0.286314 0 0 0
4075 2 -7.708934142236997 -2.5361025772081423 -3.152019137235861 0 1 1.90985931710274 0 0 0 1 0 0 0
4111 2 -4.487057899013993 -1.8586747281929394 -2.389288738715102 0 1 1.90985931710274 0 0 0 1 0 0 0
4144 2 -4.068761990781009 -3.3272770564136795 -2.2481231447098438 0 1 1.90985931710274 0 0 0 1 0 0 0
4074 2 -2.657026406536236 -2.5246886545362734 -2.65884479114316 0 1 1.90985931710274 0 0 0 1 0 0 0
2466 2 -13.543710563246286 -0.7669224803176995 -2.874920699590829 0 1 1.90985931710274 0 0 0 1 0 0 0
2228 1 -11.648741412035173 -0.3678117563873662 -2.6502621255199252 0 4 0.0298415518297304 1 -0.97535 -0.030501 -0.218543 0 0 0
2229 1 -11.756097880475448 -0.7363147481133524 -2.0167350080379154 0 4 0.0298415518297304 1 -0.983303 -0.063153 -0.170666 0 0 0
2230 1 -11.674634439008784 -1.4926796990507116 -2.0629124085374824 0 4 0.0298415518297304 1 -0.977384 -0.124901 -0.170648 0 0 0
2244 1 -11.472097285570149 -0.7237953884855253 -3.276131940429869 0 4 0.0298415518297304 1 -0.958848 -0.060552 -0.277386 0 0 0
2245 1 -11.379342313562363 -1.4521994712227135 -3.3517287379160643 0 4 0.0298415518297304 1 -0.9529 -0.122693 -0.277359 0 0 0
4128 2 -9.454941535430367 -0.8141539781841196 -2.631295340493452 0 1 1.90985931710274 0 0 0 1 0 0 0
4135 2 -7.462642870029375 -0.8596845837195399 -2.5016865742963805 0 1 1.90985931710274 0 0 0 1 0 0 0
4081 2 -1.0033409103380606 -1.2581900517893558 -3.2612484236898673 0 1 1.90985931710274 0 0 0 1 0 0 0
4103 2 -0.37765201190027237 -0.7308559141481294 -2.1478837187085125 0 1 1.90985931710274 0 0 0 1 0 0 0
2487 2 -5.62656082254721 -13.706759030558127 -1.2774372859863354 0 1 1.90985931710274 0 0 0 1 0 0 0
2512 2 -4.669003841737705 -13.653921605993322 -0.7539532341762974 0 1 1.90985931710274 0 0 0 1 0 0 0
2594 2 -3.603992109429802 -12.987043186687776 -1.4149686614351502 0 1 1.90985931710274 0 0 0 1 0 0 0
2582 2 -0.4465037934766354 -13.403722961804922 -1.4850130553193654 0 1 1.90985931710274 0 0 0 1 0 0 0
2580 2 -8.083145356394501 -11.14610292238787 -0.5112785729153106 0 1 1.90985931710274 0 0 0 1 0 0 0
2434 2 -6.310585438004921 -11.467126548698223 -0.14969397103372373 0 1 1.90985931710274 0 0 0 1 0 0 0
1517 1 -3.8619611313205353 -11.308090336798315 -0.3522053557303874 0 4 0.0298415518297304 1 -0.318484 -0.947429 -0.030774 0 0 0
1534 1 -4.959509308734032 -10.876011960372498 -0.32822608597127106 0 4 0.0298415518297304 1 -0.408879 -0.912063 -0.03097 0 0 0
1535 1 -4.422370927131481 -11.08496819773124 -0.7106141284784225 0 4 0.0298415518297304 1 -0.374801 -0.925344 -0.057112 0 0 0
1536 1 -4.527409841300541 -10.975640721862607 -1.3942285429139425 0 4 0.0298415518297304 1 -0.374767 -0.919379 -0.119553 0 0 0
1502 1 -2.6502621255199252 -11.648741412035173 -0.3678117563873662 0 4 0.0298415518297304 1 -0.218543 -0.97535 -0.030501 0 0 0
1503 1 -2.0167350080379154 -11.756097880475448 -0.7363147481133524 0 4 0.0298415518297304 1 -0.170666 -0.983303 -0.063153 0 0 0
1504 1 -2.0629124085374824 -11.674634439008784 -1.4926796990507116 0 4 0.0298415518297304 1 -0.170648 -0.977384 -0.124901 0 0 0
1518 1 -3.276131940429869 -11.472097285570149 -0.7237953884855253 0 4 0.0298415518297304 1 -0.277386 -0.958848 -0.060552 0 0 0
1519 1 -3.3517287379160643 -11.379342313562363 -1.4521994712227135 0 4 0.0298415518297304 1 -0.277359 -0.9529 -0.122693 0 0 0
1489 1 -1.3496076122842269 -11.86812127662825 -0.3768687790293372 0 4 0.0298415518297304 1 -0.111273 -0.993329 -0.030269 0 0 0
1490 1 -0.6812230974745015 -11.906795768543468 -0.7436907815813955 0 4 0.0298415518297304 1 -0.057636 -0.996248 -0.064561 0 0 0
1491 1 -0.6968056081181138 -11.83119651802187 -1.5137182198694838 0 4 0.0298415518297304 1 -0.05763 -0.99035 -0.126041 0 0 0
2543 2 -13.059251960251077 -9.581877939828665 -0.7841007003642861 0 1 1.90985931710274 0 0 0 1 0 0 0
1579 1 -7.246032847391109 -9.33984966043232 -1.7891570029506303 0 4 0.0298415518297304 1 -0.604243 -0.783541 -0.144752 0 0 0
2297 1 -7.430419130501573 -9.348906162508925 -0.6155775977841709 0 4 0.0298415518297304 1 -0.627009 -0.777251 -0.052348 0 0 0
1553 1 -5.931148609750038 -10.38410240725975 -0.3007226119801671 0 4 0.0298415518297304 1 -0.488703 -0.871899 -0.031001 0 0 0
1554 1 -5.432734791968485 -10.631296536123939 -0.7031792711430755 0 4 0.0298415518297304 1 -0.461265 -0.885665 -0.053217 0 0 0
1555 1 -5.575087225059108 -10.49556439859258 -1.324251409088832 0 4 0.0298415518297304 1 -0.461227 -0.87971 -0.115671 0 0 0
1574 1 -6.417728021582561 -10.08337967517057 -0.4865794786618666 0 4 0.0298415518297304 1 -0.538863 -0.840898 -0.050161 0 0 0
1575 1 -7.102193318178118 -9.551761345313452 -1.14665875491715 0 4 0.0298415518297304 1 -0.596039 -0.796392 -0.102459 0 0 0
1576 1 -6.570502549743725 -9.928117389224152 -1.1377675643454386 0 4 0.0298415518297304 1 -0.547371 -0.832448 -0.086106 0 0 0
1577 1 -6.106168118875939 -10.16733844680462 -1.5271061926927691 0 4 0.0298415518297304 1 -0.511338 -0.84874 -0.134812 0 0 0
1556 1 -5.061730274197689 -10.689822936524607 -1.745118796613131 0 4 0.0298415518297304 1 -0.427143 -0.892995 -0.141803 0 0 0
4082 2 -3.3903116422061395 -9.296974558597695 -0.7143323514734483 0 1 1.90985931710274 0 0 0 1 0 0 0
4108 2 -1.3638865040877413 -9.800750202667286 -0.8489702290799741 0 1 1.90985931710274 0 0 0 1 0 0 0
2463 2 -13.87888417053486 -8.61531617939129 -0.5997970293899844 0 1 1.90985931710274 0 0 0 1 0 0 0
2421 2 -11.438549276597772 -7.770079778768353 -1.753141759702073 0 1 1.90985931710274 0 0 0 1 0 0 0
2528 2 -12.446054278004183 -7.261178416289671 -1.5739545805013773 0 1 1.90985931710274 0 0 0 1 0 0 0
2608 2 -11.662293242137217 -8.391594600207391 -0.35452968560503173 0 1 1.90985931710274 0 0 0 1 0 0 0
2273 1 -9.376631494888152 -7.375600354702212 -0.6851437658954603 0 4 0.0298415518297304 1 -0.783847 -0.618377 -0.056516 0 0 0
2519 2 -10.162563550180401 -7.9462045835842545 -1.4478564610769982 0 1 1.90985931710274 0 0 0 1 0 0 0
2274 1 -8.896439356475284 -7.952522696613374 -0.6656915704953397 0 4 0.0298415518297304 1 -0.74655 -0.662924 -0.056523 0 0 0
2294 1 -8.630639292972145 -8.162830137834208 -1.321444919037123 0 4 0.0298415518297304 1 -0.720284 -0.685123 -0.10862 0 0 0
2295 1 -8.131128066779423 -8.669599745290057 -1.2784715515496379 0 4 0.0298415518297304 1 -0.683456 -0.721864 -0.108633 0 0 0
2296 1 -7.9566467609051275 -8.9006657194245 -0.6393586009192921 0 4 0.0298415518297304 1 -0.661356 -0.748244 -0.052342 0 0 0
4068 2 -4.930775201575795 -7.451767727399182 -0.6329766710696595 0 1 1.90985931710274 0 0 0 1 0 0 0
4069 2 -4.7692197860365 -8.473065915457886 -1.5594291006923324 0 1 1.90985931710274 0 0 0 1 0 0 0
4138 2 -5.0709141800874225 -8.524210729311138 -0.11750753230082722 0 1 1.90985931710274 0 0 0 1 0 0 0
4131 2 -2.085248911747623 -7.526689742303019 -1.0044568868526884 0 1 1.90985931710274 0 0 0 1 0 0 0
2252 1 -10.64038312370757 -5.383451567067813 -0.7122045543855867 0 4 0.0298415518297304 1 -0.890774 -0.450572 -0.059223 0 0 0
2253 1 -10.25069844397294 -6.095336996791155 -0.7040841837917592 0 4 0.0298415518297304 1 -0.858483 -0.50941 -0.059226 0 0 0
2271 1 -9.992199987587664 -6.399635919207783 -1.3963315588536618 0 4 0.0298415518297304 1 -0.836362 -0.53584 -0.115646 0 0 0
2272 1 -9.549073038945991 -7.037903183469346 -1.3680127640268989 0 4 0.0298415518297304 1 -0.800437 -0.588153 -0.115657 0 0 0
4112 2 -7.825867976850631 -6.601664928558081 -0.5381122756576833 0 1 1.90985931710274 0 0 0 1 0 0 0
4089 2 -3.77725973673075 -7.15238323371629 -0.35798106969532384 0 1 1.90985931710274 0 0 0 1 0 0 0
4093 2 -2.4438092256002424 -6.620228663279391 -1.6102877367357706 0 1 1.90985931710274 0 0 0 1 0 0 0
4126 2 -3.0698980006587195 -5.559951071095864 -0.12040590819165331 0 1 1.90985931710274 0 0 0 1 0 0 0
4076 2 -1.184334681501305 -5.688095992410465 -1.2700784426797824 0 1 1.90985931710274 0 0 0 1 0 0 0
2449 2 -14.274102301841149 -4.407506599421957 -1.0228422032579891 0 1 1.90985931710274 0 0 0 1 0 0 0
2556 2 -13.584962669096907 -5.26480951169215 -0.1806610099773902 0 1 1.90985931710274 0 0 0 1 0 0 0
2593 2 -12.693452762742105 -3.62888140654022 -0.785049721459556 0 1 1.90985931710274 0 0 0 1 0 0 0
2234 1 -11.279869072120212 -3.86648581940601 -0.7152375895268429 0 4 0.0298415518297304 1 -0.944241 -0.323807 -0.059642 0 0 0
2250 1 -11.07989365716363 -4.2327990080513676 -1.423347517251903 0 4 0.0298415518297304 1 -0.927636 -0.354065 -0.118867 0 0 0
2251 1 -10.76190507047654 -4.98783925556015 -1.4192693658356634 0 4 0.0298415518297304 1 -0.900842 -0.417556 -0.118869 0 0 0
4097 2 -8.01834181020052 -3.780357090255344 -1.1507631102684388 0 1 1.90985931710274 0 0 0 1 0 0 0
4130 2 -8.590819007612465 -4.332669892586747 -0.38155951673930005 0 1 1.90985931710274 0 0 0 1 0 0 0
4113 2 -6.616157955173698 -4.9466306043383765 -0.5194391150954925 0 1 1.90985931710274 0 0 0 1 0 0 0
4123 2 -4.334925296404755 -4.146868674715286 -0.5995239397956329 0 1 1.90985931710274 0 0 0 1 0 0 0
2596 2 -13.670242361206167 -3.5058947920344625 -0.22778772320279117 0 1 1.90985931710274 0 0 0 1 0 0 0
2601 2 -13.972417905726097 -2.0766335385125245 -1.4495777799987355 0 1 1.90985931710274 0 0 0 1 0 0 0
2231 1 -11.715167821109105 -1.8888478978032397 -1.3914885773027972 0 4 0.0298415518297304 1 -0.980288 -0.159038 -0.117231 0 0 0
2232 1 -11.558231437056955 -2.672170851459992 -1.4115491063592356 0 4 0.0298415518297304 1 -0.967535 -0.22391 -0.117222 0 0 0
2233 1 -11.52006018579294 -3.0804279528325313 -0.7111428724090038 0 4 0.0298415518297304 1 -0.964238 -0.258241 -0.059644 0 0 0
4140 2 -8.850204420494052 -1.9681132435372017 -0.0689101297482928 0 1 1.90985931710274 0 0 0 1 0 0 0
4150 2 -2.2031220154569127 -3.460969784329741 -0.9694692299831793 0 1 1.90985931710274 0 0 0 1 0 0 0
2215 1 -11.86812127662825 -0.3768687790293372 -1.3496076122842269 0 4 0.0298415518297304 1 -0.993329 -0.030269 -0.111273 0 0 0
2216 1 -11.906795768543468 -0.7436907815813953 -0.6812230974745015 0 4 0.0298415518297304 1 -0.996248 -0.064561 -0.057636 0 0 0
2217 1 -11.83119651802187 -1.5137182198694838 -0.6968056081181138 0 4 0.0298415518297304 1 -0.99035 -0.126041 -0.05763 0 0 0
4073 2 -9.264252534527705 -0.85956780713515 -0.5390225204539671 0 1 1.90985931710274 0 0 0 1 0 0 0
4079 2 -6.281501824851942 -1.0118782865998295 -1.240404883318094 0 1 1.90985931710274 0 0 0 1 0 0 0
4132 2 -6.022459206740855 -0.2817916935556255 -0.3925495893974187 0 1 1.90985931710274 0 0 0 1 0 0 0
1550 1 -2.211841450608392e-18 -8.177547707543587 -8.719731403206659 0 4 0.0298415518297304 1 -0 -0.68776 -0.725938 0 0 0
1528 1 -1.105920725304196e-18 -10.060931286493508 -6.4430651044093965 0 4 0.0298415518297304 1 0 -0.841873 -0.539676 0 0 0
1492 1 -8.024542372170172e-20 -11.794987974137706 -1.9008536977816826 0 4 0.0298415518297304 1 -0 -0.98705 -0.160411 0 0 0
1478 1 -5.52960362652098e-19 -11.94399904357446 -0.37985787396102 0 4 0.0298415518297304 1 -0 -0.999545 -0.030178 0 0 0
1767 1 -2.691412527142975 -1.105920725304196e-18 -11.639062436059561 0 4 0.0298415518297304 1 -0.225222 0 -0.974307 0 0 0
1805 1 -0.37985787396102 -2.211841450608392e-18 -11.94399904357446 0 4 0.0298415518297304 1 -0.030178 0 -0.999545 0 0 0
1715 1 -7.092140394247476 -1.105920725304196e-18 -9.61605526409717 0 4 0.0298415518297304 1 -0.591895 0 -0.806015 0 0 0
1707 1 -8.21217122543628 -2.211841450608392e-18 -8.684155977676964 0 4 0.0298415518297304 1 -0.689412 -0 -0.724369 0 0 0
1695 1 -9.897522950485259 -2.211841450608392e-18 -6.718450883615759 0 4 0.0298415518297304 1 -0.821739 0 -0.569865 0 0 0
2276 1 -8.177547707543587 -8.719731403206659 -1.105920725304196e-18 0 4 0.0298415518297304 1 -0.68776 -0.725938 -0 0 0 0
2254 1 -10.060931286493508 -6.4430651044093965 -5.52960362652098e-19 0 4 0.0298415518297304 1 -0.841873 -0.539676 0 0 0 0
2218 1 -11.794987974137706 -1.9008536977816826 -5.52960362652098e-19 0 4 0.0298415518297304 1 -0.98705 -0.160411 -0 0 0 0
2704 2 -11.157104339307292 -13.205528737641949 0.23840845179304182 0 1 1.90985931710274 0 0 0 1 0 0 0
2703 2 -5.994765977791982 -13.191848749845288 0.5492113502505305 0 1 1.90985931710274 0 0 0 1 0 0 0
2635 2 -4.304146482433593 -13.033050261376179 0.27366505058394885 0 1 1.90985931710274 0 0 0 1 0 0 0
2799 2 -1.4283847441711526 -12.747811284547836 1.202450604525037 0 1 1.90985931710274 0 0 0 1 0 0 0
2708 2 -13.488566593141378 -11.714495783433524 0.8623841680530576 0 1 1.90985931710274 0 0 0 1 0 0 0
2772 2 -14.136401369466055 -12.225507759694098 0.13485248604686778 0 1 1.90985931710274 0 0 0 1 0 0 0
2141 1 -4.527409841300541 -10.975640721862607 1.3942285429139425 0 4 0.0298415518297304 1 -0.374767 -0.919379 0.119553 0 0 0
2160 1 -4.959509308734032 -10.876011960372498 0.32822608597127106 0 4 0.0298415518297304 1 -0.408879 -0.912063 0.03097 0 0 0
2161 1 -4.422370927131481 -11.08496819773124 0.7106141284784225 0 4 0.0298415518297304 1 -0.374801 -0.925344 0.057112 0 0 0
2162 1 -3.8619611313205353 -11.308090336798315 0.3522053557303874 0 4 0.0298415518297304 1 -0.318484 -0.947429 0.030774 0 0 0
2143 1 -3.3517287379160643 -11.379342313562363 1.4521994712227135 0 4 0.0298415518297304 1 -0.277359 -0.9529 0.122693 0 0 0
2145 1 -2.0629124085374824 -11.674634439008784 1.4926796990507116 0 4 0.0298415518297304 1 -0.170648 -0.977384 0.124901 0 0 0
2163 1 -3.276131940429869 -11.472097285570149 0.7237953884855253 0 4 0.0298415518297304 1 -0.277386 -0.958848 0.060552 0 0 0
2164 1 -2.6502621255199252 -11.648741412035173 0.3678117563873662 0 4 0.0298415518297304 1 -0.218543 -0.97535 0.030501 0 0 0
2165 1 -2.0167350080379154 -11.756097880475448 0.7363147481133524 0 4 0.0298415518297304 1 -0.170666 -0.983303 0.063153 0 0 0
2147 1 -0.6968056081181138 -11.83119651802187 1.5137182198694838 0 4 0.0298415518297304 1 -0.05763 -0.99035 0.126041 0 0 0
2166 1 -1.3496076122842269 -11.86812127662825 0.3768687790293372 0 4 0.0298415518297304 1 -0.111273 -0.993329 0.030269 0 0 0
2167 1 -0.6812230974745015 -11.906795768543468 0.7436907815813955 0 4 0.0298415518297304 1 -0.057636 -0.996248 0.064561 0 0 0
2685 2 -11.889522689727668 -10.191418252908928 0.962415359663229 0 1 1.90985931710274 0 0 0 1 0 0 0
723 1 -7.246032847391109 -9.33984966043232 1.7891570029506303 0 4 0.0298415518297304 1 -0.604243 -0.783541 0.144752 0 0 0
2278 1 -7.430419130501573 -9.348906162508925 0.6155775977841709 0 4 0.0298415518297304 1 -0.627009 -0.777251 0.052348 0 0 0
2298 1 -7.2736816536149265 -9.493528896893935 0 0 4 0.0298415518297304 1 -0.600588 -0.799559 0 0 0 0
705 1 -6.106168118875939 -10.16733844680462 1.5271061926927691 0 4 0.0298415518297304 1 -0.511338 -0.84874 0.134812 0 0 0
724 1 -7.102193318178118 -9.551761345313452 1.14665875491715 0 4 0.0298415518297304 1 -0.596039 -0.796392 0.102459 0 0 0
725 1 -6.570502549743725 -9.928117389224152 1.1377675643454386 0 4 0.0298415518297304 1 -0.547371 -0.832448 0.086106 0 0 0
726 1 -6.417728021582561 -10.08337967517057 0.4865794786618666 0 4 0.0298415518297304 1 -0.538863 -0.840898 0.050161 0 0 0
2139 1 -5.575087225059108 -10.49556439859258 1.324251409088832 0 4 0.0298415518297304 1 -0.461227 -0.87971 0.115671 0 0 0
2158 1 -5.931148609750038 -10.38410240725975 0.3007226119801671 0 4 0.0298415518297304 1 -0.488703 -0.871899 0.031001 0 0 0
2159 1 -5.432734791968485 -10.631296536123939 0.7031792711430755 0 4 0.0298415518297304 1 -0.461265 -0.885665 0.053217 0 0 0
2299 1 -6.718450883615759 -9.897522950485259 1.105920725304196e-18 0 4 0.0298415518297304 1 -0.569865 -0.821739 -0 0 0 0
2140 1 -5.061730274197689 -10.689822936524607 1.745118796613131 0 4 0.0298415518297304 1 -0.427143 -0.892995 0.141803 0 0 0
4189 2 -0.5143360618888266 -10.20053416550823 0.821384303149971 0 1 1.90985931710274 0 0 0 1 0 0 0
2256 1 -9.376631494888152 -7.375600354702212 0.6851437658954604 0 4 0.0298415518297304 1 -0.783847 -0.618377 0.056516 0 0 0
2257 1 -8.896439356475284 -7.952522696613374 0.6656915704953397 0 4 0.0298415518297304 1 -0.74655 -0.662924 0.056523 0 0 0
2258 1 -8.630639292972145 -8.162830137834208 1.321444919037123 0 4 0.0298415518297304 1 -0.720284 -0.685123 0.10862 0 0 0
2259 1 -8.131128066779423 -8.669599745290057 1.2784715515496379 0 4 0.0298415518297304 1 -0.683456 -0.721864 0.108633 0 0 0
2275 1 -8.684155977676964 -8.21217122543628 2.0736013599453675e-18 0 4 0.0298415518297304 1 -0.724369 -0.689412 0 0 0 0
45 1 -2.691412527142975 -2.76480181326049e-19 11.639062436059561 0 4 0.0298415518297304 1 -0.225222 -0 0.974307 0 0 0
2277 1 -7.9566467609051275 -8.9006657194245 0.6393586009192921 0 4 0.0298415518297304 1 -0.661356 -0.748244 0.052342 0 0 0
4199 2 -7.609626588659916 -7.704509607206221 0.07432368504329467 0 1 1.90985931710274 0 0 0 1 0 0 0
4224 2 -5.768326120267042 -8.883504047848431 1.3962299456255938 0 1 1.90985931710274 0 0 0 1 0 0 0
4203 2 -2.964746093667017 -8.1726222615526 1.3881040854543851 0 1 1.90985931710274 0 0 0 1 0 0 0
2779 2 -12.282035652276537 -5.905159811737565 0.36209612676455727 0 1 1.90985931710274 0 0 0 1 0 0 0
2237 1 -10.64038312370757 -5.383451567067813 0.7122045543855867 0 4 0.0298415518297304 1 -0.890774 -0.450572 0.059223 0 0 0
2238 1 -10.25069844397294 -6.095336996791155 0.7040841837917592 0 4 0.0298415518297304 1 -0.858483 -0.50941 0.059226 0 0 0
2239 1 -9.992199987587664 -6.399635919207783 1.3963315588536618 0 4 0.0298415518297304 1 -0.836362 -0.53584 0.115646 0 0 0
2240 1 -9.553842441772057 -7.044985182758772 1.3686009819231013 0 4 0.0298415518297304 1 -0.800437 -0.588153 0.115657 0 0 0
2070 1 -1.105920725304196e-18 -8.684155977676964 8.21217122543628 0 4 0.0298415518297304 1 0 -0.724369 0.689412 0 0 0
2255 1 -9.61605526409717 -7.092140394247476 1.105920725304196e-18 0 4 0.0298415518297304 1 -0.806015 -0.591895 -0 0 0 0
4184 2 -5.570926471167334 -6.840184066360848 0.03503294622249681 0 1 1.90985931710274 0 0 0 1 0 0 0
4185 2 -4.071756639136829 -5.823175972689128 0.6106030138256617 0 1 1.90985931710274 0 0 0 1 0 0 0
2652 2 -13.020045723808465 -4.105702707973356 1.64164852068373 0 1 1.90985931710274 0 0 0 1 0 0 0
2681 2 -13.361865465571057 -5.119587644523257 1.3373694417434572 0 1 1.90985931710274 0 0 0 1 0 0 0
2780 2 -13.874203082776289 -4.398419770167535 0.652882421244446 0 1 1.90985931710274 0 0 0 1 0 0 0
2221 1 -11.279869072120212 -3.86648581940601 0.7152375895268429 0 4 0.0298415518297304 1 -0.944241 -0.323807 0.059642 0 0 0
2222 1 -11.07989365716363 -4.2327990080513676 1.423347517251903 0 4 0.0298415518297304 1 -0.927636 -0.354065 0.118867 0 0 0
2235 1 -11.159030532552128 -4.262370524096592 1.105920725304196e-18 0 4 0.0298415518297304 1 -0.934172 -0.356822 -0 0 0 0
2236 1 -10.837827437084997 -5.0237641903669115 8.29440543978147e-19 0 4 0.0298415518297304 1 -0.90738 -0.420311 -0 0 0 0
2223 1 -10.76190507047654 -4.98783925556015 1.4192693658356634 0 4 0.0298415518297304 1 -0.900842 -0.417556 0.118869 0 0 0
2788 2 -13.18005604542352 -2.158463433089768 0.8878960602728476 0 1 1.90985931710274 0 0 0 1 0 0 0
2207 1 -11.715167821109105 -1.8888478978032397 1.3914885773027972 0 4 0.0298415518297304 1 -0.980288 -0.159038 0.117231 0 0 0
2208 1 -11.558231437056955 -2.672170851459992 1.4115491063592356 0 4 0.0298415518297304 1 -0.967535 -0.22391 0.117222 0 0 0
2088 1 -0.002647939356111089 -10.037609261616948 6.447815167188548 0 4 0.0298415518297304 1 0 -0.841873 0.539676 0 0 0
2219 1 -11.639062436059561 -2.691412527142975 1.105920725304196e-18 0 4 0.0298415518297304 1 -0.974307 -0.225222 -0 0 0 0
2220 1 -11.52006018579294 -3.0804279528325313 0.7111428724090038 0 4 0.0298415518297304 1 -0.964238 -0.258241 0.059644 0 0 0
4214 2 -9.862023717377216 -2.217077958884257 1.1572690322869121 0 1 1.90985931710274 0 0 0 1 0 0 0
4221 2 -2.335972787879074 -3.070223480208057 1.1725474010324075 0 1 1.90985931710274 0 0 0 1 0 0 0
4168 2 -1.3259501690716444 -2.9407199904945784 0.7500124997831993 0 1 1.90985931710274 0 0 0 1 0 0 0
2195 1 -11.86812127662825 -0.37686877902933724 1.3496076122842269 0 4 0.0298415518297304 1 -0.993329 -0.030269 0.111273 0 0 0
2204 1 -11.94399904357446 -0.37985787396102 0 0 4 0.0298415518297304 1 -0.999545 -0.030178 -0 0 0 0
2205 1 -11.953363472967792 -0.7536416826208681 0.6873477297214883 0 4 0.0298415518297304 1 -0.996248 -0.064561 0.057636 0 0 0
2206 1 -11.83119651802187 -1.5137182198694838 0.6968056081181138 0 4 0.0298415518297304 1 -0.99035 -0.126041 0.05763 0 0 0
4202 2 -10.8798141810584 -0.5265144071224301 0.5483470906283243 0 1 1.90985931710274 0 0 0 1 0 0 0
4172 2 -6.456544211320069 -1.0871736564039054 0.9019488195515599 0 1 1.90985931710274 0 0 0 1 0 0 0
4180 2 -7.012922343955831 -0.3614508656566038 0.1601129094566307 0 1 1.90985931710274 0 0 0 1 0 0 0
4170 2 -5.107484775021747 -1.3091717905115985 0.921476871583911 0 1 1.90985931710274 0 0 0 1 0 0 0
4197 2 -3.655924332591063 -0.8623758579807301 0.10122291787962467 0 1 1.90985931710274 0 0 0 1 0 0 0
4207 2 -2.1630764122159096 -0.10670011279343683 0.5095542807234885 0 1 1.90985931710274 0 0 0 1 0 0 0
2696 2 -12.058750119203701 -12.988519456574851 2.4744573464961004 0 1 1.90985931710274 0 0 0 1 0 0 0
2625 2 -9.147170038323528 -13.42737010352981 2.892791974475129 0 1 1.90985931710274 0 0 0 1 0 0 0
2723 2 -10.243529117792944 -13.832070746002202 3.2483719410099336 0 1 1.90985931710274 0 0 0 1 0 0 0
2649 2 -5.641240129782084 -12.609379247469638 3.0410837777998783 0 1 1.90985931710274 0 0 0 1 0 0 0
2771 2 -6.7461764578476 -13.666427044606797 3.215943293571451 0 1 1.90985931710274 0 0 0 1 0 0 0
2757 2 -3.602317529845065 -13.543478106003299 3.1399864025703845 0 1 1.90985931710274 0 0 0 1 0 0 0
2642 2 -0.9520307235928058 -14.271013424267183 2.119936341451025 0 1 1.90985931710274 0 0 0 1 0 0 0
2675 2 -9.725998075868725 -12.119331125666896 2.06588891647994 0 1 1.90985931710274 0 0 0 1 0 0 0
2680 2 -9.734485297903062 -11.258601856762752 2.9913353884527947 0 1 1.90985931710274 0 0 0 1 0 0 0
2662 2 -8.574974416359552 -11.40204175498896 3.0888619005591824 0 1 1.90985931710274 0 0 0 1 0 0 0
2124 1 -4.017420313103844 -10.967922118238022 2.5293110254501143 0 4 0.0298415518297304 1 -0.333881 -0.917967 0.214148 0 0 0
2142 1 -3.960234221833683 -11.13171558938183 1.8043773161599217 0 4 0.0298415518297304 1 -0.333904 -0.930733 0.149145 0 0 0
2125 1 -3.412019013526081 -11.06193314522361 2.963422670948167 0 4 0.0298415518297304 1 -0.286314 -0.925869 0.246557 0 0 0
2126 1 -2.7661375647652378 -11.325622741883521 2.616436136241011 0 4 0.0298415518297304 1 -0.229781 -0.948027 0.220102 0 0 0
2127 1 -2.103550570471817 -11.360997099847129 3.039448746477639 0 4 0.0298415518297304 1 -0.176454 -0.950927 0.254167 0 0 0
2144 1 -2.720806005500703 -11.47589781725785 1.8512501514470796 0 4 0.0298415518297304 1 -0.229798 -0.960798 0.155112 0 0 0
2684 2 -3.2906857403768885 -12.35421707870804 2.1811761677672963 0 1 1.90985931710274 0 0 0 1 0 0 0
2128 1 -1.4115491063592356 -11.558231437056955 2.672170851459992 0 4 0.0298415518297304 1 -0.117222 -0.967535 0.22391 0 0 0
2129 1 -0.7111428724090038 -11.52006018579294 3.0804279528325313 0 4 0.0298415518297304 1 -0.059644 -0.964238 0.258241 0 0 0
2146 1 -1.3914885773027972 -11.715167821109105 1.8888478978032397 0 4 0.0298415518297304 1 -0.117231 -0.980288 0.159038 0 0 0
2763 2 -10.933146280018901 -8.985740277671077 1.8197811822253147 0 1 1.90985931710274 0 0 0 1 0 0 0
2777 2 -11.151822763197147 -10.541361054452606 3.1980198150425156 0 1 1.90985931710274 0 0 0 1 0 0 0
2804 2 -12.326691245974418 -10.203279092041484 2.5249500587763425 0 1 1.90985931710274 0 0 0 1 0 0 0
684 1 -6.3671283268970695 -9.515722686147727 3.4268197334280326 0 4 0.0298415518297304 1 -0.532402 -0.795275 0.289976 0 0 0
685 1 -5.7687017515614585 -9.931604703079781 3.309267907455417 0 4 0.0298415518297304 1 -0.483981 -0.831166 0.273726 0 0 0
686 1 -5.710312428807246 -10.165746059644487 2.63849077709189 0 4 0.0298415518297304 1 -0.47691 -0.849516 0.225565 0 0 0
702 1 -6.8797784902812955 -9.327338261728201 2.9195443775880694 0 4 0.0298415518297304 1 -0.575225 -0.781589 0.241321 0 0 0
703 1 -6.783319053141226 -9.581412179409126 2.2559092717178135 0 4 0.0298415518297304 1 -0.568207 -0.799826 0.193441 0 0 0
704 1 -6.211528291683313 -9.979208801255677 2.184302998367814 0 4 0.0298415518297304 1 -0.519552 -0.835883 0.177101 0 0 0
2107 1 -4.627224043334814 -10.426911840880612 3.566604096775424 0 4 0.0298415518297304 1 -0.385995 -0.871859 0.301445 0 0 0
2122 1 -5.140432586494049 -10.517951734564901 2.4208158069392542 0 4 0.0298415518297304 1 -0.427117 -0.88029 0.206546 0 0 0
2123 1 -4.597576101275517 -10.65540007802271 2.861937509150159 0 4 0.0298415518297304 1 -0.386006 -0.891718 0.236303 0 0 0
4198 2 -4.466137181798824 -9.007850492822572 3.325507131026466 0 1 1.90985931710274 0 0 0 1 0 0 0
2802 2 -12.478568595018217 -8.408518471160013 2.2169112136618043 0 1 1.90985931710274 0 0 0 1 0 0 0
2241 1 -9.255835233925785 -7.28208785979175 2.02877540751461 0 4 0.0298415518297304 1 -0.774346 -0.610208 0.167433 0 0 0
701 1 -7.444239992366906 -8.850031126127387 3.015399555322699 0 4 0.0298415518297304 1 -0.623858 -0.738752 0.255043 0 0 0
719 1 -8.519520450007567 -7.737155463213315 3.2201579666754445 0 4 0.0298415518297304 1 -0.711194 -0.649239 0.269616 0 0 0
720 1 -8.421148108100308 -8.08213718829916 2.572094274093865 0 4 0.0298415518297304 1 -0.706291 -0.673906 0.216805 0 0 0
721 1 -7.906844018523753 -8.610159610496206 2.492570003313927 0 4 0.0298415518297304 1 -0.659732 -0.722546 0.206595 0 0 0
722 1 -7.778922635537865 -8.887274502417357 1.848351927259901 0 4 0.0298415518297304 1 -0.652682 -0.740883 0.158426 0 0 0
2242 1 -8.788959806380333 -7.8548174342616175 1.976962086269973 0 4 0.0298415518297304 1 -0.736792 -0.655055 0.167452 0 0 0
4193 2 -7.666171054520106 -7.5917206191867885 1.8336468479439598 0 1 1.90985931710274 0 0 0 1 0 0 0
4164 2 -5.696963970470586 -8.238682979478687 2.3048977674710684 0 1 1.90985931710274 0 0 0 1 0 0 0
4169 2 -2.347105650636431 -7.718548246498047 3.3026931073080252 0 1 1.90985931710274 0 0 0 1 0 0 0
4233 2 -3.5168782029643832 -7.836719222381825 2.362075428656091 0 1 1.90985931710274 0 0 0 1 0 0 0
4222 2 -0.42596179259550304 -7.784026152608134 3.024113115085319 0 1 1.90985931710274 0 0 0 1 0 0 0
2784 2 -13.316925207489906 -6.430950282834078 3.338600407653553 0 1 1.90985931710274 0 0 0 1 0 0 0
2820 2 -11.11402148398265 -6.639329296396149 2.6459874699160206 0 1 1.90985931710274 0 0 0 1 0 0 0
718 1 -8.996025895892759 -7.142375312258343 3.2975402454766938 0 4 0.0298415518297304 1 -0.7541 -0.59604 0.275807 0 0 0
2214 1 -9.85282733924287 -5.854617017001387 3.383586720413358 0 4 0.0298415518297304 1 -0.823738 -0.490447 0.284461 0 0 0
2225 1 -10.113173319118141 -6.011561039835598 2.0830139269438743 0 4 0.0298415518297304 1 -0.846422 -0.502849 0.175251 0 0 0
2226 1 -9.79413632702012 -6.274706368145702 2.737132063013731 0 4 0.0298415518297304 1 -0.820451 -0.524802 0.226809 0 0 0
2227 1 -9.37289470523265 -6.909457866036755 2.6877540399909075 0 4 0.0298415518297304 1 -0.784369 -0.577333 0.226831 0 0 0
4188 2 -7.428762012382598 -5.445982114326837 1.9496105088495277 0 1 1.90985931710274 0 0 0 1 0 0 0
4220 2 -8.311003896344555 -6.668017388919962 1.9730715104369871 0 1 1.90985931710274 0 0 0 1 0 0 0
4225 2 -7.281341929346645 -6.656213703340273 2.35431135146905 0 1 1.90985931710274 0 0 0 1 0 0 0
4190 2 -7.028907025766864 -5.9226400636904915 3.148085553909091 0 1 1.90985931710274 0 0 0 1 0 0 0
4230 2 -5.745263537720835 -5.3818924740909555 2.813183953304078 0 1 1.90985931710274 0 0 0 1 0 0 0
4187 2 -4.444578486871967 -5.434534857146901 3.003037932019037 0 1 1.90985931710274 0 0 0 1 0 0 0
4205 2 -3.639168357311057 -6.255635326928739 3.2099483086737397 0 1 1.90985931710274 0 0 0 1 0 0 0
4165 2 -2.3598183048990613 -6.121926438514445 2.2029038877120115 0 1 1.90985931710274 0 0 0 1 0 0 0
4211 2 -0.8428350535221387 -6.32256854660383 2.3894912294238093 0 1 1.90985931710274 0 0 0 1 0 0 0
2754 2 -14.3226518100818 -4.733594044795128 1.9174571282668413 0 1 1.90985931710274 0 0 0 1 0 0 0
2201 1 -10.828792332517375 -3.7071227937142512 3.4315134233143305 0 4 0.0298415518297304 1 -0.905904 -0.312038 0.286305 0 0 0
2210 1 -11.123083633229703 -3.8114019686846525 2.115633286578001 0 4 0.0298415518297304 1 -0.930931 -0.319741 0.176449 0 0 0
2211 1 -10.852187900093165 -4.148160133050597 2.787820095153561 0 4 0.0298415518297304 1 -0.908815 -0.346156 0.232877 0 0 0
2212 1 -10.54382301778774 -4.884105722525149 2.7798204017072834 0 4 0.0298415518297304 1 -0.882039 -0.409603 0.232881 0 0 0
2213 1 -10.215155116265121 -5.172463522025751 3.4183554655301926 0 4 0.0298415518297304 1 -0.856072 -0.431545 0.284445 0 0 0
2224 1 -10.492772653721886 -5.310097654165997 2.1070288296765565 0 4 0.0298415518297304 1 -0.878746 -0.443955 0.17524 0 0 0
4157 2 -9.526264986666522 -3.6684989042506135 3.0550002599254515 0 1 1.90985931710274 0 0 0 1 0 0 0
4219 2 -1.5129964030034309 -4.545131278674542 2.7227313169708864 0 1 1.90985931710274 0 0 0 1 0 0 0
2198 1 -11.48537574342067 -1.8548371467004798 2.726875306230269 0 4 0.0298415518297304 1 -0.960798 -0.155112 0.229798 0 0 0
2199 1 -11.325622741883521 -2.616436136241011 2.7661375647652378 0 4 0.0298415518297304 1 -0.948027 -0.220102 0.229781 0 0 0
2200 1 -11.06193314522361 -2.963422670948167 3.412019013526081 0 4 0.0298415518297304 1 -0.925869 -0.246557 0.286314 0 0 0
2209 1 -11.360997099847129 -3.039448746477639 2.103550570471817 0 4 0.0298415518297304 1 -0.950927 -0.254167 0.176454 0 0 0
4181 2 -6.680084353216216 -3.066592504952366 2.160359265565063 0 1 1.90985931710274 0 0 0 1 0 0 0
4177 2 -0.4769338973887507 -3.439383412739824 3.0690080817819876 0 1 1.90985931710274 0 0 0 1 0 0 0
2759 2 -13.79649941509981 -1.6272435824765559 3.0596913165293405 0 1 1.90985931710274 0 0 0 1 0 0 0
2188 1 -11.648741412035173 -0.3678117563873662 2.6502621255199252 0 4 0.0298415518297304 1 -0.97535 -0.030501 0.218543 0 0 0
2189 1 -11.472097285570149 -0.7237953884855253 3.276131940429869 0 4 0.0298415518297304 1 -0.958848 -0.060552 0.277386 0 0 0
2190 1 -11.379342313562363 -1.4521994712227135 3.3517287379160643 0 4 0.0298415518297304 1 -0.9529 -0.122693 0.277359 0 0 0
2196 1 -11.756097880475448 -0.7363147481133524 2.0167350080379154 0 4 0.0298415518297304 1 -0.983303 -0.063153 0.170666 0 0 0
2197 1 -11.674634439008784 -1.4926796990507116 2.0629124085374824 0 4 0.0298415518297304 1 -0.977384 -0.124901 0.170648 0 0 0
4215 2 -8.981105904037195 -1.6121711531477736 2.8553030453642556 0 1 1.90985931710274 0 0 0 1 0 0 0
4161 2 -7.737326221980191 -1.3702268210769422 3.225432159826992 0 1 1.90985931710274 0 0 0 1 0 0 0
4171 2 -5.217056940248002 -1.2350467481741578 3.0270074369297255 0 1 1.90985931710274 0 0 0 1 0 0 0
4186 2 -3.7271035978795286 -1.2933875612485721 3.1136600952681786 0 1 1.90985931710274 0 0 0 1 0 0 0
4227 2 -4.326156794947063 -0.28013267529548536 3.5729923087674056 0 1 1.90985931710274 0 0 0 1 0 0 0
4167 2 -2.366630267346963 -1.0443602624355122 2.3513922427949225 0 1 1.90985931710274 0 0 0 1 0 0 0
4176 2 -1.5881800687559908 -0.503696619916879 1.7814500605739525 0 1 1.90985931710274 0 0 0 1 0 0 0
2737 2 -13.001376628861562 -12.708379276275494 3.8110516377835477 0 1 1.90985931710274 0 0 0 1 0 0 0
2755 2 -13.02706082202119 -13.86620371012458 3.597523936190848 0 1 1.90985931710274 0 0 0 1 0 0 0
2735 2 -8.168635253041089 -12.92009586156211 4.426058725618011 0 1 1.90985931710274 0 0 0 1 0 0 0
2773 2 -2.140483674594746 -12.638336913869514 4.268182595092343 0 1 1.90985931710274 0 0 0 1 0 0 0
2719 2 -13.293313870568902 -11.410526651515317 3.988675982067397 0 1 1.90985931710274 0 0 0 1 0 0 0
2638 2 -5.555836170010815 -12.279727371767505 4.189016703554996 0 1 1.90985931710274 0 0 0 1 0 0 0
2109 1 -3.4315134233143305 -10.828792332517375 3.7071227937142512 0 4 0.0298415518297304 1 -0.286305 -0.905904 0.312038 0 0 0
2110 1 -2.787820095153561 -10.852187900093165 4.148160133050597 0 4 0.0298415518297304 1 -0.232877 -0.908815 0.346156 0 0 0
2111 1 -2.115633286578001 -11.123083633229703 3.8114019686846525 0 4 0.0298415518297304 1 -0.176449 -0.930931 0.319741 0 0 0
2112 1 -1.423347517251903 -11.07989365716363 4.2327990080513676 0 4 0.0298415518297304 1 -0.118867 -0.927636 0.354065 0 0 0
2113 1 -0.7305395127893832 -11.253349776096812 3.865889709892675 0 4 0.0298415518297304 1 -0.059642 -0.944241 0.323807 0 0 0
2808 2 -0.18419278865955294 -12.205562037997101 3.886368194618401 0 1 1.90985931710274 0 0 0 1 0 0 0
2634 2 -13.481096127260203 -10.346574862232945 5.044836450895671 0 1 1.90985931710274 0 0 0 1 0 0 0
2734 2 -12.026118831811317 -9.87525825279193 4.961147326054158 0 1 1.90985931710274 0 0 0 1 0 0 0
2695 2 -9.573916389517503 -10.479794620665778 4.705688470280952 0 1 1.90985931710274 0 0 0 1 0 0 0
2621 2 -7.9362405715643884 -10.411468282673518 5.022691106185674 0 1 1.90985931710274 0 0 0 1 0 0 0
667 1 -5.846719577457926 -9.336112728622068 4.629649181325049 0 4 0.0298415518297304 1 -0.488399 -0.781003 0.389231 0 0 0
683 1 -6.413209013816228 -9.207096031147115 4.109775397540957 0 4 0.0298415518297304 1 -0.53729 -0.770758 0.342421 0 0 0
654 1 -4.6471478823731145 -9.830129370841252 4.958664267611715 0 4 0.0298415518297304 1 -0.38708 -0.822871 0.415996 0 0 0
668 1 -5.236891991858055 -9.765930954750743 4.474010090314408 0 4 0.0298415518297304 1 -0.440282 -0.816671 0.373095 0 0 0
669 1 -5.222355621366762 -10.059100048941238 3.7939239923523522 0 4 0.0298415518297304 1 -0.435348 -0.841358 0.320296 0 0 0
2094 1 -4.03736240898212 -10.206998193417988 4.725745922084348 0 4 0.0298415518297304 1 -0.338104 -0.85314 0.397289 0 0 0
2108 1 -4.045510343949046 -10.502245767290724 4.018942358833174 0 4 0.0298415518297304 1 -0.338099 -0.879824 0.334064 0 0 0
2095 1 -3.4183554655301926 -10.215155116265121 5.172463522025751 0 4 0.0298415518297304 1 -0.284445 -0.856072 0.431545 0 0 0
2096 1 -2.7798204017072834 -10.54382301778774 4.884105722525149 0 4 0.0298415518297304 1 -0.232881 -0.882039 0.409603 0 0 0
2097 1 -2.1070288296765565 -10.492772653721886 5.310097654165997 0 4 0.0298415518297304 1 -0.17524 -0.878746 0.443955 0 0 0
2098 1 -1.4192693658356634 -10.76190507047654 4.98783925556015 0 4 0.0298415518297304 1 -0.118869 -0.900842 0.417556 0 0 0
2706 2 -12.90719769885602 -8.403272673123777 4.279756808683986 0 1 1.90985931710274 0 0 0 1 0 0 0
2782 2 -9.32105527317178 -8.40492419810355 5.223670473643272 0 1 1.90985931710274 0 0 0 1 0 0 0
680 1 -7.578527615711209 -7.746829429466787 5.027747336910463 0 4 0.0298415518297304 1 -0.634573 -0.647794 0.421521 0 0 0
698 1 -8.103352022611611 -7.567008598743931 4.452551263255395 0 4 0.0298415518297304 1 -0.677324 -0.634131 0.372974 0 0 0
699 1 -8.061162762905834 -7.967511654140036 3.7838070843487692 0 4 0.0298415518297304 1 -0.675536 -0.665346 0.317751 0 0 0
700 1 -7.521794481100211 -8.521952334138087 3.6863335632185215 0 4 0.0298415518297304 1 -0.628735 -0.714242 0.307492 0 0 0
666 1 -5.844040723021723 -8.963339986921262 5.315532000828298 0 4 0.0298415518297304 1 -0.490205 -0.749777 0.444447 0 0 0
681 1 -7.021482536804528 -8.321548324326256 4.917931978313914 0 4 0.0298415518297304 1 -0.587705 -0.69676 0.411251 0 0 0
682 1 -6.999619942319504 -8.709186563023858 4.233482399091309 0 4 0.0298415518297304 1 -0.585913 -0.727926 0.356132 0 0 0
4232 2 -5.911913379849312 -7.909163127403656 4.593841726752263 0 1 1.90985931710274 0 0 0 1 0 0 0
2823 2 -13.578226701585674 -6.857779550415997 4.892600158358805 0 1 1.90985931710274 0 0 0 1 0 0 0
2787 2 -12.085657329085487 -6.000491939765942 5.376284353832 0 1 1.90985931710274 0 0 0 1 0 0 0
695 1 -9.030104738562834 -5.819635519704458 5.229067623256141 0 4 0.0298415518297304 1 -0.755998 -0.4875 0.436819 0 0 0
715 1 -9.471464327594123 -5.632089492713752 4.621672847602975 0 4 0.0298415518297304 1 -0.791512 -0.471446 0.388906 0 0 0
716 1 -9.472968743546604 -6.089382005172075 3.9982103829107847 0 4 0.0298415518297304 1 -0.793559 -0.509098 0.333291 0 0 0
717 1 -9.050444772702892 -6.734332239905998 3.9404487203291834 0 4 0.0298415518297304 1 -0.755891 -0.564703 0.33127 0 0 0
696 1 -8.591918993333321 -6.484890297575802 5.182674844411291 0 4 0.0298415518297304 1 -0.718335 -0.543095 0.434791 0 0 0
697 1 -8.599454995390728 -6.947090881314812 4.532261116183702 0 4 0.0298415518297304 1 -0.720381 -0.580747 0.379189 0 0 0
4228 2 -5.054311934294935 -5.653692595259292 4.2481550749306 0 1 1.90985931710274 0 0 0 1 0 0 0
4231 2 -4.930700876193065 -6.729365276556004 4.4619493253610765 0 1 1.90985931710274 0 0 0 1 0 0 0
4213 2 -3.1111737731010205 -5.672096508875 4.539883337858306 0 1 1.90985931710274 0 0 0 1 0 0 0
2800 2 -13.485904008087005 -5.049345918261803 4.778109773889559 0 1 1.90985931710274 0 0 0 1 0 0 0
2824 2 -12.269968337438414 -3.997457327401131 3.9957523691977936 0 1 1.90985931710274 0 0 0 1 0 0 0
712 1 -10.059100048941238 -3.7939239923523522 5.222355621366762 0 4 0.0298415518297304 1 -0.841358 -0.320296 0.435348 0 0 0
713 1 -9.765930954750743 -4.474010090314408 5.236891991858055 0 4 0.0298415518297304 1 -0.816671 -0.373095 0.440282 0 0 0
714 1 -9.830129370841252 -4.958664267611715 4.6471478823731145 0 4 0.0298415518297304 1 -0.822871 -0.415996 0.38708 0 0 0
2202 1 -10.502245767290724 -4.018942358833174 4.045510343949046 0 4 0.0298415518297304 1 -0.879824 -0.334064 0.338099 0 0 0
2203 1 -10.206998193417988 -4.725745922084348 4.03736240898212 0 4 0.0298415518297304 1 -0.85314 -0.397289 0.338104 0 0 0
4206 2 -8.45474412043545 -4.553534158605065 5.000996324660168 0 1 1.90985931710274 0 0 0 1 0 0 0
4195 2 -5.691086531032414 -3.6969050617813792 3.9842706403716885 0 1 1.90985931710274 0 0 0 1 0 0 0
4212 2 -4.762913474367917 -4.1757903772019445 5.03142748192746 0 1 1.90985931710274 0 0 0 1 0 0 0
4173 2 -2.2074442192280443 -4.351514565731956 4.048217743008426 0 1 1.90985931710274 0 0 0 1 0 0 0
4196 2 -0.03295460270838113 -3.7637137197664536 5.257321885220335 0 1 1.90985931710274 0 0 0 1 0 0 0
2727 2 -13.023025851837707 -3.452647836312744 4.959883091707818 0 1 1.90985931710274 0 0 0 1 0 0 0
2728 2 -13.537010761393624 -2.9677287426427146 3.8843944038813714 0 1 1.90985931710274 0 0 0 1 0 0 0
2191 1 -11.13171558938183 -1.8043773161599217 3.960234221833683 0 4 0.0298415518297304 1 -0.930733 -0.149145 0.333904 0 0 0
2192 1 -10.967922118238022 -2.5293110254501143 4.017420313103844 0 4 0.0298415518297304 1 -0.917967 -0.214148 0.333881 0 0 0
2187 1 -10.517951734564901 -2.4208158069392542 5.140432586494049 0 4 0.0298415518297304 1 -0.88029 -0.206546 0.427117 0 0 0
2193 1 -10.65540007802271 -2.861937509150159 4.597576101275517 0 4 0.0298415518297304 1 -0.891718 -0.236303 0.386006 0 0 0
2194 1 -10.426911840880612 -3.566604096775424 4.627224043334814 0 4 0.0298415518297304 1 -0.871859 -0.301445 0.385995 0 0 0
4234 2 -8.26679890706011 -2.878628959268214 4.1433755791245765 0 1 1.90985931710274 0 0 0 1 0 0 0
4218 2 -6.776825494934358 -2.599657361753783 4.973727004163113 0 1 1.90985931710274 0 0 0 1 0 0 0
4182 2 -5.022566154514051 -3.1140042420407026 5.142500906904078 0 1 1.90985931710274 0 0 0 1 0 0 0
4192 2 -4.000410968607792 -2.5953913911704998 4.9191605974060195 0 1 1.90985931710274 0 0 0 1 0 0 0
4200 2 -2.5474506550381495 -2.5385392261691564 3.730377774963534 0 1 1.90985931710274 0 0 0 1 0 0 0
2825 2 -12.840155615962702 -0.9696514851348077 5.288881339287977 0 1 1.90985931710274 0 0 0 1 0 0 0
2180 1 -10.876011960372498 -0.3282260859712711 4.959509308734032 0 4 0.0298415518297304 1 -0.912063 -0.03097 0.408879 0 0 0
2183 1 -11.308090336798315 -0.3522053557303874 3.8619611313205353 0 4 0.0298415518297304 1 -0.947429 -0.030774 0.318484 0 0 0
2184 1 -11.08496819773124 -0.7106141284784225 4.422370927131481 0 4 0.0298415518297304 1 -0.925344 -0.057112 0.374801 0 0 0
2185 1 -10.975640721862607 -1.3942285429139425 4.527409841300541 0 4 0.0298415518297304 1 -0.919379 -0.119553 0.374767 0 0 0
2186 1 -10.689822936524607 -1.745118796613131 5.061730274197689 0 4 0.0298415518297304 1 -0.892995 -0.141803 0.427143 0 0 0
4160 2 -7.945108419090103 -1.599225647378244 5.172216513840674 0 1 1.90985931710274 0 0 0 1 0 0 0
2694 2 -13.75695901910879 -14.057362376362006 6.857115842126419 0 1 1.90985931710274 0 0 0 1 0 0 0
2753 2 -11.673633101804256 -13.982074931720375 6.077352783713259 0 1 1.90985931710274 0 0 0 1 0 0 0
2819 2 -12.008427580880042 -13.078156574111853 5.414214165898764 0 1 1.90985931710274 0 0 0 1 0 0 0
2690 2 -7.6033821411188525 -12.77315778454593 5.720235136577932 0 1 1.90985931710274 0 0 0 1 0 0 0
2711 2 -8.110640037705757 -14.03170772066138 5.977736844190835 0 1 1.90985931710274 0 0 0 1 0 0 0
2653 2 -12.184160463428688 -12.051500122704693 5.7449864384243075 0 1 1.90985931710274 0 0 0 1 0 0 0
2797 2 -10.791584536880517 -11.948325350836303 6.050546494266955 0 1 1.90985931710274 0 0 0 1 0 0 0
2707 2 -8.431537952935358 -11.557296984562274 5.513772461875506 0 1 1.90985931710274 0 0 0 1 0 0 0
2796 2 -0.9211537513058659 -11.94143219769667 7.099395312074284 0 1 1.90985931710274 0 0 0 1 0 0 0
2758 2 -6.679348856287891 -9.837593630583672 6.566384780222235 0 1 1.90985931710274 0 0 0 1 0 0 0
640 1 -3.9404487203291834 -9.050444772702892 6.734332239905998 0 4 0.0298415518297304 1 -0.33127 -0.755891 0.564703 0 0 0
641 1 -3.9982103829107847 -9.472968743546604 6.089382005172075 0 4 0.0298415518297304 1 -0.333291 -0.793559 0.509098 0 0 0
652 1 -5.229067623256141 -9.030104738562834 5.819635519704458 0 4 0.0298415518297304 1 -0.436819 -0.755998 0.4875 0 0 0
653 1 -4.621672847602975 -9.471464327594123 5.632089492713752 0 4 0.0298415518297304 1 -0.388906 -0.791512 0.471446 0 0 0
630 1 -3.2975402454766938 -8.996025895892759 7.142375312258343 0 4 0.0298415518297304 1 -0.275807 -0.7541 0.59604 0 0 0
2074 1 -2.6877540399909075 -9.37289470523265 6.909457866036755 0 4 0.0298415518297304 1 -0.226831 -0.784369 0.577333 0 0 0
2083 1 -3.383586720413358 -9.85282733924287 5.854617017001387 0 4 0.0298415518297304 1 -0.284461 -0.823738 0.490447 0 0 0
2084 1 -2.737132063013731 -9.79413632702012 6.274706368145702 0 4 0.0298415518297304 1 -0.226809 -0.820451 0.524802 0 0 0
2085 1 -2.0830139269438743 -10.113173319118141 6.011561039835598 0 4 0.0298415518297304 1 -0.175251 -0.846422 0.502849 0 0 0
2076 1 -1.3686009819231013 -9.553842441772057 7.044985182758772 0 4 0.0298415518297304 1 -0.115657 -0.800437 0.588153 0 0 0
2086 1 -1.3963315588536618 -9.992199987587664 6.399635919207783 0 4 0.0298415518297304 1 -0.115646 -0.836362 0.53584 0 0 0
2087 1 -0.7040841837917592 -10.25069844397294 6.095336996791155 0 4 0.0298415518297304 1 -0.059226 -0.858483 0.50941 0 0 0
2099 1 -0.7122045543855867 -10.64038312370757 5.383451567067813 0 4 0.0298415518297304 1 -0.059223 -0.890774 0.450572 0 0 0
2785 2 -13.279461447692093 -8.201607361002289 6.93956563456131 0 1 1.90985931710274 0 0 0 1 0 0 0
2731 2 -12.338535004651819 -8.353673183112296 5.566659431635058 0 1 1.90985931710274 0 0 0 1 0 0 0
2798 2 -11.484665837271029 -7.921577014177482 6.430188719065901 0 1 1.90985931710274 0 0 0 1 0 0 0
679 1 -7.5599552786647415 -7.2872611811923225 5.696441317200801 0 4 0.0298415518297304 1 -0.632533 -0.610173 0.477065 0 0 0
2691 2 -7.9617367861623745 -8.40993703102724 7.076269525181326 0 1 1.90985931710274 0 0 0 1 0 0 0
650 1 -5.774066719283829 -8.070493389834603 6.651223165669366 0 4 0.0298415518297304 1 -0.483286 -0.67562 0.556751 0 0 0
663 1 -6.971342485334068 -7.413383296015549 6.256104902255907 0 4 0.0298415518297304 1 -0.583573 -0.620434 0.523931 0 0 0
664 1 -6.407584207931539 -7.9994657362479495 6.136607830526459 0 4 0.0298415518297304 1 -0.536709 -0.669396 0.513666 0 0 0
665 1 -6.439296458190344 -8.450912740693703 5.46289520267755 0 4 0.0298415518297304 1 -0.538743 -0.70702 0.458125 0 0 0
639 1 -4.532261116183702 -8.599454995390728 6.947090881314812 0 4 0.0298415518297304 1 -0.379189 -0.720381 0.580747 0 0 0
651 1 -5.182674844411291 -8.591918993333321 6.484890297575802 0 4 0.0298415518297304 1 -0.434791 -0.718335 0.543095 0 0 0
4194 2 -3.8826227882610187 -8.088418302939523 5.466934495426546 0 1 1.90985931710274 0 0 0 1 0 0 0
4210 2 -2.051161531620698 -8.641963949076281 5.963101874938996 0 1 1.90985931710274 0 0 0 1 0 0 0
2641 2 -11.243752940351927 -5.7527724948319445 7.138365359523087 0 1 1.90985931710274 0 0 0 1 0 0 0
2736 2 -9.43198074746405 -7.158260628248472 6.099669027937926 0 1 1.90985931710274 0 0 0 1 0 0 0
661 1 -7.413383296015549 -6.256104902255907 6.971342485334068 0 4 0.0298415518297304 1 -0.620434 -0.523931 0.583573 0 0 0
676 1 -8.450912740693703 -5.46289520267755 6.439296458190344 0 4 0.0298415518297304 1 -0.70702 -0.458125 0.538743 0 0 0
677 1 -7.9994657362479495 -6.136607830526459 6.407584207931539 0 4 0.0298415518297304 1 -0.669396 -0.513666 0.536709 0 0 0
678 1 -8.070493389834603 -6.651223165669366 5.774066719283829 0 4 0.0298415518297304 1 -0.67562 -0.556751 0.483286 0 0 0
662 1 -6.896660049020172 -6.896660049020172 6.896660049020172 0 4 0.0298415518297304 1 -0.57735 -0.57735 0.57735 0 0 0
4191 2 -3.402909368707748 -5.768761871110053 6.2804442533357445 0 1 1.90985931710274 0 0 0 1 0 0 0
4166 2 -0.6044315032217809 -6.876169088325087 5.824330542056392 0 1 1.90985931710274 0 0 0 1 0 0 0
4204 2 -1.3595993258082562 -6.659460712558032 6.582951909076579 0 1 1.90985931710274 0 0 0 1 0 0 0
4235 2 -0.018822096649435238 -5.41446438706849 5.481336539885 0 1 1.90985931710274 0 0 0 1 0 0 0
2656 2 -12.626906801582642 -4.5335781994452 5.555771924511648 0 1 1.90985931710274 0 0 0 1 0 0 0
692 1 -9.207096031147115 -4.109775397540957 6.413209013816228 0 4 0.0298415518297304 1 -0.770758 -0.342421 0.53729 0 0 0
693 1 -9.336112728622068 -4.629649181325049 5.846719577457926 0 4 0.0298415518297304 1 -0.781003 -0.389231 0.488399 0 0 0
674 1 -8.709186563023858 -4.233482399091309 6.999619942319504 0 4 0.0298415518297304 1 -0.727926 -0.356132 0.585913 0 0 0
675 1 -8.321548324326256 -4.917931978313914 7.021482536804528 0 4 0.0298415518297304 1 -0.69676 -0.411251 0.587705 0 0 0
694 1 -8.963339986921262 -5.315532000828298 5.844040723021723 0 4 0.0298415518297304 1 -0.749777 -0.444447 0.490205 0 0 0
4217 2 -2.2344435558259867 -3.695382767350516 5.651895139874668 0 1 1.90985931710274 0 0 0 1 0 0 0
2686 2 -11.537325936352744 -3.2459482805561706 6.126942692436254 0 1 1.90985931710274 0 0 0 1 0 0 0
689 1 -9.581412179409126 -2.2559092717178135 6.783319053141226 0 4 0.0298415518297304 1 -0.799826 -0.193441 0.568207 0 0 0
690 1 -9.327338261728201 -2.9195443775880694 6.8797784902812955 0 4 0.0298415518297304 1 -0.781589 -0.241321 0.575225 0 0 0
691 1 -9.515722686147727 -3.4268197334280326 6.3671283268970695 0 4 0.0298415518297304 1 -0.795275 -0.289976 0.532402 0 0 0
709 1 -9.979208801255677 -2.184302998367814 6.211528291683313 0 4 0.0298415518297304 1 -0.835883 -0.177101 0.519552 0 0 0
710 1 -10.165746059644487 -2.63849077709189 5.710312428807246 0 4 0.0298415518297304 1 -0.849516 -0.225565 0.47691 0 0 0
711 1 -9.931604703079781 -3.309267907455417 5.7687017515614585 0 4 0.0298415518297304 1 -0.831166 -0.273726 0.483981 0 0 0
4158 2 -6.866531718951608 -3.4847504196821966 5.948218401330632 0 1 1.90985931710274 0 0 0 1 0 0 0
4229 2 -2.3183227786382936 -2.3163785738049647 6.4422940599524985 0 1 1.90985931710274 0 0 0 1 0 0 0
4201 2 -0.5949718470899867 -2.144230041406656 5.715740078314113 0 1 1.90985931710274 0 0 0 1 0 0 0
2760 2 -13.014384384472413 -1.720975827840281 6.262013488395477 0 1 1.90985931710274 0 0 0 1 0 0 0
687 1 -9.551761345313452 -1.14665875491715 7.102193318178118 0 4 0.0298415518297304 1 -0.796392 -0.102459 0.596039 0 0 0
706 1 -10.08337967517057 -0.4865794786618666 6.417728021582561 0 4 0.0298415518297304 1 -0.840898 -0.050161 0.538863 0 0 0
707 1 -9.928117389224152 -1.1377675643454386 6.570502549743725 0 4 0.0298415518297304 1 -0.832448 -0.086106 0.547371 0 0 0
708 1 -10.16733844680462 -1.5271061926927691 6.106168118875939 0 4 0.0298415518297304 1 -0.84874 -0.134812 0.511338 0 0 0
2179 1 -10.38410240725975 -0.3007226119801671 5.931148609750038 0 4 0.0298415518297304 1 -0.871899 -0.031001 0.488703 0 0 0
2181 1 -10.631296536123939 -0.7031792711430755 5.432734791968485 0 4 0.0298415518297304 1 -0.885665 -0.053217 0.461265 0 0 0
2182 1 -10.49556439859258 -1.324251409088832 5.575087225059108 0 4 0.0298415518297304 1 -0.87971 -0.115671 0.461227 0 0 0
4162 2 -6.20175716137645 -0.12768725399995695 6.542342022738325 0 1 1.90985931710274 0 0 0 1 0 0 0
4226 2 -1.8229648830485985 -0.15337139779667197 5.385341231333314 0 1 1.90985931710274 0 0 0 1 0 0 0
2636 2 -14.123321227781355 -12.612495321241672 8.071419891229302 0 1 1.90985931710274 0 0 0 1 0 0 0
2786 2 -12.740186678958858 -14.15627326153 7.584553465291565 0 1 1.90985931710274 0 0 0 1 0 0 0
2666 2 -10.506468892164996 -13.092382617069491 7.613052913064648 0 1 1.90985931710274 0 0 0 1 0 0 0
2682 2 -4.068508626145315 -13.418571624280967 7.26336270980145 0 1 1.90985931710274 0 0 0 1 0 0 0
2640 2 -3.4700807865452847 -14.00632392413298 8.729879167580165 0 1 1.90985931710274 0 0 0 1 0 0 0
2697 2 -2.012414662400751 -12.764498969425713 7.74347086206234 0 1 1.90985931710274 0 0 0 1 0 0 0
2769 2 -3.51299666333614 -12.929192883668872 8.5765421738544 0 1 1.90985931710274 0 0 0 1 0 0 0
2761 2 -0.5199387646293321 -13.47824112517129 8.936351246131698 0 1 1.90985931710274 0 0 0 1 0 0 0
2674 2 -14.309397323420367 -11.574188726082818 8.625212726085875 0 1 1.90985931710274 0 0 0 1 0 0 0
2762 2 -6.3054430448838215 -11.142207362398235 7.559210172890685 0 1 1.90985931710274 0 0 0 1 0 0 0
2770 2 -13.252286697472808 -10.693084425465216 7.5806892061047275 0 1 1.90985931710274 0 0 0 1 0 0 0
2676 2 -6.928720721655884 -10.670810870421638 8.818106823534828 0 1 1.90985931710274 0 0 0 1 0 0 0
2075 1 -2.02877540751461 -9.255835233925785 7.28208785979175 0 4 0.0298415518297304 1 -0.167433 -0.774346 0.610208 0 0 0
2721 2 -3.448403984725786 -9.816985286267974 8.517699694183092 0 1 1.90985931710274 0 0 0 1 0 0 0
2077 1 -0.6851437658954603 -9.376631494888152 7.375600354702212 0 4 0.0298415518297304 1 -0.056516 -0.783847 0.618377 0 0 0
2814 2 -9.10582463148899 -7.361373435437043 7.8129046096272265 0 1 1.90985931710274 0 0 0 1 0 0 0
649 1 -5.696441317200801 -7.5599552786647415 7.2872611811923225 0 4 0.0298415518297304 1 -0.477065 -0.632533 0.610173 0 0 0
627 1 -3.700401979872062 -7.531155611295103 8.535334049756424 0 4 0.0298415518297304 1 -0.307492 -0.628735 0.714242 0 0 0
628 1 -3.7838070843487692 -8.061162762905834 7.967511654140036 0 4 0.0298415518297304 1 -0.317751 -0.675536 0.665346 0 0 0
637 1 -5.027747336910463 -7.578527615711209 7.746829429466787 0 4 0.0298415518297304 1 -0.421521 -0.634573 0.647794 0 0 0
638 1 -4.452551263255395 -8.103352022611611 7.567008598743931 0 4 0.0298415518297304 1 -0.372974 -0.677324 0.634131 0 0 0
614 1 -1.848351927259901 -7.778922635537865 8.887274502417357 0 4 0.0298415518297304 1 -0.158426 -0.652682 0.740883 0 0 0
619 1 -3.0159232623030485 -7.453077265167288 8.872459164292575 0 4 0.0298415518297304 1 -0.255043 -0.623858 0.738752 0 0 0
620 1 -2.492570003313927 -7.906844018523753 8.610159610496206 0 4 0.0298415518297304 1 -0.206595 -0.659732 0.722546 0 0 0
621 1 -2.572094274093865 -8.421148108100308 8.08213718829916 0 4 0.0298415518297304 1 -0.216805 -0.706291 0.673906 0 0 0
629 1 -3.2201579666754445 -8.519520450007567 7.737155463213315 0 4 0.0298415518297304 1 -0.269616 -0.711194 0.649239 0 0 0
2067 1 -1.976962086269973 -8.788959806380333 7.8548174342616175 0 4 0.0298415518297304 1 -0.167452 -0.736792 0.655055 0 0 0
2062 1 -1.2784715515496379 -8.131128066779423 8.669599745290057 0 4 0.0298415518297304 1 -0.108633 -0.683456 0.721864 0 0 0
2063 1 -0.6393586009192921 -7.9566467609051275 8.9006657194245 0 4 0.0298415518297304 1 -0.052342 -0.661356 0.748244 0 0 0
2068 1 -1.321444919037123 -8.630639292972145 8.162830137834208 0 4 0.0298415518297304 1 -0.10862 -0.720284 0.685123 0 0 0
2069 1 -0.6656915704953396 -8.896439356475284 7.952522696613374 0 4 0.0298415518297304 1 -0.056523 -0.74655 0.662924 0 0 0
2644 2 -13.171811732053088 -7.1017586162405 8.592882845911562 0 1 1.90985931710274 0 0 0 1 0 0 0
2778 2 -10.099668235797584 -6.8541230499736105 8.94521509353874 0 1 1.90985931710274 0 0 0 1 0 0 0
660 1 -7.2872611811923225 -5.696441317200801 7.5599552786647415 0 4 0.0298415518297304 1 -0.610173 -0.477065 0.632533 0 0 0
2626 2 -8.588351700534272 -6.62530487948381 8.745610515611405 0 1 1.90985931710274 0 0 0 1 0 0 0
635 1 -5.46289520267755 -6.439296458190344 8.450912740693703 0 4 0.0298415518297304 1 -0.458125 -0.538743 0.70702 0 0 0
646 1 -6.651223165669366 -5.774066719283829 8.070493389834603 0 4 0.0298415518297304 1 -0.556751 -0.483286 0.67562 0 0 0
647 1 -6.136607830526459 -6.407584207931539 7.9994657362479495 0 4 0.0298415518297304 1 -0.513666 -0.536709 0.669396 0 0 0
648 1 -6.256104902255907 -6.971342485334068 7.413383296015549 0 4 0.0298415518297304 1 -0.523931 -0.583573 0.620434 0 0 0
626 1 -4.233482399091309 -6.999619942319504 8.709186563023858 0 4 0.0298415518297304 1 -0.356132 -0.585913 0.727926 0 0 0
634 1 -5.315532000828298 -5.844040723021723 8.963339986921262 0 4 0.0298415518297304 1 -0.444447 -0.490205 0.749777 0 0 0
636 1 -4.917931978313914 -7.021482536804528 8.321548324326256 0 4 0.0298415518297304 1 -0.411251 -0.587705 0.69676 0 0 0
4208 2 -2.9813956657352003 -7.04688752331427 7.839796761724553 0 1 1.90985931710274 0 0 0 1 0 0 0
4209 2 -0.9374068079613359 -6.902771113163608 7.5613691655249875 0 1 1.90985931710274 0 0 0 1 0 0 0
2767 2 -9.568687273941674 -4.35962646865565 8.23290124484592 0 1 1.90985931710274 0 0 0 1 0 0 0
657 1 -7.967511654140036 -3.7838070843487692 8.061162762905834 0 4 0.0298415518297304 1 -0.665346 -0.317751 0.675536 0 0 0
658 1 -7.567008598743931 -4.452551263255395 8.103352022611611 0 4 0.0298415518297304 1 -0.634131 -0.372974 0.677324 0 0 0
659 1 -7.746829429466787 -5.027747336910463 7.578527615711209 0 4 0.0298415518297304 1 -0.647794 -0.421521 0.634573 0 0 0
673 1 -8.521952334138087 -3.6863335632185215 7.521794481100211 0 4 0.0298415518297304 1 -0.714242 -0.307492 0.628735 0 0 0
644 1 -6.947090881314812 -4.532261116183702 8.599454995390728 0 4 0.0298415518297304 1 -0.580747 -0.379189 0.720381 0 0 0
645 1 -6.484890297575802 -5.182674844411291 8.591918993333321 0 4 0.0298415518297304 1 -0.543095 -0.434791 0.718335 0 0 0
4223 2 -6.6559550141841575 -4.123617393132929 7.503517614863274 0 1 1.90985931710274 0 0 0 1 0 0 0
4183 2 -0.310510357922956 -4.715581611122307 8.073353867390942 0 1 1.90985931710274 0 0 0 1 0 0 0
2623 2 -10.439687290127946 -3.410348009123579 8.152917106417096 0 1 1.90985931710274 0 0 0 1 0 0 0
2692 2 -9.508559324264851 -2.665170919359996 8.880092316532485 0 1 1.90985931710274 0 0 0 1 0 0 0
107 1 -7.8548174342616175 -1.976962086269973 8.788959806380333 0 4 0.0298415518297304 1 -0.655055 -0.167452 0.736792 0 0 0
655 1 -8.08213718829916 -2.572094274093865 8.421148108100308 0 4 0.0298415518297304 1 -0.673906 -0.216805 0.706291 0 0 0
656 1 -7.737155463213315 -3.2201579666754445 8.519520450007567 0 4 0.0298415518297304 1 -0.649239 -0.269616 0.711194 0 0 0
670 1 -8.887274502417357 -1.848351927259901 7.778922635537865 0 4 0.0298415518297304 1 -0.740883 -0.158426 0.652682 0 0 0
671 1 -8.610159610496206 -2.492570003313927 7.906844018523753 0 4 0.0298415518297304 1 -0.722546 -0.206595 0.659732 0 0 0
672 1 -8.850031126127387 -3.015399555322699 7.444239992366906 0 4 0.0298415518297304 1 -0.738752 -0.255043 0.623858 0 0 0
4174 2 -4.593799638176925 -2.0487348395758893 8.225871248010435 0 1 1.90985931710274 0 0 0 1 0 0 0
4178 2 -1.5129242432046475 -3.3323415404919015 8.303404952625634 0 1 1.90985931710274 0 0 0 1 0 0 0
2670 2 -13.135629540991552 -1.7106474450059714 7.644579784641801 0 1 1.90985931710274 0 0 0 1 0 0 0
103 1 -9.348906162508925 -0.6155775977841709 7.430419130501573 0 4 0.0298415518297304 1 -0.777251 -0.052348 0.627009 0 0 0
688 1 -9.33984966043232 -1.7891570029506303 7.246032847391109 0 4 0.0298415518297304 1 -0.783541 -0.144752 0.604243 0 0 0
86 1 -7.952522696613374 -0.6656915704953396 8.896439356475284 0 4 0.0298415518297304 1 -0.662924 -0.056523 0.74655 0 0 0
104 1 -8.9006657194245 -0.6393586009192921 7.9566467609051275 0 4 0.0298415518297304 1 -0.748244 -0.052342 0.661356 0 0 0
105 1 -8.669599745290057 -1.2784715515496379 8.131128066779423 0 4 0.0298415518297304 1 -0.721864 -0.108633 0.683456 0 0 0
106 1 -8.162830137834208 -1.321444919037123 8.630639292972145 0 4 0.0298415518297304 1 -0.685123 -0.10862 0.720284 0 0 0
4163 2 -5.799116231833115 -1.616158419177145 7.594056889732464 0 1 1.90985931710274 0 0 0 1 0 0 0
4175 2 -3.2972992208206566 -0.6797783327835507 7.5678449068643125 0 1 1.90985931710274 0 0 0 1 0 0 0
4179 2 -0.7187129268305394 -1.0312712408764657 7.668304589249104 0 1 1.90985931710274 0 0 0 1 0 0 0
4216 2 -0.08558314462448169 -0.4147084644540317 8.827220821890487 0 1 1.90985931710274 0 0 0 1 0 0 0
2752 2 -13.24388796502657 -13.041058201562025 9.189684347042254 0 1 1.90985931710274 0 0 0 1 0 0 0
2776 2 -11.50382774235373 -14.26368173912865 10.539192464802179 0 1 1.90985931710274 0 0 0 1 0 0 0
2650 2 -1.1056233486109743 -12.603802104641352 10.67284129282214 0 1 1.90985931710274 0 0 0 1 0 0 0
2667 2 -1.5360370659828924 -13.891461974469353 9.598285093600333 0 1 1.90985931710274 0 0 0 1 0 0 0
2739 2 -12.791279906897234 -11.847335221799908 10.027099208972354 0 1 1.90985931710274 0 0 0 1 0 0 0
2726 2 -9.613288068232274 -12.074436779816498 10.376715624134674 0 1 1.90985931710274 0 0 0 1 0 0 0
2756 2 -7.8919099876540635 -11.575788501827562 10.438875784165534 0 1 1.90985931710274 0 0 0 1 0 0 0
2775 2 -3.9557086186770736 -11.86105010558124 9.129799496094074 0 1 1.90985931710274 0 0 0 1 0 0 0
2766 2 -2.2463339281975383 -12.195721216036501 9.726870074535933 0 1 1.90985931710274 0 0 0 1 0 0 0
2679 2 -14.013837835735874 -9.395141212813765 9.280824239068819 0 1 1.90985931710274 0 0 0 1 0 0 0
2729 2 -5.490815314405987 -10.115779221426628 9.379481482652563 0 1 1.90985931710274 0 0 0 1 0 0 0
2633 2 -4.413263139197779 -10.086684497070861 10.455915730042287 0 1 1.90985931710274 0 0 0 1 0 0 0
2716 2 -1.1788701081064623 -9.25585246174764 10.694781214761239 0 1 1.90985931710274 0 0 0 1 0 0 0
2809 2 -1.699739254771302 -10.188319424839344 10.4656989178048 0 1 1.90985931710274 0 0 0 1 0 0 0
2750 2 -14.085449221048323 -7.521746159158092 10.331373029938815 0 1 1.90985931710274 0 0 0 1 0 0 0
2693 2 -10.764080981216974 -8.913569313659917 9.351225317763062 0 1 1.90985931710274 0 0 0 1 0 0 0
2806 2 -11.64007976271643 -8.163867975049003 9.801357351414142 0 1 1.90985931710274 0 0 0 1 0 0 0
2669 2 -9.602795656895509 -7.935043442824731 9.708674444748508 0 1 1.90985931710274 0 0 0 1 0 0 0
2715 2 -7.734571580724813 -7.465127514446688 10.06241692644932 0 1 1.90985931710274 0 0 0 1 0 0 0
2791 2 -8.101754154779151 -8.416847100691964 10.46552043825632 0 1 1.90985931710274 0 0 0 1 0 0 0
2768 2 -5.097904970657455 -7.723251839858308 10.354489501434871 0 1 1.90985931710274 0 0 0 1 0 0 0
2821 2 -3.610544415270642 -8.307271453681862 10.510987968957776 0 1 1.90985931710274 0 0 0 1 0 0 0
613 1 -1.7891570029506303 -7.246032847391109 9.33984966043232 0 4 0.0298415518297304 1 -0.144752 -0.604243 0.783541 0 0 0
2059 1 -0.6155775977841709 -7.430419130501573 9.348906162508925 0 4 0.0298415518297304 1 -0.052348 -0.627009 0.777251 0 0 0
2781 2 -11.24544303668818 -5.457127618236656 10.752544296512715 0 1 1.90985931710274 0 0 0 1 0 0 0
624 1 -4.629649181325049 -5.846719577457926 9.336112728622068 0 4 0.0298415518297304 1 -0.389231 -0.488399 0.781003 0 0 0
625 1 -4.109775397540957 -6.413209013816228 9.207096031147115 0 4 0.0298415518297304 1 -0.342421 -0.53729 0.770758 0 0 0
610 1 -2.63849077709189 -5.710312428807246 10.165746059644487 0 4 0.0298415518297304 1 -0.225565 -0.47691 0.849516 0 0 0
611 1 -2.184302998367814 -6.211528291683313 9.979208801255677 0 4 0.0298415518297304 1 -0.177101 -0.519552 0.835883 0 0 0
612 1 -2.2559092717178135 -6.783319053141226 9.581412179409126 0 4 0.0298415518297304 1 -0.193441 -0.568207 0.799826 0 0 0
616 1 -3.309267907455417 -5.7687017515614585 9.931604703079781 0 4 0.0298415518297304 1 -0.273726 -0.483981 0.831166 0 0 0
617 1 -3.4268197334280326 -6.3671283268970695 9.515722686147727 0 4 0.0298415518297304 1 -0.289976 -0.532402 0.795275 0 0 0
618 1 -2.9195443775880694 -6.8797784902812955 9.327338261728201 0 4 0.0298415518297304 1 -0.241321 -0.575225 0.781589 0 0 0
119 1 -1.324251409088832 -5.575087225059108 10.49556439859258 0 4 0.0298415518297304 1 -0.115671 -0.461227 0.87971 0 0 0
120 1 -0.7031792711430755 -5.432734791968485 10.631296536123939 0 4 0.0298415518297304 1 -0.053217 -0.461265 0.885665 0 0 0
121 1 -0.3007226119801671 -5.931148609750038 10.38410240725975 0 4 0.0298415518297304 1 -0.031001 -0.488703 0.871899 0 0 0
606 1 -0.4865794786618666 -6.417728021582561 10.08337967517057 0 4 0.0298415518297304 1 -0.050161 -0.538863 0.840898 0 0 0
607 1 -1.5271061926927691 -6.106168118875939 10.16733844680462 0 4 0.0298415518297304 1 -0.134812 -0.511338 0.84874 0 0 0
608 1 -1.1377675643454386 -6.570502549743725 9.928117389224152 0 4 0.0298415518297304 1 -0.086106 -0.547371 0.832448 0 0 0
609 1 -1.14665875491715 -7.102193318178118 9.551761345313452 0 4 0.0298415518297304 1 -0.102459 -0.596039 0.796392 0 0 0
2687 2 -13.817171376760223 -4.647775209054402 9.219929422678332 0 1 1.90985931710274 0 0 0 1 0 0 0
2654 2 -11.428086695915086 -4.132050244835645 9.279015047321058 0 1 1.90985931710274 0 0 0 1 0 0 0
2673 2 -10.172273535013753 -3.9483648164222043 9.093786005270497 0 1 1.90985931710274 0 0 0 1 0 0 0
631 1 -6.089382005172075 -3.9982103829107847 9.472968743546604 0 4 0.0298415518297304 1 -0.509098 -0.333291 0.793559 0 0 0
632 1 -5.632089492713752 -4.621672847602975 9.471464327594123 0 4 0.0298415518297304 1 -0.471446 -0.388906 0.791512 0 0 0
633 1 -5.819635519704458 -5.229067623256141 9.030104738562834 0 4 0.0298415518297304 1 -0.4875 -0.436819 0.755998 0 0 0
643 1 -6.734332239905998 -3.9404487203291834 9.050444772702892 0 4 0.0298415518297304 1 -0.564703 -0.33127 0.755891 0 0 0
113 1 -4.725745922084348 -4.03736240898212 10.206998193417988 0 4 0.0298415518297304 1 -0.397289 -0.338104 0.85314 0 0 0
114 1 -4.018942358833174 -4.045510343949046 10.502245767290724 0 4 0.0298415518297304 1 -0.334064 -0.338099 0.879824 0 0 0
615 1 -3.7939239923523522 -5.222355621366762 10.059100048941238 0 4 0.0298415518297304 1 -0.320296 -0.435348 0.841358 0 0 0
622 1 -4.958664267611715 -4.6471478823731145 9.830129370841252 0 4 0.0298415518297304 1 -0.415996 -0.38708 0.822871 0 0 0
623 1 -4.474010090314408 -5.236891991858055 9.765930954750743 0 4 0.0298415518297304 1 -0.373095 -0.440282 0.816671 0 0 0
115 1 -3.566604096775424 -4.627224043334814 10.426911840880612 0 4 0.0298415518297304 1 -0.301445 -0.385995 0.871859 0 0 0
116 1 -2.861937509150159 -4.597576101275517 10.65540007802271 0 4 0.0298415518297304 1 -0.236303 -0.386006 0.891718 0 0 0
117 1 -2.4208158069392542 -5.140432586494049 10.517951734564901 0 4 0.0298415518297304 1 -0.206546 -0.427117 0.88029 0 0 0
118 1 -1.745118796613131 -5.061730274197689 10.689822936524607 0 4 0.0298415518297304 1 -0.141803 -0.427143 0.892995 0 0 0
2631 2 -14.157252492023696 -3.1757193442005853 10.706937933056823 0 1 1.90985931710274 0 0 0 1 0 0 0
2643 2 -13.37813987478243 -2.0264794683079916 9.158154147582989 0 1 1.90985931710274 0 0 0 1 0 0 0
2657 2 -9.033876207899436 -3.5701661658206127 10.204805052955377 0 1 1.90985931710274 0 0 0 1 0 0 0
108 1 -7.28208785979175 -2.02877540751461 9.255835233925785 0 4 0.0298415518297304 1 -0.610208 -0.167433 0.774346 0 0 0
90 1 -6.011561039835598 -2.0830139269438743 10.113173319118141 0 4 0.0298415518297304 1 -0.502849 -0.175251 0.846422 0 0 0
109 1 -6.909457866036755 -2.6877540399909075 9.37289470523265 0 4 0.0298415518297304 1 -0.577333 -0.226831 0.784369 0 0 0
110 1 -6.274706368145702 -2.737132063013731 9.79413632702012 0 4 0.0298415518297304 1 -0.524802 -0.226809 0.820451 0 0 0
111 1 -5.854617017001387 -3.383586720413358 9.85282733924287 0 4 0.0298415518297304 1 -0.490447 -0.284461 0.823738 0 0 0
642 1 -7.142375312258343 -3.2975402454766938 8.996025895892759 0 4 0.0298415518297304 1 -0.59604 -0.275807 0.7541 0 0 0
91 1 -5.310097654165997 -2.1070288296765565 10.492772653721886 0 4 0.0298415518297304 1 -0.443955 -0.17524 0.878746 0 0 0
92 1 -4.884105722525149 -2.7798204017072834 10.54382301778774 0 4 0.0298415518297304 1 -0.409603 -0.232881 0.882039 0 0 0
112 1 -5.172463522025751 -3.4183554655301926 10.215155116265121 0 4 0.0298415518297304 1 -0.431545 -0.284445 0.856072 0 0 0
4159 2 -3.789759742893642 -1.9817848134281384 9.328794713264006 0 1 1.90985931710274 0 0 0 1 0 0 0
4156 2 -0.8183864137845127 -2.013106476309604 9.092322664473823 0 1 1.90985931710274 0 0 0 1 0 0 0
2732 2 -13.109924712289859 -0.2060014556357448 10.565909130044558 0 1 1.90985931710274 0 0 0 1 0 0 0
2748 2 -11.4364426470335 -1.0650506920398914 9.175674885551919 0 1 1.90985931710274 0 0 0 1 0 0 0
87 1 -7.375600354702212 -0.6851437658954604 9.376631494888152 0 4 0.0298415518297304 1 -0.618377 -0.056516 0.783847 0 0 0
71 1 -6.095336996791155 -0.7040841837917592 10.25069844397294 0 4 0.0298415518297304 1 -0.50941 -0.059226 0.858483 0 0 0
72 1 -5.383451567067813 -0.7122045543855867 10.64038312370757 0 4 0.0298415518297304 1 -0.450572 -0.059223 0.890774 0 0 0
88 1 -7.044985182758772 -1.3686009819231013 9.553842441772057 0 4 0.0298415518297304 1 -0.588153 -0.115657 0.800437 0 0 0
89 1 -6.399635919207783 -1.3963315588536618 9.992199987587664 0 4 0.0298415518297304 1 -0.53584 -0.115646 0.836362 0 0 0
73 1 -4.98783925556015 -1.4192693658356634 10.76190507047654 0 4 0.0298415518297304 1 -0.417556 -0.118869 0.900842 0 0 0
2698 2 -13.01512120964709 -14.104796538614895 11.721015499475724 0 1 1.90985931710274 0 0 0 1 0 0 0
2792 2 -11.18276186931509 -13.915225578703032 12.0187047381544 0 1 1.90985931710274 0 0 0 1 0 0 0
2665 2 -6.039185813094745 -13.527576683392136 12.085350228382366 0 1 1.90985931710274 0 0 0 1 0 0 0
2801 2 -5.272406144360438 -13.05289026587459 11.235837445790741 0 1 1.90985931710274 0 0 0 1 0 0 0
2817 2 -12.337044835176822 -12.009488816858324 11.315557062161881 0 1 1.90985931710274 0 0 0 1 0 0 0
2668 2 -9.999232419654472 -12.193907132702996 11.515074660744803 0 1 1.90985931710274 0 0 0 1 0 0 0
2740 2 -8.607397677707716 -11.019009233586289 11.67139311523914 0 1 1.90985931710274 0 0 0 1 0 0 0
2718 2 -6.536013886585495 -11.69865384242871 11.91986430067485 0 1 1.90985931710274 0 0 0 1 0 0 0
2745 2 -0.2517564131832444 -12.209218370792048 12.488942098053316 0 1 1.90985931710274 0 0 0 1 0 0 0
2794 2 -0.4600228935431101 -11.01048577906844 11.419623196735133 0 1 1.90985931710274 0 0 0 1 0 0 0
2720 2 -12.087574603494314 -9.52302892894031 12.454029300223636 0 1 1.90985931710274 0 0 0 1 0 0 0
2713 2 -10.238184017893005 -10.100258727714426 11.922573303630644 0 1 1.90985931710274 0 0 0 1 0 0 0
2710 2 -6.2148768984436575 -10.154966142541959 10.890060297286977 0 1 1.90985931710274 0 0 0 1 0 0 0
2651 2 -11.558083246828987 -7.700937454775211 12.278137593034073 0 1 1.90985931710274 0 0 0 1 0 0 0
2805 2 -12.08238814600651 -8.457519931401201 10.981094940030006 0 1 1.90985931710274 0 0 0 1 0 0 0
2812 2 -11.009975998316456 -8.713585704661975 12.44774374618598 0 1 1.90985931710274 0 0 0 1 0 0 0
2818 2 -5.714352510210121 -7.262115101500663 11.384271078372239 0 1 1.90985931710274 0 0 0 1 0 0 0
2645 2 -1.3307959913138525 -8.536000011924537 12.216705584300422 0 1 1.90985931710274 0 0 0 1 0 0 0
2813 2 -0.6288558954819141 -7.178443364509039 11.301548696600593 0 1 1.90985931710274 0 0 0 1 0 0 0
2803 2 -9.807647770307568 -6.753233559299756 11.230338848999194 0 1 1.90985931710274 0 0 0 1 0 0 0
2783 2 -7.973523944113963 -5.609042723372644 11.912738275977594 0 1 1.90985931710274 0 0 0 1 0 0 0
2647 2 -2.3553147699497536 -6.966712545509791 10.925767616946194 0 1 1.90985931710274 0 0 0 1 0 0 0
2790 2 -13.887150255471372 -4.037935707344143 12.501876666987767 0 1 1.90985931710274 0 0 0 1 0 0 0
2632 2 -9.610548351596282 -5.148291323147533 11.582313022058768 0 1 1.90985931710274 0 0 0 1 0 0 0
2717 2 -10.238490678488397 -4.835125310058856 12.430950678173465 0 1 1.90985931710274 0 0 0 1 0 0 0
2811 2 -10.422230439570864 -3.650315867517998 12.0801866250247 0 1 1.90985931710274 0 0 0 1 0 0 0
2660 2 -7.2971886591865465 -3.9457784646299245 12.49758559208607 0 1 1.90985931710274 0 0 0 1 0 0 0
2683 2 -6.879302590390064 -3.9159456825190313 11.488290794212414 0 1 1.90985931710274 0 0 0 1 0 0 0
96 1 -2.5293110254501143 -4.017420313103844 10.967922118238022 0 4 0.0298415518297304 1 -0.214148 -0.333881 0.917967 0 0 0
97 1 -1.8043773161599217 -3.960234221833683 11.13171558938183 0 4 0.0298415518297304 1 -0.149145 -0.333904 0.930733 0 0 0
81 1 -0.3522053557303874 -3.8619611313205353 11.308090336798315 0 4 0.0298415518297304 1 -0.030774 -0.318484 0.947429 0 0 0
98 1 -1.3942285429139425 -4.527409841300541 10.975640721862607 0 4 0.0298415518297304 1 -0.119553 -0.374767 0.919379 0 0 0
99 1 -0.7106141284784225 -4.422370927131481 11.08496819773124 0 4 0.0298415518297304 1 -0.057112 -0.374801 0.925344 0 0 0
100 1 -0.3282260859712711 -4.959509308734032 10.876011960372498 0 4 0.0298415518297304 1 -0.03097 -0.408879 0.912063 0 0 0
2701 2 -1.2946443793457423 -3.6588316638975016 12.460666874690377 0 1 1.90985931710274 0 0 0 1 0 0 0
2733 2 -12.464598894368327 -3.228511648459154 12.173478347006254 0 1 1.90985931710274 0 0 0 1 0 0 0
2627 2 -9.677588417313244 -2.1288317836906057 10.98842951200603 0 1 1.90985931710274 0 0 0 1 0 0 0
2746 2 -7.662574044149223 -3.0731820159954992 10.999057163660266 0 1 1.90985931710274 0 0 0 1 0 0 0
75 1 -3.8114019686846525 -2.115633286578001 11.123083633229703 0 4 0.0298415518297304 1 -0.319741 -0.176449 0.930931 0 0 0
93 1 -4.148160133050597 -2.787820095153561 10.852187900093165 0 4 0.0298415518297304 1 -0.346156 -0.232877 0.908815 0 0 0
94 1 -3.7071227937142512 -3.4315134233143305 10.828792332517375 0 4 0.0298415518297304 1 -0.312038 -0.286305 0.905904 0 0 0
2705 2 -4.872152554758419 -2.046805824733747 11.946209699904868 0 1 1.90985931710274 0 0 0 1 0 0 0
76 1 -3.039448746477639 -2.103550570471817 11.360997099847129 0 4 0.0298415518297304 1 -0.254167 -0.176454 0.950927 0 0 0
77 1 -2.616436136241011 -2.7661375647652378 11.325622741883521 0 4 0.0298415518297304 1 -0.220102 -0.229781 0.948027 0 0 0
78 1 -1.8548371467004798 -2.726875306230269 11.48537574342067 0 4 0.0298415518297304 1 -0.155112 -0.229798 0.960798 0 0 0
95 1 -2.963422670948167 -3.412019013526081 11.06193314522361 0 4 0.0298415518297304 1 -0.246557 -0.286314 0.925869 0 0 0
2699 2 -2.910096186267223 -3.3224265932141073 12.30517185049545 0 1 1.90985931710274 0 0 0 1 0 0 0
62 1 -1.4926796990507116 -2.0629124085374824 11.674634439008784 0 4 0.0298415518297304 1 -0.124901 -0.170648 0.977384 0 0 0
63 1 -0.7363147481133524 -2.0167350080379154 11.756097880475448 0 4 0.0298415518297304 1 -0.063153 -0.170666 0.983303 0 0 0
64 1 -0.3678117563873662 -2.6502621255199252 11.648741412035173 0 4 0.0298415518297304 1 -0.030501 -0.218543 0.97535 0 0 0
79 1 -1.4521994712227135 -3.3517287379160643 11.379342313562363 0 4 0.0298415518297304 1 -0.122693 -0.277359 0.9529 0 0 0
80 1 -0.7237953884855253 -3.276131940429869 11.472097285570149 0 4 0.0298415518297304 1 -0.060552 -0.277386 0.958848 0 0 0
2689 2 -12.083669393983065 -1.290360673363418 10.935226781030883 0 1 1.90985931710274 0 0 0 1 0 0 0
2725 2 -11.462089538510543 -1.595945746705361 12.462725122996696 0 1 1.90985931710274 0 0 0 1 0 0 0
2741 2 -9.61087706442251 -0.25378974915121155 11.018692015586963 0 1 1.90985931710274 0 0 0 1 0 0 0
2810 2 -8.683627348121732 -0.6618498819290988 12.313506417632448 0 1 1.90985931710274 0 0 0 1 0 0 0
2764 2 -5.634329748812522 -0.0543108582613482 11.744507565597667 0 1 1.90985931710274 0 0 0 1 0 0 0
58 1 -3.86648581940601 -0.7152375895268429 11.279869072120212 0 4 0.0298415518297304 1 -0.323807 -0.059642 0.944241 0 0 0
74 1 -4.2327990080513676 -1.423347517251903 11.07989365716363 0 4 0.0298415518297304 1 -0.354065 -0.118867 0.927636 0 0 0
2629 2 -4.906239436400844 -0.9231455889848963 11.983939930841109 0 1 1.90985931710274 0 0 0 1 0 0 0
59 1 -3.0804279528325313 -0.7111428724090038 11.52006018579294 0 4 0.0298415518297304 1 -0.258241 -0.059644 0.964238 0 0 0
60 1 -2.672170851459992 -1.4115491063592356 11.558231437056955 0 4 0.0298415518297304 1 -0.22391 -0.117222 0.967535 0 0 0
61 1 -1.8888478978032397 -1.3914885773027972 11.715167821109105 0 4 0.0298415518297304 1 -0.159038 -0.117231 0.980288 0 0 0
47 1 -1.5137182198694838 -0.6968056081181138 11.83119651802187 0 4 0.0298415518297304 1 -0.126041 -0.05763 0.99035 0 0 0
48 1 -0.7436907815813953 -0.6812230974745015 11.906795768543468 0 4 0.0298415518297304 1 -0.064561 -0.057636 0.996248 0 0 0
49 1 -0.3768687790293372 -1.3496076122842269 11.86812127662825 0 4 0.0298415518297304 1 -0.030269 -0.111273 0.993329 0 0 0
2622 2 -4.2699950345322755 -13.071545383962704 13.411301738848726 0 1 1.90985931710274 0 0 0 1 0 0 0
2702 2 -14.043046002113057 -12.378195514130587 13.898400007239983 0 1 1.90985931710274 0 0 0 1 0 0 0
2659 2 -10.784788306636655 -12.528459642251324 14.105470681994044 0 1 1.90985931710274 0 0 0 1 0 0 0
2620 2 -8.923377972190885 -11.997428612194021 13.103758855088183 0 1 1.90985931710274 0 0 0 1 0 0 0
2639 2 -7.147376569292061 -11.879610091682029 12.904147100162087 0 1 1.90985931710274 0 0 0 1 0 0 0
2663 2 -6.935618205051753 -11.792438304802058 14.244575191827844 0 1 1.90985931710274 0 0 0 1 0 0 0
2744 2 -2.309461432722749 -11.239211771233347 13.168468881158129 0 1 1.90985931710274 0 0 0 1 0 0 0
2709 2 -13.733083897360471 -9.500955823464565 14.151768823981126 0 1 1.90985931710274 0 0 0 1 0 0 0
2677 2 -5.535205506164511 -9.953288106951527 13.763712465687702 0 1 1.90985931710274 0 0 0 1 0 0 0
2807 2 -4.804304536335483 -9.768920190478056 12.71713263532355 0 1 1.90985931710274 0 0 0 1 0 0 0
2749 2 -2.0378442124366725 -9.642536423129531 12.968154461967673 0 1 1.90985931710274 0 0 0 1 0 0 0
2730 2 -14.173299840132788 -8.513466225720077 13.998550529759395 0 1 1.90985931710274 0 0 0 1 0 0 0
2671 2 -12.345397525238072 -8.88768067627296 13.945143880373083 0 1 1.90985931710274 0 0 0 1 0 0 0
2793 2 -10.13044082752523 -7.429380216557007 12.86669432638473 0 1 1.90985931710274 0 0 0 1 0 0 0
2724 2 -7.196623731479726 -7.244938979757253 13.05240921984763 0 1 1.90985931710274 0 0 0 1 0 0 0
2795 2 -7.65948420584939 -8.54445771069953 13.573632272988378 0 1 1.90985931710274 0 0 0 1 0 0 0
2714 2 -6.928611583160728 -8.83652018234804 12.766745276483599 0 1 1.90985931710274 0 0 0 1 0 0 0
2822 2 -5.982501008140629 -7.962161819523007 13.147621276820358 0 1 1.90985931710274 0 0 0 1 0 0 0
2751 2 -3.2587459652795783 -8.05608645389454 13.116461394459277 0 1 1.90985931710274 0 0 0 1 0 0 0
2655 2 -0.6648110955807116 -8.75451742501102 13.334575839780952 0 1 1.90985931710274 0 0 0 1 0 0 0
2664 2 -12.52658420770185 -7.16309507070374 14.155566550113551 0 1 1.90985931710274 0 0 0 1 0 0 0
2712 2 -10.781048301746837 -7.072385459081699 14.348937213878957 0 1 1.90985931710274 0 0 0 1 0 0 0
2738 2 -12.09907590362861 -6.530916060304117 13.373234600845873 0 1 1.90985931710274 0 0 0 1 0 0 0
2747 2 -4.884336599405101 -5.916386201506478 12.58782128063419 0 1 1.90985931710274 0 0 0 1 0 0 0
2742 2 -14.261194447965183 -5.0590929508313245 13.166297377940237 0 1 1.90985931710274 0 0 0 1 0 0 0
2678 2 -11.989949203838863 -4.695294919763276 14.186783538630609 0 1 1.90985931710274 0 0 0 1 0 0 0
2624 2 -8.38668845998598 -4.0003129843744745 13.402913618203266 0 1 1.90985931710274 0 0 0 1 0 0 0
2637 2 -6.434322107394678 -4.574880469277281 12.769031337956136 0 1 1.90985931710274 0 0 0 1 0 0 0
2743 2 -6.062534795293745 -4.138604501964789 13.925991477797128 0 1 1.90985931710274 0 0 0 1 0 0 0
2789 2 -3.634192011405137 -3.937103686120347 13.821111375336242 0 1 1.90985931710274 0 0 0 1 0 0 0
2630 2 -2.2680997874273228 -4.900295290991494 12.876824305966457 0 1 1.90985931710274 0 0 0 1 0 0 0
2700 2 -0.2410594640642305 -4.632158527520788 13.379649958090122 0 1 1.90985931710274 0 0 0 1 0 0 0
2628 2 -13.683892224319006 -3.3103921295174352 13.660745200459496 0 1 1.90985931710274 0 0 0 1 0 0 0
2672 2 -11.718349865907246 -3.399168303063144 14.056484417744647 0 1 1.90985931710274 0 0 0 1 0 0 0
2646 2 -9.340368969117664 -2.8941069855661583 13.791295427236552 0 1 1.90985931710274 0 0 0 1 0 0 0
2661 2 -10.635686117241155 -3.5631404720911615 13.481263563834696 0 1 1.90985931710274 0 0 0 1 0 0 0
2774 2 -7.2782857484378605 -2.0859459951197064 14.242528023096893 0 1 1.90985931710274 0 0 0 1 0 0 0
2722 2 -4.0781118648047965 -2.613639774212185 13.931228815795714 0 1 1.90985931710274 0 0 0 1 0 0 0
2658 2 -2.3481983012191883 -2.1645985909131227 12.57867452315301 0 1 1.90985931710274 0 0 0 1 0 0 0
2648 2 -1.2775498241264511 -3.3615820932417453 14.34384488600435 0 1 1.90985931710274 0 0 0 1 0 0 0
2688 2 -13.012300118158173 -0.2718299194958237 13.177786170919624 0 1 1.90985931710274 0 0 0 1 0 0 0
2765 2 -12.794083600795735 -1.566830573917363 13.88283617087045 0 1 1.90985931710274 0 0 0 1 0 0 0
2815 2 -3.9260444121662044 -1.2133292773911286 14.052668887305467 0 1 1.90985931710274 0 0 0 1 0 0 0
2816 2 -1.077577829303415 -0.4602631024793613 13.653416629363258 0 1 1.90985931710274 0 0 0 1 0 0 0
2100 1 -1.105920725304196e-18 -10.837827437084997 5.0237641903669115 0 4 0.0298415518297304 1 0 -0.90738 0.420311 0 0 0
2078 1 -1.105920725304196e-18 -9.61605526409717 7.092140394247476 0 4 0.0298415518297304 1 0 -0.806015 0.591895 0 0 0
2979 2 -14.115525427204663 0.27488616544186273 -14.138032299834745 0 1 1.90985931710274 0 0 0 1 0 0 0
2941 2 -9.635845591318008 1.2851923684993947 -13.735827133330229 0 1 1.90985931710274 0 0 0 1 0 0 0
2994 2 -8.628903120138808 0.6532418270347691 -13.483615026621202 0 1 1.90985931710274 0 0 0 1 0 0 0
2831 2 -7.047575483177351 0.813792238276406 -13.015689288478411 0 1 1.90985931710274 0 0 0 1 0 0 0
2963 2 -2.841545249645147 0.7694052140201268 -12.799961963732253 0 1 1.90985931710274 0 0 0 1 0 0 0
2968 2 -13.159274985362917 2.6956850054822947 -12.64953885907467 0 1 1.90985931710274 0 0 0 1 0 0 0
2978 2 -13.700659698177542 1.8896147300527613 -13.356290003235658 0 1 1.90985931710274 0 0 0 1 0 0 0
2900 2 -11.588193576652161 2.854441207128156 -13.63579979712784 0 1 1.90985931710274 0 0 0 1 0 0 0
2891 2 -9.660237401331823 2.4787538160423335 -13.573101776504396 0 1 1.90985931710274 0 0 0 1 0 0 0
3011 2 -8.504068435134084 3.5699307014552364 -14.162254641796993 0 1 1.90985931710274 0 0 0 1 0 0 0
2973 2 -12.986712550240108 4.142038114495874 -13.619453667893142 0 1 1.90985931710274 0 0 0 1 0 0 0
2953 2 -9.240039226197277 4.2803593023604005 -13.643863228745463 0 1 1.90985931710274 0 0 0 1 0 0 0
2850 2 -3.4970637423089226 4.690195013940253 -13.797618706147109 0 1 1.90985931710274 0 0 0 1 0 0 0
2852 2 -10.996125613274039 6.918144853377172 -13.075466491280007 0 1 1.90985931710274 0 0 0 1 0 0 0
2972 2 -9.57465543328025 5.800190858833892 -13.808553578789361 0 1 1.90985931710274 0 0 0 1 0 0 0
2854 2 -3.5021101881784027 5.977861285597692 -12.615466959584225 0 1 1.90985931710274 0 0 0 1 0 0 0
2857 2 -1.3452865790210744 6.230538392783325 -13.633238490658696 0 1 1.90985931710274 0 0 0 1 0 0 0
2876 2 -1.6910652387659533 5.413674954936597 -12.813084845113403 0 1 1.90985931710274 0 0 0 1 0 0 0
3018 2 -0.24555743754034864 5.87368325934168 -12.768820244390389 0 1 1.90985931710274 0 0 0 1 0 0 0
3021 2 -0.8004963468809532 6.8709839718309365 -12.57464143743289 0 1 1.90985931710274 0 0 0 1 0 0 0
2892 2 -12.37337170223763 8.868924492142677 -13.468296558073433 0 1 1.90985931710274 0 0 0 1 0 0 0
2928 2 -11.504206412569653 8.073101941842543 -14.148095452341774 0 1 1.90985931710274 0 0 0 1 0 0 0
3019 2 -11.158523708082653 7.884267104715444 -12.57063984615553 0 1 1.90985931710274 0 0 0 1 0 0 0
2866 2 -9.33889567493291 7.463477402605475 -13.817168409732801 0 1 1.90985931710274 0 0 0 1 0 0 0
2889 2 -6.528032850121268 7.634250011848701 -13.75132485890292 0 1 1.90985931710274 0 0 0 1 0 0 0
2913 2 -4.195313925227513 7.946816701188398 -12.743179126588327 0 1 1.90985931710274 0 0 0 1 0 0 0
3014 2 -5.216511517614629 7.933093450924337 -13.781094314697327 0 1 1.90985931710274 0 0 0 1 0 0 0
3013 2 -1.106109513428482 7.926319807510845 -12.821343165231315 0 1 1.90985931710274 0 0 0 1 0 0 0
3012 2 -10.773214093045011 9.792784192504486 -13.450166577108957 0 1 1.90985931710274 0 0 0 1 0 0 0
2958 2 -9.642568791901576 9.169428306038661 -12.61097676727992 0 1 1.90985931710274 0 0 0 1 0 0 0
2984 2 -9.371155682947945 10.590308693885566 -12.866769865299082 0 1 1.90985931710274 0 0 0 1 0 0 0
3005 2 -8.455929484418348 9.010643380814495 -13.789736650786864 0 1 1.90985931710274 0 0 0 1 0 0 0
2939 2 -5.3103640879687894 9.113113508569727 -13.639939468630335 0 1 1.90985931710274 0 0 0 1 0 0 0
2927 2 -2.419223925820683 9.553676731771406 -13.976099118032009 0 1 1.90985931710274 0 0 0 1 0 0 0
2975 2 -11.907020560201467 11.433906693947327 -12.855618827334684 0 1 1.90985931710274 0 0 0 1 0 0 0
2828 2 -2.0913137443332395 12.294363775586838 -13.644903865025748 0 1 1.90985931710274 0 0 0 1 0 0 0
2954 2 -10.8105186223712 14.239627807252274 -12.998309511041985 0 1 1.90985931710274 0 0 0 1 0 0 0
2989 2 -7.232955075811644 13.558224833712929 -13.601579786836107 0 1 1.90985931710274 0 0 0 1 0 0 0
2874 2 -2.4940095269463645 13.315899828127165 -13.662520513772066 0 1 1.90985931710274 0 0 0 1 0 0 0
2981 2 -0.6545811989923858 14.168841669909636 -13.513027477824211 0 1 1.90985931710274 0 0 0 1 0 0 0
2887 2 -9.368275260651124 1.5993782365774187 -12.175055843315361 0 1 1.90985931710274 0 0 0 1 0 0 0
1737 1 -5.0237641903669115 0 -10.837827437084997 0 4 0.0298415518297304 1 -0.420311 0 -0.90738 0 0 0
1749 1 -4.2327990080513676 1.423347517251903 -11.07989365716363 0 4 0.0298415518297304 1 -0.354065 0.118867 -0.927636 0 0 0
1750 1 -3.86648581940601 0.7152375895268429 -11.279869072120212 0 4 0.0298415518297304 1 -0.323807 0.059642 -0.944241 0 0 0
1751 1 -4.262370524096592 0 -11.159030532552128 0 4 0.0298415518297304 1 -0.356822 -0 -0.934172 0 0 0
1765 1 -2.672170851459992 1.4115491063592356 -11.558231437056955 0 4 0.0298415518297304 1 -0.22391 0.117222 -0.967535 0 0 0
1766 1 -3.0804279528325313 0.7111428724090038 -11.52006018579294 0 4 0.0298415518297304 1 -0.258241 0.059644 -0.964238 0 0 0
873 1 -5.52960362652098e-19 11.94399904357446 -0.37985787396102 0 4 0.0298415518297304 1 0 0.999545 -0.030178 0 0 0
1783 1 -1.8888478978032397 1.3914885773027972 -11.715167821109105 0 4 0.0298415518297304 1 -0.159038 0.117231 -0.980288 0 0 0
1785 1 -1.9008536977816826 0 -11.794987974137706 0 4 0.0298415518297304 1 -0.160411 -0 -0.98705 0 0 0
1784 1 -1.5137182198694838 0.6968056081181138 -11.83119651802187 0 4 0.0298415518297304 1 -0.126041 0.05763 -0.99035 0 0 0
1803 1 -0.3768687790293372 1.3496076122842269 -11.86812127662825 0 4 0.0298415518297304 1 -0.030269 0.111273 -0.993329 0 0 0
1804 1 -0.7436907815813953 0.6812230974745015 -11.906795768543468 0 4 0.0298415518297304 1 -0.064561 0.057636 -0.996248 0 0 0
887 1 -1.105920725304196e-18 11.794987974137706 -1.9008536977816826 0 4 0.0298415518297304 1 0 0.98705 -0.160411 0 0 0
2896 2 -13.782556217221886 3.107331151753824 -11.076412473491065 0 1 1.90985931710274 0 0 0 1 0 0 0
2902 2 -11.432789287363384 2.9347772835885717 -12.378780726877018 0 1 1.90985931710274 0 0 0 1 0 0 0
1746 1 -3.7071227937142512 3.4315134233143305 -10.828792332517375 0 4 0.0298415518297304 1 -0.312038 0.286305 -0.905904 0 0 0
1747 1 -4.148160133050597 2.787820095153561 -10.852187900093165 0 4 0.0298415518297304 1 -0.346156 0.232877 -0.908815 0 0 0
1748 1 -3.8114019686846525 2.115633286578001 -11.123083633229703 0 4 0.0298415518297304 1 -0.319741 0.176449 -0.930931 0 0 0
1762 1 -2.963422670948167 3.412019013526081 -11.06193314522361 0 4 0.0298415518297304 1 -0.246557 0.286314 -0.925869 0 0 0
1763 1 -2.616436136241011 2.7661375647652378 -11.325622741883521 0 4 0.0298415518297304 1 -0.220102 0.229781 -0.948027 0 0 0
1764 1 -3.039448746477639 2.103550570471817 -11.360997099847129 0 4 0.0298415518297304 1 -0.254167 0.176454 -0.950927 0 0 0
1781 1 -1.8548371467004798 2.726875306230269 -11.48537574342067 0 4 0.0298415518297304 1 -0.155112 0.229798 -0.960798 0 0 0
1780 1 -1.4542286430952627 3.346500352830584 -11.366513231381445 0 4 0.0298415518297304 1 -0.122693 0.277359 -0.9529 0 0 0
1782 1 -1.4926796990507116 2.0629124085374824 -11.674634439008784 0 4 0.0298415518297304 1 -0.124901 0.170648 -0.977384 0 0 0
1800 1 -0.7237953884855253 3.276131940429869 -11.472097285570149 0 4 0.0298415518297304 1 -0.060552 0.277386 -0.958848 0 0 0
1801 1 -0.3678117563873662 2.6502621255199252 -11.648741412035173 0 4 0.0298415518297304 1 -0.030501 0.218543 -0.97535 0 0 0
1802 1 -0.7363147481133524 2.0167350080379154 -11.756097880475448 0 4 0.0298415518297304 1 -0.063153 0.170666 -0.983303 0 0 0
2843 2 -11.448088256393099 4.114850801187503 -11.339124441636088 0 1 1.90985931710274 0 0 0 1 0 0 0
2833 2 -8.578064693080202 5.236348694838271 -11.48689579319419 0 1 1.90985931710274 0 0 0 1 0 0 0
2990 2 -8.909790138612943 4.291149038491009 -11.963220141641196 0 1 1.90985931710274 0 0 0 1 0 0 0
2845 2 -6.033611384918941 4.823980065835058 -10.77756286013981 0 1 1.90985931710274 0 0 0 1 0 0 0
3002 2 -6.318539289177123 4.04690488432774 -12.080035477132576 0 1 1.90985931710274 0 0 0 1 0 0 0
3004 2 -6.221528291654196 5.106175685228624 -11.839786639154326 0 1 1.90985931710274 0 0 0 1 0 0 0
1761 1 -2.5293110254501143 4.017420313103844 -10.967922118238022 0 4 0.0298415518297304 1 -0.214148 0.333881 -0.917967 0 0 0
1779 1 -1.8043773161599217 3.960234221833683 -11.13171558938183 0 4 0.0298415518297304 1 -0.149145 0.333904 -0.930733 0 0 0
2870 2 -3.392906418419919 4.49560361642631 -12.370520723010221 0 1 1.90985931710274 0 0 0 1 0 0 0
2908 2 -2.215489712499705 5.220331123122064 -11.86019322295555 0 1 1.90985931710274 0 0 0 1 0 0 0
1778 1 -1.3942285429139425 4.527409841300541 -10.975640721862607 0 4 0.0298415518297304 1 -0.119553 0.374767 -0.919379 0 0 0
1797 1 -0.3282260859712711 4.959509308734032 -10.876011960372498 0 4 0.0298415518297304 1 -0.03097 0.408879 -0.912063 0 0 0
1798 1 -0.7106141284784225 4.422370927131481 -11.08496819773124 0 4 0.0298415518297304 1 -0.057112 0.374801 -0.925344 0 0 0
1799 1 -0.3522053557303874 3.8619611313205353 -11.308090336798315 0 4 0.0298415518297304 1 -0.030774 0.318484 -0.947429 0 0 0
2879 2 -1.2955901068729123 3.7494505101159823 -12.37071569456058 0 1 1.90985931710274 0 0 0 1 0 0 0
2856 2 -6.362401030200539 7.402129419553807 -11.653335559146726 0 1 1.90985931710274 0 0 0 1 0 0 0
2950 2 -1.9992373852772207 7.798339645759638 -11.201871717768029 0 1 1.90985931710274 0 0 0 1 0 0 0
2839 2 -0.44865095905067953 7.911053235212977 -11.096777775492976 0 1 1.90985931710274 0 0 0 1 0 0 0
2959 2 -8.783960909968531 9.651226363089428 -12.104067196888154 0 1 1.90985931710274 0 0 0 1 0 0 0
2835 2 -5.071295532716896 8.98516162713394 -11.545160759844036 0 1 1.90985931710274 0 0 0 1 0 0 0
2886 2 -1.8027738335552357 9.135443437134315 -11.455052083591314 0 1 1.90985931710274 0 0 0 1 0 0 0
2931 2 -14.041616803715074 11.64234196074551 -11.217557750226373 0 1 1.90985931710274 0 0 0 1 0 0 0
2915 2 -11.690556411124716 10.805830723084915 -11.382347043499509 0 1 1.90985931710274 0 0 0 1 0 0 0
2916 2 -11.776834212243422 11.894804328622973 -11.387974902018273 0 1 1.90985931710274 0 0 0 1 0 0 0
2974 2 -8.840038528905488 11.036082685488923 -11.728826987697296 0 1 1.90985931710274 0 0 0 1 0 0 0
2929 2 -6.225575451361278 10.942112971011563 -12.517648208641802 0 1 1.90985931710274 0 0 0 1 0 0 0
2864 2 -2.1926516538402403 11.886871926810882 -11.478174409032954 0 1 1.90985931710274 0 0 0 1 0 0 0
2917 2 -3.4949932115782794 10.788511003866512 -11.007450015511614 0 1 1.90985931710274 0 0 0 1 0 0 0
2977 2 -0.7626765705225296 11.083897227841577 -11.740445666605298 0 1 1.90985931710274 0 0 0 1 0 0 0
2976 2 -12.595637283689909 13.619004962721233 -11.09906498230488 0 1 1.90985931710274 0 0 0 1 0 0 0
2863 2 -11.211874422565364 13.409783943942736 -11.452436154414638 0 1 1.90985931710274 0 0 0 1 0 0 0
2853 2 -8.863807759799275 13.361935053569931 -12.018104650175893 0 1 1.90985931710274 0 0 0 1 0 0 0
2838 2 -6.739409162803593 13.96821876002529 -11.096220255002478 0 1 1.90985931710274 0 0 0 1 0 0 0
2832 2 -5.238341595613605 14.149194522161649 -11.752550029191227 0 1 1.90985931710274 0 0 0 1 0 0 0
2918 2 -2.6459049853049623 13.80045831927857 -11.12043801576531 0 1 1.90985931710274 0 0 0 1 0 0 0
2960 2 -3.1704154472715835 12.759135706506557 -11.78054874430946 0 1 1.90985931710274 0 0 0 1 0 0 0
2949 2 -0.5986489100627352 12.591762575614082 -12.113547654147915 0 1 1.90985931710274 0 0 0 1 0 0 0
2991 2 -1.027968213778299 13.83729950654723 -11.560384489454796 0 1 1.90985931710274 0 0 0 1 0 0 0
3017 2 -0.046245681360979424 13.53898488759406 -11.166811177891082 0 1 1.90985931710274 0 0 0 1 0 0 0
2956 2 -13.717772830730691 1.280135909284061 -10.576272662798319 0 1 1.90985931710274 0 0 0 1 0 0 0
2841 2 -11.062335826204116 1.0087009874395605 -9.109058103319 0 1 1.90985931710274 0 0 0 1 0 0 0
1714 1 -7.375600354702212 0.6851437658954604 -9.376631494888152 0 4 0.0298415518297304 1 -0.618377 0.056516 -0.783847 0 0 0
1713 1 -7.044985182758772 1.3686009819231013 -9.553842441772057 0 4 0.0298415518297304 1 -0.588153 0.115657 -0.800437 0 0 0
2961 2 -6.4235447561347145 12.998911643863712 -0.019529582595676942 0 1 1.90985931710274 0 0 0 1 0 0 0
1723 1 -6.399635919207783 1.3963315588536618 -9.992199987587664 0 4 0.0298415518297304 1 -0.53584 0.115646 -0.836362 0 0 0
1724 1 -6.095336996791155 0.7040841837917592 -10.25069844397294 0 4 0.0298415518297304 1 -0.50941 0.059226 -0.858483 0 0 0
1725 1 -6.4430651044093965 5.52960362652098e-19 -10.060931286493508 0 4 0.0298415518297304 1 -0.539676 -0 -0.841873 0 0 0
1736 1 -5.383451567067813 0.7122045543855867 -10.64038312370757 0 4 0.0298415518297304 1 -0.450572 0.059223 -0.890774 0 0 0
1735 1 -4.98783925556015 1.4192693658356634 -10.76190507047654 0 4 0.0298415518297304 1 -0.417556 0.118869 -0.900842 0 0 0
4263 2 -2.524510421281148 0.3367215277543245 -9.187269033064194 0 1 1.90985931710274 0 0 0 1 0 0 0
4274 2 -2.0163985513403073 1.597573623461928 -9.020204475351898 0 1 1.90985931710274 0 0 0 1 0 0 0
2951 2 -14.014782125625256 3.4352726163373593 -9.974265218026757 0 1 1.90985931710274 0 0 0 1 0 0 0
1712 1 -7.28208785979175 2.02877540751461 -9.255835233925785 0 4 0.0298415518297304 1 -0.610208 0.167433 -0.774346 0 0 0
1711 1 -6.909457866036755 2.6877540399909075 -9.37289470523265 0 4 0.0298415518297304 1 -0.577333 0.226831 -0.784369 0 0 0
1720 1 -5.854617017001387 3.383586720413358 -9.85282733924287 0 4 0.0298415518297304 1 -0.490447 0.284461 -0.823738 0 0 0
1721 1 -6.274706368145702 2.737132063013731 -9.79413632702012 0 4 0.0298415518297304 1 -0.524802 0.226809 -0.820451 0 0 0
1722 1 -6.011561039835598 2.0830139269438743 -10.113173319118141 0 4 0.0298415518297304 1 -0.502849 0.175251 -0.846422 0 0 0
2412 1 -7.142375312258343 3.2975402454766938 -8.996025895892759 0 4 0.0298415518297304 1 -0.59604 0.275807 -0.7541 0 0 0
1732 1 -5.172463522025751 3.4183554655301926 -10.215155116265121 0 4 0.0298415518297304 1 -0.431545 0.284445 -0.856072 0 0 0
1733 1 -4.884105722525149 2.7798204017072834 -10.54382301778774 0 4 0.0298415518297304 1 -0.409603 0.232881 -0.882039 0 0 0
1734 1 -5.310097654165997 2.1070288296765565 -10.492772653721886 0 4 0.0298415518297304 1 -0.443955 0.17524 -0.878746 0 0 0
4320 2 -4.579330880152379 1.9519012789643515 -9.31222044613606 0 1 1.90985931710274 0 0 0 1 0 0 0
4321 2 -0.3869559186114522 2.013091897334979 -9.337351491033646 0 1 1.90985931710274 0 0 0 1 0 0 0
2986 2 -14.0642070956184 5.081527941569609 -9.21563003956463 0 1 1.90985931710274 0 0 0 1 0 0 0
2858 2 -9.432993506188929 4.521397482680625 -9.3694205866958 0 1 1.90985931710274 0 0 0 1 0 0 0
2389 1 -5.819635519704458 5.229067623256141 -9.030104738562834 0 4 0.0298415518297304 1 -0.4875 0.436819 -0.755998 0 0 0
2409 1 -5.632089492713752 4.621672847602975 -9.471464327594123 0 4 0.0298415518297304 1 -0.471446 0.388906 -0.791512 0 0 0
2410 1 -6.089382005172075 3.9982103829107847 -9.472968743546604 0 4 0.0298415518297304 1 -0.509098 0.333291 -0.793559 0 0 0
2411 1 -6.734332239905998 3.9404487203291834 -9.050444772702892 0 4 0.0298415518297304 1 -0.564703 0.33127 -0.755891 0 0 0
1731 1 -4.725745922084348 4.03736240898212 -10.206998193417988 0 4 0.0298415518297304 1 -0.397289 0.338104 -0.85314 0 0 0
1745 1 -4.018942358833174 4.045510343949046 -10.502245767290724 0 4 0.0298415518297304 1 -0.334064 0.338099 -0.879824 0 0 0
2406 1 -3.7939239923523522 5.222355621366762 -10.059100048941238 0 4 0.0298415518297304 1 -0.320296 0.435348 -0.841358 0 0 0
2407 1 -4.474010090314408 5.236891991858055 -9.765930954750743 0 4 0.0298415518297304 1 -0.373095 0.440282 -0.816671 0 0 0
2408 1 -4.958664267611715 4.6471478823731145 -9.830129370841252 0 4 0.0298415518297304 1 -0.415996 0.38708 -0.822871 0 0 0
1744 1 -3.566604096775424 4.627224043334814 -10.426911840880612 0 4 0.0298415518297304 1 -0.301445 0.385995 -0.871859 0 0 0
1759 1 -2.4208158069392542 5.140432586494049 -10.517951734564901 0 4 0.0298415518297304 1 -0.206546 0.427117 -0.88029 0 0 0
1760 1 -2.861937509150159 4.597576101275517 -10.65540007802271 0 4 0.0298415518297304 1 -0.236303 0.386006 -0.891718 0 0 0
4326 2 -2.7775798920413344 4.327010461293302 -9.289875043453842 0 1 1.90985931710274 0 0 0 1 0 0 0
1777 1 -1.745118796613131 5.061730274197689 -10.689822936524607 0 4 0.0298415518297304 1 -0.141803 0.427143 -0.892995 0 0 0
4236 2 -0.29576032258427 4.012482326186667 -9.779503780689701 0 1 1.90985931710274 0 0 0 1 0 0 0
2842 2 -12.964393527506044 6.143631205943409 -10.526533709133037 0 1 1.90985931710274 0 0 0 1 0 0 0
2942 2 -11.606802037565823 5.814072631225196 -10.106356998169838 0 1 1.90985931710274 0 0 0 1 0 0 0
2849 2 -10.083493793203683 6.679887625699687 -9.808402865421368 0 1 1.90985931710274 0 0 0 1 0 0 0
2386 1 -4.109775397540957 6.413209013816228 -9.207096031147115 0 4 0.0298415518297304 1 -0.342421 0.53729 -0.770758 0 0 0
2387 1 -4.629649181325049 5.846719577457926 -9.336112728622068 0 4 0.0298415518297304 1 -0.389231 0.488399 -0.781003 0 0 0
2383 1 -2.2559092717178135 6.783319053141226 -9.581412179409126 0 4 0.0298415518297304 1 -0.193441 0.568207 -0.799826 0 0 0
2384 1 -2.9195443775880694 6.8797784902812955 -9.327338261728201 0 4 0.0298415518297304 1 -0.241321 0.575225 -0.781589 0 0 0
2385 1 -3.4268197334280326 6.3671283268970695 -9.515722686147727 0 4 0.0298415518297304 1 -0.289976 0.532402 -0.795275 0 0 0
2403 1 -2.184302998367814 6.211528291683313 -9.979208801255677 0 4 0.0298415518297304 1 -0.177101 0.519552 -0.835883 0 0 0
2404 1 -2.63849077709189 5.710312428807246 -10.165746059644487 0 4 0.0298415518297304 1 -0.225565 0.47691 -0.849516 0 0 0
2405 1 -3.309267907455417 5.7687017515614585 -9.931604703079781 0 4 0.0298415518297304 1 -0.273726 0.483981 -0.831166 0 0 0
1776 1 -1.324251409088832 5.575087225059108 -10.49556439859258 0 4 0.0298415518297304 1 -0.115671 0.461227 -0.87971 0 0 0
1795 1 -0.3007226119801671 5.931148609750038 -10.38410240725975 0 4 0.0298415518297304 1 -0.031001 0.488703 -0.871899 0 0 0
1796 1 -0.7031792711430755 5.432734791968485 -10.631296536123939 0 4 0.0298415518297304 1 -0.053217 0.461265 -0.885665 0 0 0
2381 1 -1.14665875491715 7.102193318178118 -9.551761345313452 0 4 0.0298415518297304 1 -0.102459 0.596039 -0.796392 0 0 0
2400 1 -0.4865794786618666 6.417728021582561 -10.08337967517057 0 4 0.0298415518297304 1 -0.050161 0.538863 -0.840898 0 0 0
2401 1 -1.1377675643454386 6.570502549743725 -9.928117389224152 0 4 0.0298415518297304 1 -0.086106 0.547371 -0.832448 0 0 0
2402 1 -1.5271061926927691 6.106168118875939 -10.16733844680462 0 4 0.0298415518297304 1 -0.134812 0.511338 -0.84874 0 0 0
2894 2 -14.23996920251559 7.260479320477208 -10.175748739576228 0 1 1.90985931710274 0 0 0 1 0 0 0
2898 2 -10.90655499173257 7.417631950721622 -9.41214022173109 0 1 1.90985931710274 0 0 0 1 0 0 0
2934 2 -9.303840471936342 7.59208164305401 -9.590820713888222 0 1 1.90985931710274 0 0 0 1 0 0 0
2873 2 -7.8427314478270915 8.47340737386863 -9.366131449911787 0 1 1.90985931710274 0 0 0 1 0 0 0
2940 2 -8.236795993532573 7.432302217133912 -9.420311047776652 0 1 1.90985931710274 0 0 0 1 0 0 0
2862 2 -5.15523460885204 7.371813125566195 -10.2354071987198 0 1 1.90985931710274 0 0 0 1 0 0 0
2985 2 -4.543657458896007 8.360222334815875 -10.299442749552236 0 1 1.90985931710274 0 0 0 1 0 0 0
2992 2 -4.099562564962617 7.181566571513301 -10.53618598620125 0 1 1.90985931710274 0 0 0 1 0 0 0
947 1 -0.6155775977841709 7.430419130501573 -9.348906162508925 0 4 0.0298415518297304 1 -0.052348 0.627009 -0.777251 0 0 0
2382 1 -1.7891570029506303 7.246032847391109 -9.33984966043232 0 4 0.0298415518297304 1 -0.144752 0.604243 -0.783541 0 0 0
2847 2 -13.980284551254735 9.214125061682504 -9.30331230217598 0 1 1.90985931710274 0 0 0 1 0 0 0
2957 2 -10.341206173128505 9.173112229218946 -9.779731517167672 0 1 1.90985931710274 0 0 0 1 0 0 0
2878 2 -7.120466379017865 9.883547846743012 -9.143411790224565 0 1 1.90985931710274 0 0 0 1 0 0 0
2932 2 -12.6908107451081 12.074414968155454 -10.743304211317641 0 1 1.90985931710274 0 0 0 1 0 0 0
2965 2 -9.372795337355246 12.263246383266381 -9.308871011122571 0 1 1.90985931710274 0 0 0 1 0 0 0
2969 2 -7.456795964246859 11.307726903051536 -9.678408412810644 0 1 1.90985931710274 0 0 0 1 0 0 0
2923 2 -5.3699575420752 12.064220342124903 -9.877819906750771 0 1 1.90985931710274 0 0 0 1 0 0 0
2937 2 -5.0199546782737166 10.838082253657534 -10.195180777804175 0 1 1.90985931710274 0 0 0 1 0 0 0
2901 2 -2.4850348335828176 11.233893953855079 -10.62242923816613 0 1 1.90985931710274 0 0 0 1 0 0 0
2872 2 -14.00737446052775 13.131523910114476 -9.890502706034018 0 1 1.90985931710274 0 0 0 1 0 0 0
2907 2 -8.731504744691094 14.088488851829128 -10.765357485609766 0 1 1.90985931710274 0 0 0 1 0 0 0
2933 2 -7.639387192624328 13.514009562922391 -10.499191963383876 0 1 1.90985931710274 0 0 0 1 0 0 0
2921 2 -12.766616611740414 0.8533504788640442 -8.285501731970436 0 1 1.90985931710274 0 0 0 1 0 0 0
2946 2 -13.487286803245311 0.41110985606508343 -7.440303114169665 0 1 1.90985931710274 0 0 0 1 0 0 0
2877 2 -11.099936430118007 0.4794190066822779 -7.412168690959366 0 1 1.90985931710274 0 0 0 1 0 0 0
1696 1 -9.348906162508925 0.6155775977841709 -7.430419130501573 0 4 0.0298415518297304 1 -0.777251 0.052348 -0.627009 0 0 0
1697 1 -9.493528896893935 0 -7.2736816536149265 0 4 0.0298415518297304 1 -0.799559 -0 -0.600588 0 0 0
2417 1 -9.33984966043232 1.7891570029506303 -7.246032847391109 0 4 0.0298415518297304 1 -0.783541 0.144752 -0.604243 0 0 0
2924 2 -9.651754629838619 1.5432243023269585 -8.818126790827478 0 1 1.90985931710274 0 0 0 1 0 0 0
1699 1 -8.669599745290057 1.2784715515496379 -8.131128066779423 0 4 0.0298415518297304 1 -0.721864 0.108633 -0.683456 0 0 0
1700 1 -8.9006657194245 0.6393586009192921 -7.9566467609051275 0 4 0.0298415518297304 1 -0.748244 0.052342 -0.661356 0 0 0
1701 1 -8.719731403206659 2.211841450608392e-18 -8.177547707543587 0 4 0.0298415518297304 1 -0.725938 0 -0.68776 0 0 0
1705 1 -8.162830137834208 1.321444919037123 -8.630639292972145 0 4 0.0298415518297304 1 -0.685123 0.10862 -0.720284 0 0 0
1706 1 -7.952522696613374 0.6656915704953397 -8.896439356475284 0 4 0.0298415518297304 1 -0.662924 0.056523 -0.74655 0 0 0
2995 2 -10.83103500220182 13.833959994030385 -0.19687433132250298 0 1 1.90985931710274 0 0 0 1 0 0 0
4332 2 -6.943122902324023 0.7964426401351687 -8.032227248216941 0 1 1.90985931710274 0 0 0 1 0 0 0
4265 2 -0.8395624579617387 0.8447890370718341 -8.671985933680322 0 1 1.90985931710274 0 0 0 1 0 0 0
2867 2 -13.924299403442593 3.0204023403626987 -8.333151524111265 0 1 1.90985931710274 0 0 0 1 0 0 0
1704 1 -7.8548174342616175 1.976962086269973 -8.788959806380333 0 4 0.0298415518297304 1 -0.655055 0.167452 -0.736792 0 0 0
2395 1 -8.850031126127387 3.015399555322699 -7.444239992366906 0 4 0.0298415518297304 1 -0.738752 0.255043 -0.623858 0 0 0
2413 1 -7.737155463213315 3.2201579666754445 -8.519520450007567 0 4 0.0298415518297304 1 -0.649239 0.269616 -0.711194 0 0 0
2414 1 -8.08213718829916 2.572094274093865 -8.421148108100308 0 4 0.0298415518297304 1 -0.673906 0.216805 -0.706291 0 0 0
2415 1 -8.610159610496206 2.492570003313927 -7.906844018523753 0 4 0.0298415518297304 1 -0.722546 0.206595 -0.659732 0 0 0
2416 1 -8.887274502417357 1.848351927259901 -7.778922635537865 0 4 0.0298415518297304 1 -0.740883 0.158426 -0.652682 0 0 0
4288 2 -2.710749504812947 3.4191626088191516 -8.073967576511556 0 1 1.90985931710274 0 0 0 1 0 0 0
4278 2 -0.2972374099425483 3.1046530955960723 -8.250618316797057 0 1 1.90985931710274 0 0 0 1 0 0 0
2374 1 -7.746829429466787 5.027747336910463 -7.578527615711209 0 4 0.0298415518297304 1 -0.647794 0.421521 -0.634573 0 0 0
2392 1 -7.567008598743931 4.452551263255395 -8.103352022611611 0 4 0.0298415518297304 1 -0.634131 0.372974 -0.677324 0 0 0
2393 1 -7.967511654140036 3.7838070843487692 -8.061162762905834 0 4 0.0298415518297304 1 -0.665346 0.317751 -0.675536 0 0 0
2394 1 -8.521952334138087 3.6863335632185215 -7.521794481100211 0 4 0.0298415518297304 1 -0.714242 0.307492 -0.628735 0 0 0
2390 1 -6.484890297575802 5.182674844411291 -8.591918993333321 0 4 0.0298415518297304 1 -0.543095 0.434791 -0.718335 0 0 0
2391 1 -6.947090881314812 4.532261116183702 -8.599454995390728 0 4 0.0298415518297304 1 -0.580747 0.379189 -0.720381 0 0 0
4304 2 -5.649364735521436 3.9115500912316286 -7.999538670029919 0 1 1.90985931710274 0 0 0 1 0 0 0
4316 2 -3.8391372932198315 5.244956854300764 -8.2026577670697 0 1 1.90985931710274 0 0 0 1 0 0 0
2897 2 -11.237954152556256 5.604171987005467 -7.671922399115209 0 1 1.90985931710274 0 0 0 1 0 0 0
2373 1 -7.2872611811923225 5.696441317200801 -7.5599552786647415 0 4 0.0298415518297304 1 -0.610173 0.477065 -0.632533 0 0 0
2914 2 -8.672959534677396 6.425526676992364 -8.389861789368258 0 1 1.90985931710274 0 0 0 1 0 0 0
2355 1 -6.256104902255907 6.971342485334068 -7.413383296015549 0 4 0.0298415518297304 1 -0.523931 0.583573 -0.620434 0 0 0
2370 1 -5.46289520267755 6.439296458190344 -8.450912740693703 0 4 0.0298415518297304 1 -0.458125 0.538743 -0.70702 0 0 0
2371 1 -6.136607830526459 6.407584207931539 -7.9994657362479495 0 4 0.0298415518297304 1 -0.513666 0.536709 -0.669396 0 0 0
2372 1 -6.651223165669366 5.774066719283829 -8.070493389834603 0 4 0.0298415518297304 1 -0.556751 0.483286 -0.67562 0 0 0
2368 1 -4.233482399091309 6.999619942319504 -8.709186563023858 0 4 0.0298415518297304 1 -0.356132 0.585913 -0.727926 0 0 0
2369 1 -4.917931978313914 7.021482536804528 -8.321548324326256 0 4 0.0298415518297304 1 -0.411251 0.587705 -0.69676 0 0 0
2388 1 -5.315532000828298 5.844040723021723 -8.963339986921262 0 4 0.0298415518297304 1 -0.444447 0.490205 -0.749777 0 0 0
4284 2 -2.211079796730445 6.298068351424224 -7.565445613045315 0 1 1.90985931710274 0 0 0 1 0 0 0
4253 2 -0.4152118648123473 5.466964098875412 -8.069066200976815 0 1 1.90985931710274 0 0 0 1 0 0 0
2885 2 -13.454436463693291 7.205980706863217 -7.6989397498662795 0 1 1.90985931710274 0 0 0 1 0 0 0
2827 2 -11.391035642800786 8.906429837722488 -8.235622289501654 0 1 1.90985931710274 0 0 0 1 0 0 0
2880 2 -8.602830674066587 8.336432962884592 -8.312100798680008 0 1 1.90985931710274 0 0 0 1 0 0 0
2926 2 -7.351162918435303 7.214499857854809 -8.023039034223789 0 1 1.90985931710274 0 0 0 1 0 0 0
2354 1 -5.696441317200801 7.5599552786647415 -7.2872611811923225 0 4 0.0298415518297304 1 -0.477065 0.632533 -0.610173 0 0 0
2351 1 -3.7838070843487692 8.061162762905834 -7.967511654140036 0 4 0.0298415518297304 1 -0.317751 0.675536 -0.665346 0 0 0
2352 1 -4.452551263255395 8.103352022611611 -7.567008598743931 0 4 0.0298415518297304 1 -0.372974 0.677324 -0.634131 0 0 0
2353 1 -5.027747336910463 7.578527615711209 -7.746829429466787 0 4 0.0298415518297304 1 -0.421521 0.634573 -0.647794 0 0 0
2367 1 -3.6863335632185215 7.521794481100211 -8.521952334138087 0 4 0.0298415518297304 1 -0.307492 0.628735 -0.714242 0 0 0
911 1 -1.976962086269973 8.788959806380333 -7.8548174342616175 0 4 0.0298415518297304 1 -0.167452 0.736792 -0.655055 0 0 0
2349 1 -2.572094274093865 8.421148108100308 -8.08213718829916 0 4 0.0298415518297304 1 -0.216805 0.706291 -0.673906 0 0 0
2350 1 -3.2201579666754445 8.519520450007567 -7.737155463213315 0 4 0.0298415518297304 1 -0.269616 0.711194 -0.649239 0 0 0
2364 1 -1.848351927259901 7.778922635537865 -8.887274502417357 0 4 0.0298415518297304 1 -0.158426 0.652682 -0.740883 0 0 0
2365 1 -2.492570003313927 7.906844018523753 -8.610159610496206 0 4 0.0298415518297304 1 -0.206595 0.659732 -0.722546 0 0 0
2366 1 -3.015399555322699 7.444239992366906 -8.850031126127387 0 4 0.0298415518297304 1 -0.255043 0.623858 -0.738752 0 0 0
926 1 -0.6656915704953396 8.896439356475284 -7.952522696613374 0 4 0.0298415518297304 1 -0.056523 0.74655 -0.662924 0 0 0
927 1 -1.321444919037123 8.630639292972145 -8.162830137834208 0 4 0.0298415518297304 1 -0.10862 0.720284 -0.685123 0 0 0
928 1 -1.2784715515496379 8.131128066779423 -8.669599745290057 0 4 0.0298415518297304 1 -0.108633 0.683456 -0.721864 0 0 0
946 1 -0.6393586009192921 7.9566467609051275 -8.9006657194245 0 4 0.0298415518297304 1 -0.052342 0.661356 -0.748244 0 0 0
4324 2 -1.7356883470610107 7.731110945593084 -7.419611417049783 0 1 1.90985931710274 0 0 0 1 0 0 0
3003 2 -13.187880831808535 9.835821793978456 -7.644548604123899 0 1 1.90985931710274 0 0 0 1 0 0 0
2997 2 -11.781204127402743 9.105332351568656 -7.2167742942588395 0 1 1.90985931710274 0 0 0 1 0 0 0
2947 2 -7.80691597217154 10.56502371292901 -7.315034802116775 0 1 1.90985931710274 0 0 0 1 0 0 0
910 1 -2.02877540751461 9.255835233925785 -7.28208785979175 0 4 0.0298415518297304 1 -0.167433 0.774346 -0.610208 0 0 0
925 1 -0.6851437658954604 9.376631494888152 -7.375600354702212 0 4 0.0298415518297304 1 -0.056516 0.783847 -0.618377 0 0 0
2860 2 -12.098242563953521 12.0882176331805 -8.370665135315754 0 1 1.90985931710274 0 0 0 1 0 0 0
2855 2 -9.840693107502918 11.346148885590246 -8.91048931555425 0 1 1.90985931710274 0 0 0 1 0 0 0
2971 2 -8.640210087422698 11.524700686709481 -8.03896447371908 0 1 1.90985931710274 0 0 0 1 0 0 0
2938 2 -6.449262000910618 11.28558869524534 -8.641045011612123 0 1 1.90985931710274 0 0 0 1 0 0 0
2948 2 -2.526647439031267 12.255612201514348 -7.677367148368551 0 1 1.90985931710274 0 0 0 1 0 0 0
2912 2 -0.9162848593070869 12.487847625789447 -7.845375356779123 0 1 1.90985931710274 0 0 0 1 0 0 0
3010 2 -11.698577474885075 13.203373606534823 -7.758602969212062 0 1 1.90985931710274 0 0 0 1 0 0 0
2846 2 -5.986312007848747 14.08964808608438 -8.011211179882569 0 1 1.90985931710274 0 0 0 1 0 0 0
2967 2 -4.736357322968754 12.877228864164882 -7.364333980839235 0 1 1.90985931710274 0 0 0 1 0 0 0
845 1 -10.49556439859258 1.324251409088832 -5.575087225059108 0 4 0.0298415518297304 1 -0.87971 0.115671 -0.461227 0 0 0
846 1 -10.631296536123939 0.7031792711430755 -5.432734791968485 0 4 0.0298415518297304 1 -0.885665 0.053217 -0.461265 0 0 0
847 1 -10.38410240725975 0.3007226119801671 -5.931148609750038 0 4 0.0298415518297304 1 -0.871899 0.031001 -0.488703 0 0 0
2899 2 -12.723152413202172 13.828785311097347 -1.0644883868835517 0 1 1.90985931710274 0 0 0 1 0 0 0
2399 1 -10.16733844680462 1.5271061926927691 -6.106168118875939 0 4 0.0298415518297304 1 -0.84874 0.134812 -0.511338 0 0 0
2418 1 -9.551761345313452 1.14665875491715 -7.102193318178118 0 4 0.0298415518297304 1 -0.796392 0.102459 -0.596039 0 0 0
2419 1 -9.928117389224152 1.1377675643454386 -6.570502549743725 0 4 0.0298415518297304 1 -0.832448 0.086106 -0.547371 0 0 0
2420 1 -10.08337967517057 0.4865794786618666 -6.417728021582561 0 4 0.0298415518297304 1 -0.840898 0.050161 -0.538863 0 0 0
4269 2 -7.294599683331177 1.1679502528932328 -6.591637623411873 0 1 1.90985931710274 0 0 0 1 0 0 0
4243 2 -4.529606987294498 0.546138541358248 -5.399487391955201 0 1 1.90985931710274 0 0 0 1 0 0 0
4240 2 -2.9571346660626645 0.16475148477341683 -5.460843413192282 0 1 1.90985931710274 0 0 0 1 0 0 0
4255 2 -0.3997918426152385 1.5379191656974225 -7.0944001234135365 0 1 1.90985931710274 0 0 0 1 0 0 0
4315 2 -0.8168110714879901 0.5460935013480164 -6.1564748439093 0 1 1.90985931710274 0 0 0 1 0 0 0
2829 2 -12.157499962619962 2.0028698998667296 -5.94840010140613 0 1 1.90985931710274 0 0 0 1 0 0 0
2882 2 -11.408609271067272 2.7498935106750926 -5.602511019781031 0 1 1.90985931710274 0 0 0 1 0 0 0
2378 1 -9.515722686147727 3.4268197334280326 -6.3671283268970695 0 4 0.0298415518297304 1 -0.795275 0.289976 -0.532402 0 0 0
2379 1 -9.931604703079781 3.309267907455417 -5.7687017515614585 0 4 0.0298415518297304 1 -0.831166 0.273726 -0.483981 0 0 0
2380 1 -10.165746059644487 2.63849077709189 -5.710312428807246 0 4 0.0298415518297304 1 -0.849516 0.225565 -0.47691 0 0 0
2396 1 -9.327338261728201 2.9195443775880694 -6.8797784902812955 0 4 0.0298415518297304 1 -0.781589 0.241321 -0.575225 0 0 0
2397 1 -9.581412179409126 2.2559092717178135 -6.783319053141226 0 4 0.0298415518297304 1 -0.799826 0.193441 -0.568207 0 0 0
2398 1 -9.979208801255677 2.184302998367814 -6.211528291683313 0 4 0.0298415518297304 1 -0.835883 0.177101 -0.519552 0 0 0
4275 2 -4.091122540449853 3.5402126593232985 -6.579898753326923 0 1 1.90985931710274 0 0 0 1 0 0 0
4319 2 -2.8943341346260425 3.279851340101583 -5.555816912708695 0 1 1.90985931710274 0 0 0 1 0 0 0
4317 2 -1.4485314293489573 2.626670932064158 -5.390632797698528 0 1 1.90985931710274 0 0 0 1 0 0 0
2905 2 -12.137922626410298 5.310569922154913 -5.6536583423902655 0 1 1.90985931710274 0 0 0 1 0 0 0
2361 1 -9.336112728622068 4.629649181325049 -5.846719577457926 0 4 0.0298415518297304 1 -0.781003 0.389231 -0.488399 0 0 0
2377 1 -9.207096031147115 4.109775397540957 -6.413209013816228 0 4 0.0298415518297304 1 -0.770758 0.342421 -0.53729 0 0 0
2360 1 -8.963339986921262 5.315532000828298 -5.844040723021723 0 4 0.0298415518297304 1 -0.749777 0.444447 -0.490205 0 0 0
2375 1 -8.321548324326256 4.917931978313914 -7.021482536804528 0 4 0.0298415518297304 1 -0.69676 0.411251 -0.587705 0 0 0
2376 1 -8.709186563023858 4.233482399091309 -6.999619942319504 0 4 0.0298415518297304 1 -0.727926 0.356132 -0.585913 0 0 0
4312 2 -3.28130213184558 5.089938071352432 -6.587340779705849 0 1 1.90985931710274 0 0 0 1 0 0 0
2830 2 -13.237623621225483 6.140486063321637 -5.984757753254444 0 1 1.90985931710274 0 0 0 1 0 0 0
2998 2 -12.426495606511285 5.749379364850681 -6.764512954612607 0 1 1.90985931710274 0 0 0 1 0 0 0
3008 2 -10.302123632572464 5.908209354597416 -6.510617281245946 0 1 1.90985931710274 0 0 0 1 0 0 0
2344 1 -8.070493389834603 6.651223165669366 -5.774066719283829 0 4 0.0298415518297304 1 -0.67562 0.556751 -0.483286 0 0 0
2357 1 -7.413383296015549 6.256104902255907 -6.971342485334068 0 4 0.0298415518297304 1 -0.620434 0.523931 -0.583573 0 0 0
2358 1 -7.9994657362479495 6.136607830526459 -6.407584207931539 0 4 0.0298415518297304 1 -0.669396 0.513666 -0.536709 0 0 0
2359 1 -8.450912740693703 5.46289520267755 -6.439296458190344 0 4 0.0298415518297304 1 -0.70702 0.458125 -0.538743 0 0 0
2356 1 -6.896660049020172 6.896660049020172 -6.896660049020172 0 4 0.0298415518297304 1 -0.57735 0.57735 -0.57735 0 0 0
4247 2 -5.385961957072732 6.170117478600787 -5.453745156584817 0 1 1.90985931710274 0 0 0 1 0 0 0
4237 2 -5.289238590788895 5.404430611040496 -6.695964242382278 0 1 1.90985931710274 0 0 0 1 0 0 0
4330 2 -4.269276529876803 5.429583925429463 -5.670469227063162 0 1 1.90985931710274 0 0 0 1 0 0 0
3020 2 -14.30142935791478 7.539031526316565 -6.827147197511475 0 1 1.90985931710274 0 0 0 1 0 0 0
2859 2 -11.475967639484654 7.8064641033760545 -6.210602359193918 0 1 1.90985931710274 0 0 0 1 0 0 0
2883 2 -10.6802977762676 8.535343348488372 -6.50113415538653 0 1 1.90985931710274 0 0 0 1 0 0 0
2935 2 -10.2234752333854 7.501530491566145 -5.682970247807296 0 1 1.90985931710274 0 0 0 1 0 0 0
2343 1 -7.5599552786647415 7.2872611811923225 -5.696441317200801 0 4 0.0298415518297304 1 -0.632533 0.610173 -0.477065 0 0 0
2840 2 -8.116188058224353 7.527087423306364 -6.6640284899117725 0 1 1.90985931710274 0 0 0 1 0 0 0
2329 1 -6.439296458190344 8.450912740693703 -5.46289520267755 0 4 0.0298415518297304 1 -0.538743 0.70702 -0.458125 0 0 0
2340 1 -5.774066719283829 8.070493389834603 -6.651223165669366 0 4 0.0298415518297304 1 -0.483286 0.67562 -0.556751 0 0 0
2341 1 -6.407584207931539 7.9994657362479495 -6.136607830526459 0 4 0.0298415518297304 1 -0.536709 0.669396 -0.513666 0 0 0
2342 1 -6.971342485334068 7.413383296015549 -6.256104902255907 0 4 0.0298415518297304 1 -0.583573 0.620434 -0.523931 0 0 0
2338 1 -4.532261116183702 8.599454995390728 -6.947090881314812 0 4 0.0298415518297304 1 -0.379189 0.720381 -0.580747 0 0 0
2339 1 -5.182674844411291 8.591918993333321 -6.484890297575802 0 4 0.0298415518297304 1 -0.434791 0.718335 -0.543095 0 0 0
4276 2 -3.217912062816975 8.319990346885094 -6.001732833614523 0 1 1.90985931710274 0 0 0 1 0 0 0
4323 2 -0.15889760880470227 8.176624819355968 -5.869849084240751 0 1 1.90985931710274 0 0 0 1 0 0 0
2325 1 -3.9982103829107847 9.472968743546604 -6.089382005172075 0 4 0.0298415518297304 1 -0.333291 0.793559 -0.509098 0 0 0
2326 1 -4.621672847602975 9.471464327594123 -5.632089492713752 0 4 0.0298415518297304 1 -0.388906 0.791512 -0.471446 0 0 0
2327 1 -5.229067623256141 9.030104738562834 -5.819635519704458 0 4 0.0298415518297304 1 -0.436819 0.755998 -0.4875 0 0 0
2337 1 -3.9404487203291834 9.050444772702892 -6.734332239905998 0 4 0.0298415518297304 1 -0.33127 0.755891 -0.564703 0 0 0
883 1 -3.383586720413358 9.85282733924287 -5.854617017001387 0 4 0.0298415518297304 1 -0.284461 0.823738 -0.490447 0 0 0
894 1 -2.0830139269438743 10.113173319118141 -6.011561039835598 0 4 0.0298415518297304 1 -0.175251 0.846422 -0.502849 0 0 0
895 1 -2.737132063013731 9.79413632702012 -6.274706368145702 0 4 0.0298415518297304 1 -0.226809 0.820451 -0.524802 0 0 0
896 1 -2.6877540399909075 9.37289470523265 -6.909457866036755 0 4 0.0298415518297304 1 -0.226831 0.784369 -0.577333 0 0 0
2336 1 -3.2975402454766938 8.996025895892759 -7.142375312258343 0 4 0.0298415518297304 1 -0.275807 0.7541 -0.59604 0 0 0
906 1 -0.7122045543855867 10.64038312370757 -5.383451567067813 0 4 0.0298415518297304 1 -0.059223 0.890774 -0.450572 0 0 0
907 1 -0.7040841837917592 10.25069844397294 -6.095336996791155 0 4 0.0298415518297304 1 -0.059226 0.858483 -0.50941 0 0 0
908 1 -1.3963315588536618 9.992199987587664 -6.399635919207783 0 4 0.0298415518297304 1 -0.115646 0.836362 -0.53584 0 0 0
909 1 -1.3686009819231013 9.553842441772057 -7.044985182758772 0 4 0.0298415518297304 1 -0.115657 0.800437 -0.588153 0 0 0
2993 2 -11.270076688300762 11.04149972912134 -6.787856657641194 0 1 1.90985931710274 0 0 0 1 0 0 0
3009 2 -8.339635441306537 11.890233961044549 -6.5553387242416035 0 1 1.90985931710274 0 0 0 1 0 0 0
3015 2 -5.791791351218329 11.473608073560575 -5.719693667438488 0 1 1.90985931710274 0 0 0 1 0 0 0
2945 2 -4.265082465751453 12.091810115328522 -5.394005673546616 0 1 1.90985931710274 0 0 0 1 0 0 0
2980 2 -4.821845201502093 11.137154354319458 -6.381834952891848 0 1 1.90985931710274 0 0 0 1 0 0 0
2888 2 -13.141528713214985 13.946340995747752 -5.681582467508321 0 1 1.90985931710274 0 0 0 1 0 0 0
2955 2 -9.972103965754954 13.237607556509444 -6.410485745793406 0 1 1.90985931710274 0 0 0 1 0 0 0
2987 2 -8.848421691140254 13.64574500574514 -6.405842441433584 0 1 1.90985931710274 0 0 0 1 0 0 0
3022 2 -6.763304773027555 14.170013725899102 -6.257320813768558 0 1 1.90985931710274 0 0 0 1 0 0 0
2861 2 -2.214049889933385 13.782417889592098 -5.432203625616392 0 1 1.90985931710274 0 0 0 1 0 0 0
807 1 -11.308090336798315 0.3522053557303874 -3.8619611313205353 0 4 0.0298415518297304 1 -0.947429 0.030774 -0.318484 0 0 0
824 1 -10.975640721862607 1.3942285429139425 -4.527409841300541 0 4 0.0298415518297304 1 -0.919379 0.119553 -0.374767 0 0 0
825 1 -11.08496819773124 0.7106141284784225 -4.422370927131481 0 4 0.0298415518297304 1 -0.925344 0.057112 -0.374801 0 0 0
826 1 -10.876011960372498 0.3282260859712711 -4.959509308734032 0 4 0.0298415518297304 1 -0.912063 0.03097 -0.408879 0 0 0
844 1 -10.689822936524607 1.745118796613131 -5.061730274197689 0 4 0.0298415518297304 1 -0.892995 0.141803 -0.427143 0 0 0
4259 2 -6.971570112643539 1.0357388000317513 -4.334771866340229 0 1 1.90985931710274 0 0 0 1 0 0 0
4280 2 -4.4214764253828545 0.1605645903703099 -4.077243646179476 0 1 1.90985931710274 0 0 0 1 0 0 0
4307 2 -4.22738894466321 1.5642179421687643 -3.741995103036558 0 1 1.90985931710274 0 0 0 1 0 0 0
4241 2 -1.2850178933137215 0.2772010762714938 -5.00922110498545 0 1 1.90985931710274 0 0 0 1 0 0 0
822 1 -10.967922118238022 2.5293110254501143 -4.017420313103844 0 4 0.0298415518297304 1 -0.917967 0.214148 -0.333881 0 0 0
823 1 -11.13171558938183 1.8043773161599217 -3.960234221833683 0 4 0.0298415518297304 1 -0.930733 0.149145 -0.333904 0 0 0
841 1 -10.426911840880612 3.566604096775424 -4.627224043334814 0 4 0.0298415518297304 1 -0.871859 0.301445 -0.385995 0 0 0
842 1 -10.65540007802271 2.861937509150159 -4.597576101275517 0 4 0.0298415518297304 1 -0.891718 0.236303 -0.386006 0 0 0
843 1 -10.509100883217892 2.4181504042576027 -5.13581135951217 0 4 0.0298415518297304 1 -0.88029 0.206546 -0.427117 0 0 0
4289 2 -8.398774913379484 3.335386831015507 -4.956363122394872 0 1 1.90985931710274 0 0 0 1 0 0 0
4306 2 -7.441108733268336 2.3008819590879845 -3.8005396082503626 0 1 1.90985931710274 0 0 0 1 0 0 0
4258 2 -2.894365542348311 2.7519817519436796 -4.038547082572314 0 1 1.90985931710274 0 0 0 1 0 0 0
3006 2 -14.175262103378099 4.151122524306233 -4.443247985145003 0 1 1.90985931710274 0 0 0 1 0 0 0
839 1 -10.206998193417988 4.725745922084348 -4.03736240898212 0 4 0.0298415518297304 1 -0.85314 0.397289 -0.338104 0 0 0
840 1 -10.502245767290724 4.018942358833174 -4.045510343949046 0 4 0.0298415518297304 1 -0.879824 0.334064 -0.338099 0 0 0
2348 1 -9.826062837024201 4.956079314168626 -4.644113194558232 0 4 0.0298415518297304 1 -0.822871 0.415996 -0.38708 0 0 0
2362 1 -9.765930954750743 4.474010090314408 -5.236891991858055 0 4 0.0298415518297304 1 -0.816671 0.373095 -0.440282 0 0 0
2363 1 -10.059100048941238 3.7939239923523522 -5.222355621366762 0 4 0.0298415518297304 1 -0.841358 0.320296 -0.435348 0 0 0
4277 2 -8.062839564349737 4.852389973949862 -4.8226878246509175 0 1 1.90985931710274 0 0 0 1 0 0 0
4261 2 -6.402181375608228 3.721042152506593 -4.911012821687748 0 1 1.90985931710274 0 0 0 1 0 0 0
4295 2 -5.152257675007428 5.128972585312648 -5.099014730286705 0 1 1.90985931710274 0 0 0 1 0 0 0
4266 2 -1.3132236317089507 4.574915867675696 -4.402281974593445 0 1 1.90985931710274 0 0 0 1 0 0 0
4308 2 -0.5931892138264949 3.8989092180931184 -5.1964915089691255 0 1 1.90985931710274 0 0 0 1 0 0 0
2919 2 -12.559676379272997 6.065463558753555 -4.039856028970323 0 1 1.90985931710274 0 0 0 1 0 0 0
2334 1 -9.050444772702892 6.734332239905998 -3.9404487203291834 0 4 0.0298415518297304 1 -0.755891 0.564703 -0.33127 0 0 0
2335 1 -9.472968743546604 6.089382005172075 -3.9982103829107847 0 4 0.0298415518297304 1 -0.793559 0.509098 -0.333291 0 0 0
2346 1 -9.030104738562834 5.819635519704458 -5.229067623256141 0 4 0.0298415518297304 1 -0.755998 0.4875 -0.436819 0 0 0
2347 1 -9.471464327594123 5.632089492713752 -4.621672847602975 0 4 0.0298415518297304 1 -0.791512 0.471446 -0.388906 0 0 0
2925 2 -10.61701610608698 5.458333812747931 -5.227286351343081 0 1 1.90985931710274 0 0 0 1 0 0 0
2333 1 -8.599454995390728 6.947090881314812 -4.532261116183702 0 4 0.0298415518297304 1 -0.720381 0.580747 -0.379189 0 0 0
2345 1 -8.591918993333321 6.484890297575802 -5.182674844411291 0 4 0.0298415518297304 1 -0.718335 0.543095 -0.434791 0 0 0
4245 2 -6.2454522194326 6.934389996284903 -4.0649264396426785 0 1 1.90985931710274 0 0 0 1 0 0 0
4283 2 -0.4635472913212002 6.291102764599618 -5.048173374229332 0 1 1.90985931710274 0 0 0 1 0 0 0
4292 2 -1.138259054452217 7.065618536074269 -4.491253474054144 0 1 1.90985931710274 0 0 0 1 0 0 0
2904 2 -13.712283562701039 7.434981683664157 -4.826118656538327 0 1 1.90985931710274 0 0 0 1 0 0 0
2321 1 -7.521794481100211 8.521952334138087 -3.6863335632185215 0 4 0.0298415518297304 1 -0.628735 0.714242 -0.307492 0 0 0
2322 1 -8.061162762905834 7.967511654140036 -3.7838070843487692 0 4 0.0298415518297304 1 -0.675536 0.665346 -0.317751 0 0 0
2331 1 -7.55442745978266 7.716196880042247 -5.014374676306672 0 4 0.0298415518297304 1 -0.634573 0.647794 -0.421521 0 0 0
2332 1 -8.103352022611611 7.567008598743931 -4.452551263255395 0 4 0.0298415518297304 1 -0.677324 0.634131 -0.372974 0 0 0
2890 2 -8.199999133142231 8.534594519061145 -5.37266897817393 0 1 1.90985931710274 0 0 0 1 0 0 0
2320 1 -6.999619942319504 8.709186563023858 -4.233482399091309 0 4 0.0298415518297304 1 -0.585913 0.727926 -0.356132 0 0 0
2328 1 -5.844040723021723 8.963339986921262 -5.315532000828298 0 4 0.0298415518297304 1 -0.490205 0.749777 -0.444447 0 0 0
2330 1 -7.021482536804528 8.321548324326256 -4.917931978313914 0 4 0.0298415518297304 1 -0.587705 0.69676 -0.411251 0 0 0
4270 2 -5.09128901549709 7.799600540418943 -4.358735178806383 0 1 1.90985931710274 0 0 0 1 0 0 0
4249 2 -3.13743456045108 7.396832498700345 -5.0066383432909465 0 1 1.90985931710274 0 0 0 1 0 0 0
4286 2 -2.902534301098056 8.965121444975967 -3.9452742889417305 0 1 1.90985931710274 0 0 0 1 0 0 0
4313 2 -2.460557635349451 8.693590569975276 -5.306365494155944 0 1 1.90985931710274 0 0 0 1 0 0 0
4250 2 -0.09343212099615172 8.246490417679361 -3.6000600629674384 0 1 1.90985931710274 0 0 0 1 0 0 0
4262 2 -0.9826440873826027 8.024074646117926 -5.03254542169611 0 1 1.90985931710274 0 0 0 1 0 0 0
2962 2 -12.282856035358598 9.007755728058955 -4.920328513126993 0 1 1.90985931710274 0 0 0 1 0 0 0
3016 2 -9.89374503885133 9.965768025711087 -4.921375873806802 0 1 1.90985931710274 0 0 0 1 0 0 0
2952 2 -8.715490750106431 9.130738961222653 -4.41989673089798 0 1 1.90985931710274 0 0 0 1 0 0 0
2318 1 -5.846719577457926 9.336112728622068 -4.629649181325049 0 4 0.0298415518297304 1 -0.488399 0.781003 -0.389231 0 0 0
2319 1 -6.413209013816228 9.207096031147115 -4.109775397540957 0 4 0.0298415518297304 1 -0.53729 0.770758 -0.342421 0 0 0
2851 2 -6.345130578369105 10.65567335045162 -4.924558959630602 0 1 1.90985931710274 0 0 0 1 0 0 0
871 1 -4.04659370961455 10.498201319440032 -4.0159841535267145 0 4 0.0298415518297304 1 -0.338099 0.879824 -0.334064 0 0 0
872 1 -4.03736240898212 10.206998193417988 -4.725745922084348 0 4 0.0298415518297304 1 -0.338104 0.85314 -0.397289 0 0 0
2309 1 -5.222355621366762 10.059100048941238 -3.7939239923523522 0 4 0.0298415518297304 1 -0.435348 0.841358 -0.320296 0 0 0
2316 1 -4.6471478823731145 9.830129370841252 -4.958664267611715 0 4 0.0298415518297304 1 -0.38708 0.822871 -0.415996 0 0 0
2317 1 -5.236891991858055 9.765930954750743 -4.474010090314408 0 4 0.0298415518297304 1 -0.440282 0.816671 -0.373095 0 0 0
881 1 -2.7798204017072834 10.54382301778774 -4.884105722525149 0 4 0.0298415518297304 1 -0.232881 0.882039 -0.409603 0 0 0
882 1 -3.4183554655301926 10.215155116265121 -5.172463522025751 0 4 0.0298415518297304 1 -0.284445 0.856072 -0.431545 0 0 0
893 1 -2.1070288296765565 10.492772653721886 -5.310097654165997 0 4 0.0298415518297304 1 -0.17524 0.878746 -0.443955 0 0 0
892 1 -1.4192693658356634 10.76190507047654 -4.98783925556015 0 4 0.0298415518297304 1 -0.118869 0.900842 -0.417556 0 0 0
2834 2 -13.133651858587001 11.918078830513984 -5.037885097178459 0 1 1.90985931710274 0 0 0 1 0 0 0
2970 2 -13.945471654961457 11.201680960556299 -5.270972384554578 0 1 1.90985931710274 0 0 0 1 0 0 0
2871 2 -12.43091106740711 10.947413037759379 -5.3746256995982264 0 1 1.90985931710274 0 0 0 1 0 0 0
2906 2 -11.907925806820375 12.385605034315855 -4.786090372682265 0 1 1.90985931710274 0 0 0 1 0 0 0
2920 2 -11.692265121187711 11.185323249115427 -4.605934795495235 0 1 1.90985931710274 0 0 0 1 0 0 0
2982 2 -10.877975050773843 12.377017379685046 -4.3830915141647715 0 1 1.90985931710274 0 0 0 1 0 0 0
2895 2 -3.816628206210352 11.371839930345741 -4.647041911013893 0 1 1.90985931710274 0 0 0 1 0 0 0
870 1 -3.4315134233143305 10.828792332517375 -3.7071227937142512 0 4 0.0298415518297304 1 -0.286305 0.905904 -0.312038 0 0 0
879 1 -2.115633286578001 11.123083633229703 -3.8114019686846525 0 4 0.0298415518297304 1 -0.176449 0.930931 -0.319741 0 0 0
880 1 -2.787820095153561 10.852187900093165 -4.148160133050597 0 4 0.0298415518297304 1 -0.232877 0.908815 -0.346156 0 0 0
890 1 -0.7152375895268429 11.279869072120212 -3.86648581940601 0 4 0.0298415518297304 1 -0.059642 0.944241 -0.323807 0 0 0
891 1 -1.423347517251903 11.07989365716363 -4.2327990080513676 0 4 0.0298415518297304 1 -0.118867 0.927636 -0.354065 0 0 0
2837 2 -13.722169083280209 13.495601309534743 -4.174672649580433 0 1 1.90985931710274 0 0 0 1 0 0 0
2988 2 -8.961134304949443 13.557048714735012 -4.667517448662773 0 1 1.90985931710274 0 0 0 1 0 0 0
3000 2 -6.174211916532808 13.1762228331047 -4.864148009279621 0 1 1.90985931710274 0 0 0 1 0 0 0
2922 2 -13.45483809495926 0.455764019709207 -3.166218747363647 0 1 1.90985931710274 0 0 0 1 0 0 0
788 1 -11.674634439008784 1.4926796990507116 -2.0629124085374824 0 4 0.0298415518297304 1 -0.977384 0.124901 -0.170648 0 0 0
789 1 -11.756097880475448 0.7363147481133524 -2.0167350080379154 0 4 0.0298415518297304 1 -0.983303 0.063153 -0.170666 0 0 0
790 1 -11.648741412035173 0.3678117563873662 -2.6502621255199252 0 4 0.0298415518297304 1 -0.97535 0.030501 -0.218543 0 0 0
805 1 -11.379342313562363 1.4521994712227135 -3.3517287379160643 0 4 0.0298415518297304 1 -0.9529 0.122693 -0.277359 0 0 0
806 1 -11.472097285570149 0.7237953884855253 -3.276131940429869 0 4 0.0298415518297304 1 -0.958848 0.060552 -0.277386 0 0 0
4254 2 -7.579194421430554 1.4997870166794005 -2.206822669314354 0 1 1.90985931710274 0 0 0 1 0 0 0
4311 2 -8.770382830373983 0.20898390445509207 -3.4914838232493146 0 1 1.90985931710274 0 0 0 1 0 0 0
4296 2 -4.9327855986558085 0.831818495082085 -3.274956021943236 0 1 1.90985931710274 0 0 0 1 0 0 0
4252 2 -0.6730666027722965 0.784001206033059 -1.8772082023534686 0 1 1.90985931710274 0 0 0 1 0 0 0
4305 2 -1.5155389360834555 0.5576712453627337 -2.909955188520648 0 1 1.90985931710274 0 0 0 1 0 0 0
802 1 -11.360997099847129 3.039448746477639 -2.103550570471817 0 4 0.0298415518297304 1 -0.950927 0.254167 -0.176454 0 0 0
803 1 -11.325622741883521 2.616436136241011 -2.7661375647652378 0 4 0.0298415518297304 1 -0.948027 0.220102 -0.229781 0 0 0
804 1 -11.48537574342067 1.8548371467004798 -2.726875306230269 0 4 0.0298415518297304 1 -0.960798 0.155112 -0.229798 0 0 0
821 1 -11.06193314522361 2.963422670948167 -3.412019013526081 0 4 0.0298415518297304 1 -0.925869 0.246557 -0.286314 0 0 0
4329 2 -4.668962572085438 2.319468960026251 -2.337328838781545 0 1 1.90985931710274 0 0 0 1 0 0 0
4310 2 -1.8968060864491587 2.51157904898664 -2.4160936815596887 0 1 1.90985931710274 0 0 0 1 0 0 0
4297 2 -0.5790656734471344 2.097472374029694 -2.2917816829357385 0 1 1.90985931710274 0 0 0 1 0 0 0
2911 2 -13.449467213996726 4.620878357038611 -2.0578172520294693 0 1 1.90985931710274 0 0 0 1 0 0 0
801 1 -11.123083633229703 3.8114019686846525 -2.115633286578001 0 4 0.0298415518297304 1 -0.930931 0.319741 -0.176449 0 0 0
819 1 -10.852187900093165 4.148160133050597 -2.787820095153561 0 4 0.0298415518297304 1 -0.908815 0.346156 -0.232877 0 0 0
820 1 -10.828792332517375 3.7071227937142512 -3.4315134233143305 0 4 0.0298415518297304 1 -0.905904 0.312038 -0.286305 0 0 0
2964 2 -12.243799102120303 5.312470664073109 -2.408982923280437 0 1 1.90985931710274 0 0 0 1 0 0 0
817 1 -10.492772653721886 5.310097654165997 -2.1070288296765565 0 4 0.0298415518297304 1 -0.878746 0.443955 -0.17524 0 0 0
818 1 -10.54382301778774 4.884105722525149 -2.7798204017072834 0 4 0.0298415518297304 1 -0.882039 0.409603 -0.232881 0 0 0
838 1 -10.215155116265121 5.172463522025751 -3.4183554655301926 0 4 0.0298415518297304 1 -0.856072 0.431545 -0.284445 0 0 0
4322 2 -9.86023479143178 3.9318224060443185 -2.1288356131619484 0 1 1.90985931710274 0 0 0 1 0 0 0
4328 2 -7.433845107206886 4.7927551738555 -2.5664970106208216 0 1 1.90985931710274 0 0 0 1 0 0 0
4271 2 -5.156963966083191 4.209294039795665 -2.5907971542020665 0 1 1.90985931710274 0 0 0 1 0 0 0
4290 2 -2.336389914948086 4.957775467522815 -3.509469344031171 0 1 1.90985931710274 0 0 0 1 0 0 0
4294 2 -3.1859737918924775 4.79562166311198 -2.2245680769457206 0 1 1.90985931710274 0 0 0 1 0 0 0
4256 2 -0.3013875617655959 5.105785405634737 -3.3345514969780794 0 1 1.90985931710274 0 0 0 1 0 0 0
4293 2 -0.28437596994879044 4.008673070662619 -2.0489273733683895 0 1 1.90985931710274 0 0 0 1 0 0 0
2910 2 -14.217876743064634 5.454223312705588 -2.1630193571555267 0 1 1.90985931710274 0 0 0 1 0 0 0
3023 2 -11.557212945515307 6.926216724256934 -2.7127794136867145 0 1 1.90985931710274 0 0 0 1 0 0 0
816 1 -10.113173319118141 6.011561039835598 -2.0830139269438743 0 4 0.0298415518297304 1 -0.846422 0.502849 -0.175251 0 0 0
835 1 -9.37289470523265 6.909457866036755 -2.6877540399909075 0 4 0.0298415518297304 1 -0.784369 0.577333 -0.226831 0 0 0
836 1 -9.79413632702012 6.274706368145702 -2.737132063013731 0 4 0.0298415518297304 1 -0.820451 0.524802 -0.226809 0 0 0
837 1 -9.85282733924287 5.854617017001387 -3.383586720413358 0 4 0.0298415518297304 1 -0.823738 0.490447 -0.284461 0 0 0
2324 1 -8.996025895892759 7.142375312258343 -3.2975402454766938 0 4 0.0298415518297304 1 -0.7541 0.59604 -0.275807 0 0 0
4279 2 -6.734985397002837 6.997106573320654 -2.360848199752196 0 1 1.90985931710274 0 0 0 1 0 0 0
4272 2 -3.8518826917035476 6.291246538460168 -2.631766099927786 0 1 1.90985931710274 0 0 0 1 0 0 0
4298 2 -5.313395840371309 5.992362879389958 -3.2780440929848247 0 1 1.90985931710274 0 0 0 1 0 0 0
4267 2 -2.337754391143296 5.942602054614685 -2.4929960909573 0 1 1.90985931710274 0 0 0 1 0 0 0
4285 2 -0.6328807896675936 6.494778056760797 -2.0911920212875454 0 1 1.90985931710274 0 0 0 1 0 0 0
4303 2 -1.6503577533552178 6.827719358859188 -3.0599796535788055 0 1 1.90985931710274 0 0 0 1 0 0 0
834 1 -9.255835233925785 7.28208785979175 -2.02877540751461 0 4 0.0298415518297304 1 -0.774346 0.610208 -0.167433 0 0 0
2848 2 -9.480285035715495 8.660399971264004 -2.2094326569193705 0 1 1.90985931710274 0 0 0 1 0 0 0
2930 2 -10.11075569651223 7.7065827189492975 -3.5014646191444214 0 1 1.90985931710274 0 0 0 1 0 0 0
833 1 -8.782406953310574 7.847135736130303 -1.9748108882159678 0 4 0.0298415518297304 1 -0.736792 0.655055 -0.167452 0 0 0
2308 1 -7.778922635537865 8.887274502417357 -1.848351927259901 0 4 0.0298415518297304 1 -0.652682 0.740883 -0.158426 0 0 0
2313 1 -7.444239992366906 8.850031126127387 -3.015399555322699 0 4 0.0298415518297304 1 -0.623858 0.738752 -0.255043 0 0 0
2314 1 -7.906844018523753 8.610159610496206 -2.492570003313927 0 4 0.0298415518297304 1 -0.659732 0.722546 -0.206595 0 0 0
2315 1 -8.421148108100308 8.08213718829916 -2.572094274093865 0 4 0.0298415518297304 1 -0.706291 0.673906 -0.216805 0 0 0
2323 1 -8.519520450007567 7.737155463213315 -3.2201579666754445 0 4 0.0298415518297304 1 -0.711194 0.649239 -0.269616 0 0 0
4242 2 -6.311607595736923 8.57111365414926 -2.1974912005617764 0 1 1.90985931710274 0 0 0 1 0 0 0
4282 2 -3.1303157217617876 7.455264349619377 -3.563217947160359 0 1 1.90985931710274 0 0 0 1 0 0 0
4309 2 -1.916362895481118 8.666381648866228 -2.1736475053194706 0 1 1.90985931710274 0 0 0 1 0 0 0
2836 2 -13.852140949060562 10.341597139133741 -2.6021465791801344 0 1 1.90985931710274 0 0 0 1 0 0 0
2844 2 -11.72815208797942 9.892566173516816 -2.474474050327107 0 1 1.90985931710274 0 0 0 1 0 0 0
2903 2 -9.753670605080426 10.707068413287688 -2.160557873784633 0 1 1.90985931710274 0 0 0 1 0 0 0
2304 1 -5.710312428807246 10.165746059644487 -2.63849077709189 0 4 0.0298415518297304 1 -0.47691 0.849516 -0.225565 0 0 0
2305 1 -6.211528291683313 9.979208801255677 -2.184302998367814 0 4 0.0298415518297304 1 -0.519552 0.835883 -0.177101 0 0 0
2306 1 -6.7839506167161545 9.582755970970684 -2.2560000094296626 0 4 0.0298415518297304 1 -0.568207 0.799826 -0.193441 0 0 0
2310 1 -5.7687017515614585 9.931604703079781 -3.309267907455417 0 4 0.0298415518297304 1 -0.483981 0.831166 -0.273726 0 0 0
2311 1 -6.3671283268970695 9.515722686147727 -3.4268197334280326 0 4 0.0298415518297304 1 -0.532402 0.795275 -0.289976 0 0 0
2312 1 -6.8797784902812955 9.327338261728201 -2.9195443775880694 0 4 0.0298415518297304 1 -0.575225 0.781589 -0.241321 0 0 0
856 1 -5.140432586494049 10.517951734564901 -2.4208158069392542 0 4 0.0298415518297304 1 -0.427117 0.88029 -0.206546 0 0 0
862 1 -4.597576101275517 10.65540007802271 -2.861937509150159 0 4 0.0298415518297304 1 -0.386006 0.891718 -0.236303 0 0 0
863 1 -4.627224043334814 10.426911840880612 -3.566604096775424 0 4 0.0298415518297304 1 -0.385995 0.871859 -0.301445 0 0 0
4302 2 -3.2696363459710973 9.816177263758181 -2.9617720162555337 0 1 1.90985931710274 0 0 0 1 0 0 0
4327 2 -3.083222916168241 9.663973960361368 -1.8618462064801236 0 1 1.90985931710274 0 0 0 1 0 0 0
4318 2 -0.8746129302757826 9.690950854916625 -2.8951614162580785 0 1 1.90985931710274 0 0 0 1 0 0 0
2983 2 -13.100662788703762 11.953678255889459 -2.187553265859787 0 1 1.90985931710274 0 0 0 1 0 0 0
2944 2 -11.95110646580381 10.879418391724116 -2.888353945376394 0 1 1.90985931710274 0 0 0 1 0 0 0
2826 2 -7.622433237082849 11.44820034855069 -2.2309179085995456 0 1 1.90985931710274 0 0 0 1 0 0 0
860 1 -3.960234221833683 11.13171558938183 -1.8043773161599217 0 4 0.0298415518297304 1 -0.333904 0.930733 -0.149145 0 0 0
861 1 -4.017420313103844 10.967922118238022 -2.5293110254501143 0 4 0.0298415518297304 1 -0.333881 0.917967 -0.214148 0 0 0
867 1 -2.726875306230269 11.48537574342067 -1.8548371467004798 0 4 0.0298415518297304 1 -0.229798 0.960798 -0.155112 0 0 0
868 1 -2.7661375647652378 11.325622741883521 -2.616436136241011 0 4 0.0298415518297304 1 -0.229781 0.948027 -0.220102 0 0 0
869 1 -3.412019013526081 11.06193314522361 -2.963422670948167 0 4 0.0298415518297304 1 -0.286314 0.925869 -0.246557 0 0 0
878 1 -2.103550570471817 11.360997099847129 -3.039448746477639 0 4 0.0298415518297304 1 -0.176454 0.950927 -0.254167 0 0 0
876 1 -1.3914885773027972 11.715167821109105 -1.8888478978032397 0 4 0.0298415518297304 1 -0.117231 0.980288 -0.159038 0 0 0
877 1 -1.4115491063592356 11.558231437056955 -2.672170851459992 0 4 0.0298415518297304 1 -0.117222 0.967535 -0.22391 0 0 0
889 1 -0.7111428724090038 11.52006018579294 -3.0804279528325313 0 4 0.0298415518297304 1 -0.059644 0.964238 -0.258241 0 0 0
2875 2 -12.007642577362764 13.644210264033878 -3.4991523825988278 0 1 1.90985931710274 0 0 0 1 0 0 0
2869 2 -7.88508611205985 13.095102506033957 -2.814653340627383 0 1 1.90985931710274 0 0 0 1 0 0 0
2909 2 -8.546380137183258 13.879208465069905 -2.4216793168045507 0 1 1.90985931710274 0 0 0 1 0 0 0
3007 2 -5.580298958817498 13.667551878625847 -3.2759735050488583 0 1 1.90985931710274 0 0 0 1 0 0 0
2936 2 -1.8042292006004779 13.376183507782576 -2.153086698262319 0 1 1.90985931710274 0 0 0 1 0 0 0
773 1 -11.83119651802187 1.5137182198694838 -0.6968056081181138 0 4 0.0298415518297304 1 -0.99035 0.126041 -0.05763 0 0 0
774 1 -11.906795768543468 0.7436907815813953 -0.6812230974745015 0 4 0.0298415518297304 1 -0.996248 0.064561 -0.057636 0 0 0
775 1 -11.86812127662825 0.37686877902933724 -1.3496076122842269 0 4 0.0298415518297304 1 -0.993329 0.030269 -0.111273 0 0 0
4281 2 -6.420878504049257 0.4069184441351741 -1.3490174201166703 0 1 1.90985931710274 0 0 0 1 0 0 0
4331 2 -6.13904208790187 1.5511206332659455 -0.47553669924743325 0 1 1.90985931710274 0 0 0 1 0 0 0
4260 2 -4.593593071146817 1.4230372354470227 -0.5911838418971751 0 1 1.90985931710274 0 0 0 1 0 0 0
3001 2 -13.44788764611442 2.4675817549512065 -0.4342745350742465 0 1 1.90985931710274 0 0 0 1 0 0 0
785 1 -11.52006018579294 3.0804279528325313 -0.7111428724090038 0 4 0.0298415518297304 1 -0.964238 0.258241 -0.059644 0 0 0
786 1 -11.558231437056955 2.672170851459992 -1.4115491063592356 0 4 0.0298415518297304 1 -0.967535 0.22391 -0.117222 0 0 0
787 1 -11.715167821109105 1.8888478978032397 -1.3914885773027972 0 4 0.0298415518297304 1 -0.980288 0.159038 -0.117231 0 0 0
4299 2 -9.92866850946948 1.8100673464492125 -1.3573242280570224 0 1 1.90985931710274 0 0 0 1 0 0 0
4314 2 -7.698622173979637 3.354101924228173 -1.3403054971090214 0 1 1.90985931710274 0 0 0 1 0 0 0
4246 2 -5.336368283749872 2.575755015908797 -0.1016276208597855 0 1 1.90985931710274 0 0 0 1 0 0 0
784 1 -11.279869072120212 3.86648581940601 -0.7152375895268429 0 4 0.0298415518297304 1 -0.944241 0.323807 -0.059642 0 0 0
800 1 -11.07989365716363 4.2327990080513676 -1.423347517251903 0 4 0.0298415518297304 1 -0.927636 0.354065 -0.118867 0 0 0
799 1 -10.76190507047654 4.98783925556015 -1.4192693658356634 0 4 0.0298415518297304 1 -0.900842 0.417556 -0.118869 0 0 0
4300 2 -9.246829869086366 4.952234265453022 -0.9701405310654412 0 1 1.90985931710274 0 0 0 1 0 0 0
4264 2 -7.978892503084829 4.613546653265935 -0.9092745593956639 0 1 1.90985931710274 0 0 0 1 0 0 0
4238 2 -1.6988689628713587 4.697473021074117 -1.4959128073127044 0 1 1.90985931710274 0 0 0 1 0 0 0
4257 2 -0.9104543314539626 5.24397125324602 -0.850076694178 0 1 1.90985931710274 0 0 0 1 0 0 0
2966 2 -13.000221693390237 6.702621190278501 -0.8396049892593087 0 1 1.90985931710274 0 0 0 1 0 0 0
797 1 -10.25069844397294 6.095336996791155 -0.7040841837917592 0 4 0.0298415518297304 1 -0.858483 0.50941 -0.059226 0 0 0
798 1 -10.64038312370757 5.383451567067813 -0.7122045543855867 0 4 0.0298415518297304 1 -0.890774 0.450572 -0.059223 0 0 0
814 1 -9.553842441772057 7.044985182758772 -1.3686009819231013 0 4 0.0298415518297304 1 -0.800437 0.588153 -0.115657 0 0 0
815 1 -9.992199987587664 6.399635919207783 -1.3963315588536618 0 4 0.0298415518297304 1 -0.836362 0.53584 -0.115646 0 0 0
4273 2 -8.491119486304655 5.942719677648331 -0.5161057645262357 0 1 1.90985931710274 0 0 0 1 0 0 0
4287 2 -8.023967529446148 6.966418949856302 -0.43498197417509543 0 1 1.90985931710274 0 0 0 1 0 0 0
4291 2 -6.440498819050141 5.494376224271374 -1.7874566710262219 0 1 1.90985931710274 0 0 0 1 0 0 0
4248 2 -4.588313665788234 7.003211138385303 -1.2258174794938994 0 1 1.90985931710274 0 0 0 1 0 0 0
4251 2 -4.6360444390886055 5.470236237798716 -0.9093833169871353 0 1 1.90985931710274 0 0 0 1 0 0 0
4268 2 -0.028103713416562925 6.012448607829896 -0.5432982029286748 0 1 1.90985931710274 0 0 0 1 0 0 0
2893 2 -10.839919204486169 8.02264220098865 -1.1921399837602937 0 1 1.90985931710274 0 0 0 1 0 0 0
813 1 -9.376631494888152 7.375600354702212 -0.6851437658954603 0 4 0.0298415518297304 1 -0.783847 0.618377 -0.056516 0 0 0
812 1 -8.896439356475284 7.952522696613374 -0.6656915704953397 0 4 0.0298415518297304 1 -0.74655 0.662924 -0.056523 0 0 0
830 1 -7.9566467609051275 8.9006657194245 -0.6393586009192921 0 4 0.0298415518297304 1 -0.661356 0.748244 -0.052342 0 0 0
831 1 -8.131128066779423 8.669599745290057 -1.2784715515496379 0 4 0.0298415518297304 1 -0.683456 0.721864 -0.108633 0 0 0
832 1 -8.630639292972145 8.162830137834208 -1.321444919037123 0 4 0.0298415518297304 1 -0.720284 0.685123 -0.10862 0 0 0
4239 2 -3.9890818479186776 7.870573989559355 -1.5927931546373402 0 1 1.90985931710274 0 0 0 1 0 0 0
4325 2 -3.496209036393082 8.446202258815207 -0.525644859042084 0 1 1.90985931710274 0 0 0 1 0 0 0
2996 2 -12.623692701535939 10.480179359795448 -1.0015422438632053 0 1 1.90985931710274 0 0 0 1 0 0 0
2865 2 -11.567876182218475 10.220289379799985 -0.8818193756612076 0 1 1.90985931710274 0 0 0 1 0 0 0
2868 2 -9.431105572702704 9.011741744925986 -0.006204213463844712 0 1 1.90985931710274 0 0 0 1 0 0 0
829 1 -7.430419130501573 9.348906162508925 -0.6155775977841709 0 4 0.0298415518297304 1 -0.627009 0.777251 -0.052348 0 0 0
2307 1 -7.246032847391109 9.33984966043232 -1.7891570029506303 0 4 0.0298415518297304 1 -0.604243 0.783541 -0.144752 0 0 0
848 1 -5.931148609750038 10.38410240725975 -0.3007226119801671 0 4 0.0298415518297304 1 -0.488703 0.871899 -0.031001 0 0 0
850 1 -5.432734791968485 10.631296536123939 -0.7031792711430755 0 4 0.0298415518297304 1 -0.461265 0.885665 -0.053217 0 0 0
851 1 -5.575087225059108 10.49556439859258 -1.324251409088832 0 4 0.0298415518297304 1 -0.461227 0.87971 -0.115671 0 0 0
2300 1 -6.417728021582561 10.08337967517057 -0.4865794786618666 0 4 0.0298415518297304 1 -0.538863 0.840898 -0.050161 0 0 0
2301 1 -6.106168118875939 10.16733844680462 -1.5271061926927691 0 4 0.0298415518297304 1 -0.511338 0.84874 -0.134812 0 0 0
2302 1 -6.570502549743725 9.928117389224152 -1.1377675643454386 0 4 0.0298415518297304 1 -0.547371 0.832448 -0.086106 0 0 0
2303 1 -7.102193318178118 9.551761345313452 -1.14665875491715 0 4 0.0298415518297304 1 -0.596039 0.796392 -0.102459 0 0 0
855 1 -5.061730274197689 10.689822936524607 -1.745118796613131 0 4 0.0298415518297304 1 -0.427143 0.892995 -0.141803 0 0 0
4301 2 -2.8526668905418973 9.971460662335364 -0.12969412949044923 0 1 1.90985931710274 0 0 0 1 0 0 0
4244 2 -1.623139275500769 9.854694658561044 -1.3745235645455534 0 1 1.90985931710274 0 0 0 1 0 0 0
2881 2 -11.941167651116569 11.545629683826528 -0.6984379275929342 0 1 1.90985931710274 0 0 0 1 0 0 0
2943 2 -10.897722070908655 12.367062238235755 -0.10770997168914143 0 1 1.90985931710274 0 0 0 1 0 0 0
2999 2 -11.45107654751118 11.292829979602432 -1.7411548219041002 0 1 1.90985931710274 0 0 0 1 0 0 0
2884 2 -7.528461678237095 12.268019869146693 -0.04935525153123166 0 1 1.90985931710274 0 0 0 1 0 0 0
849 1 -4.959509308734032 10.876011960372498 -0.3282260859712711 0 4 0.0298415518297304 1 -0.408879 0.912063 -0.03097 0 0 0
852 1 -3.8619611313205353 11.308090336798315 -0.3522053557303874 0 4 0.0298415518297304 1 -0.318484 0.947429 -0.030774 0 0 0
853 1 -4.422370927131481 11.08496819773124 -0.7106141284784225 0 4 0.0298415518297304 1 -0.374801 0.925344 -0.057112 0 0 0
854 1 -4.527409841300541 10.975640721862607 -1.3942285429139425 0 4 0.0298415518297304 1 -0.374767 0.919379 -0.119553 0 0 0
857 1 -2.6502621255199252 11.648741412035173 -0.3678117563873662 0 4 0.0298415518297304 1 -0.218543 0.97535 -0.030501 0 0 0
858 1 -3.276131940429869 11.472097285570149 -0.7237953884855253 0 4 0.0298415518297304 1 -0.277386 0.958848 -0.060552 0 0 0
859 1 -3.3517287379160643 11.379342313562363 -1.4521994712227135 0 4 0.0298415518297304 1 -0.277359 0.9529 -0.122693 0 0 0
865 1 -2.0167350080379154 11.756097880475448 -0.7363147481133524 0 4 0.0298415518297304 1 -0.170666 0.983303 -0.063153 0 0 0
866 1 -2.0629124085374824 11.674634439008784 -1.4926796990507116 0 4 0.0298415518297304 1 -0.170648 0.977384 -0.124901 0 0 0
864 1 -1.3496076122842269 11.86812127662825 -0.3768687790293372 0 4 0.0298415518297304 1 -0.111273 0.993329 -0.030269 0 0 0
874 1 -0.6812230974745015 11.906795768543468 -0.7436907815813955 0 4 0.0298415518297304 1 -0.057636 0.996248 -0.064561 0 0 0
875 1 -0.6968056081181138 11.83119651802187 -1.5137182198694838 0 4 0.0298415518297304 1 -0.05763 0.99035 -0.126041 0 0 0
772 1 -11.794987974137706 1.9008536977816826 -1.5206409972932696e-18 0 4 0.0298415518297304 1 -0.98705 0.160411 -0 0 0 0
782 1 -10.837827437084997 5.0237641903669115 -1.105920725304196e-18 0 4 0.0298415518297304 1 -0.90738 0.420311 -0 0 0 0
783 1 -11.159030532552128 4.262370524096592 -5.52960362652098e-19 0 4 0.0298415518297304 1 -0.934172 0.356822 -0 0 0 0
795 1 -9.61605526409717 7.092140394247476 -2.76480181326049e-19 0 4 0.0298415518297304 1 -0.806015 0.591895 0 0 0 0
796 1 -10.060931286493508 6.4430651044093965 -6.912004533151225e-19 0 4 0.0298415518297304 1 -0.841873 0.539676 0 0 0 0
4424 2 -3.899521473768088 5.548025277342509 -0.011866216935705685 0 1 1.90985931710274 0 0 0 1 0 0 0
827 1 -6.718450883615759 9.897522950485259 -4.423682901216784e-18 0 4 0.0298415518297304 1 -0.569865 0.821739 0 0 0 0
751 1 -11.86812127662825 0.37686877902933724 1.3496076122842269 0 4 0.0298415518297304 1 -0.993329 0.030269 0.111273 0 0 0
760 1 -11.83119651802187 1.5137182198694838 0.6968056081181138 0 4 0.0298415518297304 1 -0.99035 0.126041 0.05763 0 0 0
761 1 -11.906795768543468 0.7436907815813953 0.6812230974745015 0 4 0.0298415518297304 1 -0.996248 0.064561 0.057636 0 0 0
762 1 -11.94399904357446 0.37985787396102 1.105920725304196e-18 0 4 0.0298415518297304 1 -0.999545 0.030178 0 0 0 0
4383 2 -10.892146610623886 0.8339272443374544 0.11448757956734923 0 1 1.90985931710274 0 0 0 1 0 0 0
4430 2 -9.14175162545462 1.1015029841890644 0.755283265602591 0 1 1.90985931710274 0 0 0 1 0 0 0
4349 2 -5.866270504497244 1.068860284959467 1.4871585029951802 0 1 1.90985931710274 0 0 0 1 0 0 0
4408 2 -0.34433034918597727 0.8936972312874509 0.13038224818286004 0 1 1.90985931710274 0 0 0 1 0 0 0
758 1 -11.558231437056955 2.672170851459992 1.4115491063592356 0 4 0.0298415518297304 1 -0.967535 0.22391 0.117222 0 0 0
759 1 -11.715167821109105 1.8888478978032397 1.3914885773027972 0 4 0.0298415518297304 1 -0.980288 0.159038 0.117231 0 0 0
770 1 -11.52006018579294 3.0804279528325313 0.7111428724090038 0 4 0.0298415518297304 1 -0.964238 0.258241 0.059644 0 0 0
771 1 -11.639062436059561 2.691412527142975 5.52960362652098e-19 0 4 0.0298415518297304 1 -0.974307 0.225222 -0 0 0 0
333 1 -2.76480181326049e-19 11.794987974137706 1.9008536977816826 0 4 0.0298415518297304 1 0 0.98705 0.160411 0 0 0
4344 2 -9.3143761252782 3.466469931995912 1.0601253221184148 0 1 1.90985931710274 0 0 0 1 0 0 0
4368 2 -10.223189112454632 2.740938974994103 1.7061247258647487 0 1 1.90985931710274 0 0 0 1 0 0 0
4425 2 -10.137833136408751 2.26414837812257 0.6751931060446594 0 1 1.90985931710274 0 0 0 1 0 0 0
4385 2 -8.504919331024295 3.546511991963562 0.30268666476183975 0 1 1.90985931710274 0 0 0 1 0 0 0
4360 2 -3.839249113621097 3.365591370220857 0.4221893019264922 0 1 1.90985931710274 0 0 0 1 0 0 0
4421 2 -0.533532428326545 2.012227115773552 0.04584280609100588 0 1 1.90985931710274 0 0 0 1 0 0 0
768 1 -11.07989365716363 4.2327990080513676 1.423347517251903 0 4 0.0298415518297304 1 -0.927636 0.354065 0.118867 0 0 0
769 1 -11.279869072120212 3.86648581940601 0.7152375895268429 0 4 0.0298415518297304 1 -0.944241 0.323807 0.059642 0 0 0
3226 2 -1.522202315982177 13.016627890230598 13.797278513027276 0 1 1.90985931710274 0 0 0 1 0 0 0
3036 2 -0.5541454232976673 14.333420636108348 13.518689073035747 0 1 1.90985931710274 0 0 0 1 0 0 0
767 1 -10.76190507047654 4.98783925556015 1.4192693658356634 0 4 0.0298415518297304 1 -0.900842 0.417556 0.118869 0 0 0
778 1 -9.553842441772057 7.044985182758772 1.3686009819231013 0 4 0.0298415518297304 1 -0.800437 0.588153 0.115657 0 0 0
779 1 -9.992199987587664 6.399635919207783 1.3963315588536618 0 4 0.0298415518297304 1 -0.836362 0.53584 0.115646 0 0 0
780 1 -10.25069844397294 6.095336996791155 0.7040841837917592 0 4 0.0298415518297304 1 -0.858483 0.50941 0.059226 0 0 0
781 1 -10.64038312370757 5.383451567067813 0.7122045543855867 0 4 0.0298415518297304 1 -0.890774 0.450572 0.059223 0 0 0
3199 2 -3.3735438380366105 14.210458118676653 13.366426598486635 0 1 1.90985931710274 0 0 0 1 0 0 0
3105 2 -4.2701770122141305 12.571049717089208 12.87966111830618 0 1 1.90985931710274 0 0 0 1 0 0 0
4333 2 -5.6955863266498 7.097112628339494 1.4827825000635269 0 1 1.90985931710274 0 0 0 1 0 0 0
4387 2 -5.297776067288074 5.420531089336784 0.811416483338741 0 1 1.90985931710274 0 0 0 1 0 0 0
3100 2 -8.646922893409059 13.506946473955436 14.296941769034634 0 1 1.90985931710274 0 0 0 1 0 0 0
4395 2 -3.089924449810427 5.977473138545578 0.5995200480310187 0 1 1.90985931710274 0 0 0 1 0 0 0
4416 2 -2.3903398950369663 7.088424113727665 1.6880614208515752 0 1 1.90985931710274 0 0 0 1 0 0 0
4413 2 -0.18751575732328618 5.542962667533583 1.607243236973968 0 1 1.90985931710274 0 0 0 1 0 0 0
3026 2 -12.602290096775334 7.384063496978664 0.4247377204070375 0 1 1.90985931710274 0 0 0 1 0 0 0
3080 2 -11.548624002554368 7.775111068741003 0.21075033003882382 0 1 1.90985931710274 0 0 0 1 0 0 0
3085 2 -11.092607377882183 8.854423934154118 1.1306713282284893 0 1 1.90985931710274 0 0 0 1 0 0 0
794 1 -9.376631494888152 7.375600354702212 0.6851437658954604 0 4 0.0298415518297304 1 -0.783847 0.618377 0.056516 0 0 0
3129 2 -9.991172890613456 8.458221459641551 0.8094901955300156 0 1 1.90985931710274 0 0 0 1 0 0 0
791 1 -8.131128066779423 8.669599745290057 1.2784715515496379 0 4 0.0298415518297304 1 -0.683456 0.721864 0.108633 0 0 0
792 1 -8.630639292972145 8.162830137834208 1.321444919037123 0 4 0.0298415518297304 1 -0.720284 0.685123 0.10862 0 0 0
793 1 -8.896439356475284 7.952522696613374 0.6656915704953396 0 4 0.0298415518297304 1 -0.74655 0.662924 0.056523 0 0 0
809 1 -7.9566467609051275 8.9006657194245 0.6393586009192921 0 4 0.0298415518297304 1 -0.661356 0.748244 0.052342 0 0 0
810 1 -8.177547707543587 8.719731403206659 0 0 4 0.0298415518297304 1 -0.68776 0.725938 0 0 0 0
811 1 -8.678946313796224 8.20676990975919 4.259964598186824e-05 0 4 0.0298415518297304 1 -0.724369 0.689412 0 0 0 0
4364 2 -7.689185438808865 7.233030379109946 0.5602633670441185 0 1 1.90985931710274 0 0 0 1 0 0 0
4433 2 -6.7871563368170245 7.845396325265743 0.3948312842192372 0 1 1.90985931710274 0 0 0 1 0 0 0
4399 2 -5.108332928310356 8.353493887861195 0.988913283064699 0 1 1.90985931710274 0 0 0 1 0 0 0
4386 2 -2.426839830525851 8.92683934171475 0.5345156842605902 0 1 1.90985931710274 0 0 0 1 0 0 0
4414 2 -3.005220137796569 8.011746146039144 0.36242176158566924 0 1 1.90985931710274 0 0 0 1 0 0 0
3160 2 -9.745172397025637 10.030981190133792 0.4747065786025253 0 1 1.90985931710274 0 0 0 1 0 0 0
3208 2 -10.091835376959583 9.988359440273433 1.658306675591751 0 1 1.90985931710274 0 0 0 1 0 0 0
225 1 -7.246032847391109 9.33984966043232 1.7891570029506303 0 4 0.0298415518297304 1 -0.604243 0.783541 0.144752 0 0 0
808 1 -7.430419130501573 9.348906162508925 0.6155775977841709 0 4 0.0298415518297304 1 -0.627009 0.777251 0.052348 0 0 0
828 1 -7.2736816536149265 9.493528896893935 4.423682901216784e-18 0 4 0.0298415518297304 1 -0.600588 0.799559 0 0 0 0
3045 2 -8.406321975413837 10.43232121964166 1.0394925173557503 0 1 1.90985931710274 0 0 0 1 0 0 0
203 1 -6.106168118875939 10.16733844680462 1.5271061926927691 0 4 0.0298415518297304 1 -0.511338 0.84874 0.134812 0 0 0
222 1 -6.417728021582561 10.08337967517057 0.4865794786618666 0 4 0.0298415518297304 1 -0.538863 0.840898 0.050161 0 0 0
223 1 -6.570502549743725 9.928117389224152 1.1377675643454386 0 4 0.0298415518297304 1 -0.547371 0.832448 0.086106 0 0 0
224 1 -7.102193318178118 9.551761345313452 1.14665875491715 0 4 0.0298415518297304 1 -0.596039 0.796392 0.102459 0 0 0
342 1 -5.575087225059108 10.49556439859258 1.324251409088832 0 4 0.0298415518297304 1 -0.461227 0.87971 0.115671 0 0 0
362 1 -5.432734791968485 10.631296536123939 0.7031792711430755 0 4 0.0298415518297304 1 -0.461265 0.885665 0.053217 0 0 0
363 1 -5.931148609750038 10.38410240725975 0.3007226119801671 0 4 0.0298415518297304 1 -0.488703 0.871899 0.031001 0 0 0
3214 2 -0.7406694020660026 12.54905087403403 13.188532482617703 0 1 1.90985931710274 0 0 0 1 0 0 0
341 1 -5.061730274197689 10.689822936524607 1.745118796613131 0 4 0.0298415518297304 1 -0.427143 0.892995 0.141803 0 0 0
4409 2 -3.341399940312985 10.284766101756405 1.5151949002233744 0 1 1.90985931710274 0 0 0 1 0 0 0
4380 2 -1.0126071685062499 10.426854915474191 0.05655837471699954 0 1 1.90985931710274 0 0 0 1 0 0 0
340 1 -4.527409841300541 10.975640721862607 1.3942285429139425 0 4 0.0298415518297304 1 -0.374767 0.919379 0.119553 0 0 0
359 1 -3.8619611313205353 11.308090336798315 0.3522053557303874 0 4 0.0298415518297304 1 -0.318484 0.947429 0.030774 0 0 0
360 1 -4.422370927131481 11.08496819773124 0.7106141284784225 0 4 0.0298415518297304 1 -0.374801 0.925344 0.057112 0 0 0
361 1 -4.959509308734032 10.876011960372498 0.32822608597127106 0 4 0.0298415518297304 1 -0.408879 0.912063 0.03097 0 0 0
336 1 -2.0629124085374824 11.674634439008784 1.4926796990507116 0 4 0.0298415518297304 1 -0.170648 0.977384 0.124901 0 0 0
338 1 -3.3506158090440947 11.423069929612852 1.4490006753052767 0 4 0.0298415518297304 1 -0.277359 0.9529 0.122693 0 0 0
356 1 -2.0167350080379154 11.756097880475448 0.7363147481133524 0 4 0.0298415518297304 1 -0.170666 0.983303 0.063153 0 0 0
357 1 -2.6502621255199252 11.648741412035173 0.3678117563873662 0 4 0.0298415518297304 1 -0.218543 0.97535 0.030501 0 0 0
358 1 -3.276131940429869 11.472097285570149 0.7237953884855253 0 4 0.0298415518297304 1 -0.277386 0.958848 0.060552 0 0 0
334 1 -0.6968056081181138 11.83119651802187 1.5137182198694838 0 4 0.0298415518297304 1 -0.05763 0.99035 0.126041 0 0 0
354 1 -0.6812230974745015 11.906795768543468 0.7436907815813955 0 4 0.0298415518297304 1 -0.057636 0.996248 0.064561 0 0 0
355 1 -1.3496076122842269 11.86812127662825 0.3768687790293372 0 4 0.0298415518297304 1 -0.111273 0.993329 0.030269 0 0 0
3091 2 -13.331100635406012 13.632478731163951 0.23663267251625264 0 1 1.90985931710274 0 0 0 1 0 0 0
3115 2 -13.6111718523653 13.454951296410885 1.4468127777416093 0 1 1.90985931710274 0 0 0 1 0 0 0
3084 2 -12.108378103370418 13.946770653394369 1.5396735991326302 0 1 1.90985931710274 0 0 0 1 0 0 0
3110 2 -2.7571390129868245 13.031418730419029 1.0062881526263876 0 1 1.90985931710274 0 0 0 1 0 0 0
740 1 -11.379342313562363 1.4521994712227135 3.3517287379160643 0 4 0.0298415518297304 1 -0.9529 0.122693 0.277359 0 0 0
741 1 -11.472097285570149 0.7237953884855253 3.276131940429869 0 4 0.0298415518297304 1 -0.958848 0.060552 0.277386 0 0 0
742 1 -11.648741412035173 0.3678117563873662 2.6502621255199252 0 4 0.0298415518297304 1 -0.97535 0.030501 0.218543 0 0 0
749 1 -11.674634439008784 1.4926796990507116 2.0629124085374824 0 4 0.0298415518297304 1 -0.977384 0.124901 0.170648 0 0 0
750 1 -11.756097880475448 0.7363147481133524 2.0167350080379154 0 4 0.0298415518297304 1 -0.983303 0.063153 0.170666 0 0 0
4338 2 -5.68005896272334 0.022302504233018626 2.395191490905547 0 1 1.90985931710274 0 0 0 1 0 0 0
4356 2 -6.4781929619417555 0.8033182793595893 2.364651160839214 0 1 1.90985931710274 0 0 0 1 0 0 0
4341 2 -4.496861140133042 0.8012977839482325 1.8154408179171106 0 1 1.90985931710274 0 0 0 1 0 0 0
4345 2 -3.226034865107323 1.181348141238324 3.328469792510532 0 1 1.90985931710274 0 0 0 1 0 0 0
4403 2 -0.41379168203575195 0.23062661135867435 3.059997721886368 0 1 1.90985931710274 0 0 0 1 0 0 0
4417 2 -0.5690174275558243 1.0629072181391062 2.3656246488466213 0 1 1.90985931710274 0 0 0 1 0 0 0
746 1 -11.06193314522361 2.963422670948167 3.412019013526081 0 4 0.0298415518297304 1 -0.925869 0.246557 0.286314 0 0 0
747 1 -11.325622741883521 2.616436136241011 2.7661375647652378 0 4 0.0298415518297304 1 -0.948027 0.220102 0.229781 0 0 0
748 1 -11.48537574342067 1.8548371467004798 2.726875306230269 0 4 0.0298415518297304 1 -0.960798 0.155112 0.229798 0 0 0
757 1 -11.360997099847129 3.039448746477639 2.103550570471817 0 4 0.0298415518297304 1 -0.950927 0.254167 0.176454 0 0 0
4384 2 -10.191927068558025 1.975394745270366 2.861219759052487 0 1 1.90985931710274 0 0 0 1 0 0 0
4394 2 -6.353831771074395 3.1351935526423187 2.773705259450013 0 1 1.90985931710274 0 0 0 1 0 0 0
4348 2 -5.282251898420422 3.241879247954735 2.02183637522638 0 1 1.90985931710274 0 0 0 1 0 0 0
745 1 -10.828792332517375 3.7071227937142512 3.4315134233143305 0 4 0.0298415518297304 1 -0.905904 0.312038 0.286305 0 0 0
755 1 -10.852187900093165 4.148160133050597 2.787820095153561 0 4 0.0298415518297304 1 -0.908815 0.346156 0.232877 0 0 0
756 1 -11.123083633229703 3.8114019686846525 2.115633286578001 0 4 0.0298415518297304 1 -0.930931 0.319741 0.176449 0 0 0
3064 2 -12.050873743963518 4.585343205159779 3.4258591204179805 0 1 1.90985931710274 0 0 0 1 0 0 0
753 1 -10.215155116265121 5.172463522025751 3.4183554655301926 0 4 0.0298415518297304 1 -0.856072 0.431545 0.284445 0 0 0
754 1 -10.54382301778774 4.884105722525149 2.7798204017072834 0 4 0.0298415518297304 1 -0.882039 0.409603 0.232881 0 0 0
766 1 -10.492772653721886 5.310097654165997 2.1070288296765565 0 4 0.0298415518297304 1 -0.878746 0.443955 0.17524 0 0 0
4353 2 -8.509677841618217 4.960955922627075 2.109283593250762 0 1 1.90985931710274 0 0 0 1 0 0 0
4362 2 -8.109861379580966 3.836815382682504 3.565848744849948 0 1 1.90985931710274 0 0 0 1 0 0 0
4426 2 -8.922444197596121 3.694431001990896 2.2693624609687024 0 1 1.90985931710274 0 0 0 1 0 0 0
4427 2 -3.4805328303561947 5.080508203453704 2.3479154464089067 0 1 1.90985931710274 0 0 0 1 0 0 0
3113 2 -12.421373728647358 5.729498623867672 3.5130013439436443 0 1 1.90985931710274 0 0 0 1 0 0 0
3172 2 -11.442826861415417 6.439834191088684 2.467775627472724 0 1 1.90985931710274 0 0 0 1 0 0 0
230 1 -8.996025895892759 7.142375312258343 3.2975402454766938 0 4 0.0298415518297304 1 -0.7541 0.59604 0.275807 0 0 0
752 1 -9.85282733924287 5.854617017001387 3.383586720413358 0 4 0.0298415518297304 1 -0.823738 0.490447 0.284461 0 0 0
763 1 -9.37289470523265 6.909457866036755 2.6877540399909075 0 4 0.0298415518297304 1 -0.784369 0.577333 0.226831 0 0 0
764 1 -9.79413632702012 6.274706368145702 2.737132063013731 0 4 0.0298415518297304 1 -0.820451 0.524802 0.226809 0 0 0
765 1 -10.113173319118141 6.011561039835598 2.0830139269438743 0 4 0.0298415518297304 1 -0.846422 0.502849 0.175251 0 0 0
4335 2 -7.467891378857609 6.598939540164512 2.5676655449515415 0 1 1.90985931710274 0 0 0 1 0 0 0
4396 2 -3.4590669329974 7.094175112699713 2.674789144102302 0 1 1.90985931710274 0 0 0 1 0 0 0
4404 2 -0.7552914182453918 6.051051549694723 2.48173971922132 0 1 1.90985931710274 0 0 0 1 0 0 0
3058 2 -11.80812930903608 8.835713030604479 2.36854936950847 0 1 1.90985931710274 0 0 0 1 0 0 0
3157 2 -10.886062909450834 7.414930859838952 2.592813313286035 0 1 1.90985931710274 0 0 0 1 0 0 0
777 1 -9.255835233925785 7.28208785979175 2.02877540751461 0 4 0.0298415518297304 1 -0.774346 0.610208 0.167433 0 0 0
207 1 -7.444239992366906 8.850031126127387 3.015399555322699 0 4 0.0298415518297304 1 -0.623858 0.738752 0.255043 0 0 0
226 1 -7.778922635537865 8.887274502417357 1.848351927259901 0 4 0.0298415518297304 1 -0.652682 0.740883 0.158426 0 0 0
227 1 -7.906844018523753 8.610159610496206 2.492570003313927 0 4 0.0298415518297304 1 -0.659732 0.722546 0.206595 0 0 0
228 1 -8.421148108100308 8.08213718829916 2.572094274093865 0 4 0.0298415518297304 1 -0.706291 0.673906 0.216805 0 0 0
229 1 -8.519520450007567 7.737155463213315 3.2201579666754445 0 4 0.0298415518297304 1 -0.711194 0.649239 0.269616 0 0 0
776 1 -8.788959806380333 7.8548174342616175 1.976962086269973 0 4 0.0298415518297304 1 -0.736792 0.655055 0.167452 0 0 0
4381 2 -4.777364984428985 7.384282070510964 2.0441930795664423 0 1 1.90985931710274 0 0 0 1 0 0 0
4346 2 -0.4505890665379013 8.821784697500267 2.669388886970559 0 1 1.90985931710274 0 0 0 1 0 0 0
4379 2 -1.5208369733304572 7.183871235013385 3.3901028699529796 0 1 1.90985931710274 0 0 0 1 0 0 0
3158 2 -8.978475524394376 9.114113503730698 3.1669792018377887 0 1 1.90985931710274 0 0 0 1 0 0 0
186 1 -5.710312428807246 10.165746059644487 2.63849077709189 0 4 0.0298415518297304 1 -0.47691 0.849516 0.225565 0 0 0
187 1 -5.7687017515614585 9.931604703079781 3.309267907455417 0 4 0.0298415518297304 1 -0.483981 0.831166 0.273726 0 0 0
188 1 -6.3671283268970695 9.515722686147727 3.4268197334280326 0 4 0.0298415518297304 1 -0.532402 0.795275 0.289976 0 0 0
204 1 -6.211528291683313 9.979208801255677 2.184302998367814 0 4 0.0298415518297304 1 -0.519552 0.835883 0.177101 0 0 0
205 1 -6.783319053141226 9.581412179409126 2.2559092717178135 0 4 0.0298415518297304 1 -0.568207 0.799826 0.193441 0 0 0
206 1 -6.8797784902812955 9.327338261728201 2.9195443775880694 0 4 0.0298415518297304 1 -0.575225 0.781589 0.241321 0 0 0
306 1 -4.627224043334814 10.426911840880612 3.566604096775424 0 4 0.0298415518297304 1 -0.385995 0.871859 0.301445 0 0 0
322 1 -4.597576101275517 10.65540007802271 2.861937509150159 0 4 0.0298415518297304 1 -0.386006 0.891718 0.236303 0 0 0
323 1 -5.140432586494049 10.517951734564901 2.4208158069392542 0 4 0.0298415518297304 1 -0.427117 0.88029 0.206546 0 0 0
4391 2 -2.6706815996385727 10.119861338055461 3.3817136824820127 0 1 1.90985931710274 0 0 0 1 0 0 0
4392 2 -2.914577560799387 9.61924782996677 2.4278403924366225 0 1 1.90985931710274 0 0 0 1 0 0 0
3035 2 -10.199274353461728 12.430403368735314 2.526192334446767 0 1 1.90985931710274 0 0 0 1 0 0 0
3228 2 -8.819493093590118 11.930086030901846 3.1132373673261338 0 1 1.90985931710274 0 0 0 1 0 0 0
321 1 -4.017420313103844 10.967922118238022 2.5293110254501143 0 4 0.0298415518297304 1 -0.333881 0.917967 0.214148 0 0 0
339 1 -3.9920119015102875 11.171818257752058 1.818535690764252 0 4 0.0298415518297304 1 -0.333904 0.930733 0.149145 0 0 0
318 1 -2.103550570471817 11.360997099847129 3.039448746477639 0 4 0.0298415518297304 1 -0.176454 0.950927 0.254167 0 0 0
319 1 -2.7661375647652378 11.325622741883521 2.616436136241011 0 4 0.0298415518297304 1 -0.229781 0.948027 0.220102 0 0 0
320 1 -3.412019013526081 11.06193314522361 2.963422670948167 0 4 0.0298415518297304 1 -0.286314 0.925869 0.246557 0 0 0
337 1 -2.726875306230269 11.48537574342067 1.8548371467004798 0 4 0.0298415518297304 1 -0.229798 0.960798 0.155112 0 0 0
316 1 -0.7111428724090038 11.52006018579294 3.0804279528325313 0 4 0.0298415518297304 1 -0.059644 0.964238 0.258241 0 0 0
317 1 -1.4115491063592356 11.558231437056955 2.672170851459992 0 4 0.0298415518297304 1 -0.117222 0.967535 0.22391 0 0 0
335 1 -1.3914885773027972 11.715167821109105 1.8888478978032397 0 4 0.0298415518297304 1 -0.117231 0.980288 0.159038 0 0 0
3069 2 -12.164723130224814 14.092006311555005 2.922390304958247 0 1 1.90985931710274 0 0 0 1 0 0 0
3175 2 -10.691659072406637 13.467889755490273 1.969052707688983 0 1 1.90985931710274 0 0 0 1 0 0 0
3212 2 -9.848464167949091 14.140535585823223 2.24896074817442 0 1 1.90985931710274 0 0 0 1 0 0 0
3057 2 -8.882347362223287 13.11410263236558 3.5041043056523034 0 1 1.90985931710274 0 0 0 1 0 0 0
3196 2 -7.5693703573461635 13.542106083025631 2.501517411750049 0 1 1.90985931710274 0 0 0 1 0 0 0
3024 2 -5.2537293215311855 13.837531025372046 2.4192614279780944 0 1 1.90985931710274 0 0 0 1 0 0 0
3025 2 -4.0447433780180635 12.889731650419565 1.8623366016483143 0 1 1.90985931710274 0 0 0 1 0 0 0
3154 2 -5.28795926200929 12.556801409891436 3.017114045350331 0 1 1.90985931710274 0 0 0 1 0 0 0
3104 2 -1.9920832807393634 13.23299861353476 2.230291678703759 0 1 1.90985931710274 0 0 0 1 0 0 0
730 1 -10.876011960372498 0.3282260859712711 4.959509308734032 0 4 0.0298415518297304 1 -0.912063 0.03097 0.408879 0 0 0
733 1 -10.975640721862607 1.3942285429139425 4.527409841300541 0 4 0.0298415518297304 1 -0.919379 0.119553 0.374767 0 0 0
734 1 -11.08496819773124 0.7106141284784225 4.422370927131481 0 4 0.0298415518297304 1 -0.925344 0.057112 0.374801 0 0 0
735 1 -11.308090336798315 0.3522053557303874 3.8619611313205353 0 4 0.0298415518297304 1 -0.947429 0.030774 0.318484 0 0 0
732 1 -10.689822936524607 1.745118796613131 5.061730274197689 0 4 0.0298415518297304 1 -0.892995 0.141803 0.427143 0 0 0
4401 2 -9.286909653284688 1.0234852442512512 4.977918130812483 0 1 1.90985931710274 0 0 0 1 0 0 0
4393 2 -6.171841149991339 0.4015780955630337 4.5660561278985625 0 1 1.90985931710274 0 0 0 1 0 0 0
4358 2 -2.264092779771662 0.259248377673158 4.188287552768731 0 1 1.90985931710274 0 0 0 1 0 0 0
3027 2 -13.599857641257707 2.7052393817442404 4.425392975451571 0 1 1.90985931710274 0 0 0 1 0 0 0
738 1 -10.967922118238022 2.5293110254501143 4.017420313103844 0 4 0.0298415518297304 1 -0.917967 0.214148 0.333881 0 0 0
739 1 -11.13171558938183 1.8043773161599217 3.960234221833683 0 4 0.0298415518297304 1 -0.930733 0.149145 0.333904 0 0 0
3090 2 -12.378882835388282 2.3465916291404394 3.862354963339344 0 1 1.90985931710274 0 0 0 1 0 0 0
731 1 -10.517951734564901 2.4208158069392542 5.140432586494049 0 4 0.0298415518297304 1 -0.88029 0.206546 0.427117 0 0 0
736 1 -10.426911840880612 3.566604096775424 4.627224043334814 0 4 0.0298415518297304 1 -0.871859 0.301445 0.385995 0 0 0
737 1 -10.65540007802271 2.861937509150159 4.597576101275517 0 4 0.0298415518297304 1 -0.891718 0.236303 0.386006 0 0 0
4339 2 -9.168700743109405 2.601664560231491 4.843679810665659 0 1 1.90985931710274 0 0 0 1 0 0 0
4375 2 -9.470380836622954 2.790868878007579 3.7627746734206013 0 1 1.90985931710274 0 0 0 1 0 0 0
4407 2 -7.211949850095858 3.0441734389101907 3.723645763582688 0 1 1.90985931710274 0 0 0 1 0 0 0
4377 2 -3.4280208004851502 2.6998082460862314 4.031725971270138 0 1 1.90985931710274 0 0 0 1 0 0 0
4405 2 -0.6018055994434999 2.588784153091982 3.620879016934964 0 1 1.90985931710274 0 0 0 1 0 0 0
3031 2 -14.193224335521656 4.3677676465238 4.751281832812572 0 1 1.90985931710274 0 0 0 1 0 0 0
3120 2 -13.08236764321282 3.728154522153753 4.604851838136161 0 1 1.90985931710274 0 0 0 1 0 0 0
3096 2 -11.813543666305833 3.9398923978668687 4.347672948452724 0 1 1.90985931710274 0 0 0 1 0 0 0
234 1 -9.830129370841252 4.958664267611715 4.6471478823731145 0 4 0.0298415518297304 1 -0.822871 0.415996 0.38708 0 0 0
235 1 -9.765930954750743 4.474010090314408 5.236891991858055 0 4 0.0298415518297304 1 -0.816671 0.373095 0.440282 0 0 0
236 1 -10.059100048941238 3.7939239923523522 5.222355621366762 0 4 0.0298415518297304 1 -0.841358 0.320296 0.435348 0 0 0
743 1 -10.206998193417988 4.725745922084348 4.03736240898212 0 4 0.0298415518297304 1 -0.85314 0.397289 0.338104 0 0 0
744 1 -10.502245767290724 4.018942358833174 4.045510343949046 0 4 0.0298415518297304 1 -0.879824 0.334064 0.338099 0 0 0
4429 2 -5.511333442861187 3.7984198320220575 4.026434794717078 0 1 1.90985931710274 0 0 0 1 0 0 0
4355 2 -2.803739888163446 3.7108407632885463 5.230099216289023 0 1 1.90985931710274 0 0 0 1 0 0 0
4369 2 -2.876962577570186 4.775493241539943 5.003589519255317 0 1 1.90985931710274 0 0 0 1 0 0 0
4357 2 -1.5637397214736914 3.644723191668815 3.945424377759208 0 1 1.90985931710274 0 0 0 1 0 0 0
3092 2 -12.369598939497283 5.533959601860271 5.2549411625310345 0 1 1.90985931710274 0 0 0 1 0 0 0
3093 2 -12.504974484185666 7.005206291502512 4.614553282730304 0 1 1.90985931710274 0 0 0 1 0 0 0
3219 2 -10.829765221385298 6.474072177289793 3.883729709549014 0 1 1.90985931710274 0 0 0 1 0 0 0
213 1 -9.030104738562834 5.819635519704458 5.229067623256141 0 4 0.0298415518297304 1 -0.755998 0.4875 0.436819 0 0 0
231 1 -9.050444772702892 6.734332239905998 3.9404487203291834 0 4 0.0298415518297304 1 -0.755891 0.564703 0.33127 0 0 0
232 1 -9.472968743546604 6.089382005172075 3.9982103829107847 0 4 0.0298415518297304 1 -0.793559 0.509098 0.333291 0 0 0
233 1 -9.471464327594123 5.632089492713752 4.621672847602975 0 4 0.0298415518297304 1 -0.791512 0.471446 0.388906 0 0 0
211 1 -8.599454995390728 6.947090881314812 4.532261116183702 0 4 0.0298415518297304 1 -0.720381 0.580747 0.379189 0 0 0
212 1 -8.591918993333321 6.484890297575802 5.182674844411291 0 4 0.0298415518297304 1 -0.718335 0.543095 0.434791 0 0 0
4389 2 -6.803387852105639 5.400787660519608 3.82970035301485 0 1 1.90985931710274 0 0 0 1 0 0 0
4400 2 -6.145846348181424 6.779808114800797 4.893393457032591 0 1 1.90985931710274 0 0 0 1 0 0 0
4418 2 -5.858457013324589 5.58160305364035 5.261606533374625 0 1 1.90985931710274 0 0 0 1 0 0 0
4422 2 -2.309004128215199 5.715411497174589 4.9921014301347855 0 1 1.90985931710274 0 0 0 1 0 0 0
3151 2 -14.089675938720172 7.543091930072945 4.013870735987362 0 1 1.90985931710274 0 0 0 1 0 0 0
3126 2 -12.1548328249798 8.111802564490484 4.869201391578075 0 1 1.90985931710274 0 0 0 1 0 0 0
192 1 -7.578527615711209 7.746829429466787 5.027747336910463 0 4 0.0298415518297304 1 -0.634573 0.647794 0.421521 0 0 0
208 1 -7.521794481100211 8.521952334138087 3.6863335632185215 0 4 0.0298415518297304 1 -0.628735 0.714242 0.307492 0 0 0
209 1 -8.042405248060108 7.931270661784313 3.759870981402832 0 4 0.0298415518297304 1 -0.675536 0.665346 0.317751 0 0 0
210 1 -8.103352022611611 7.567008598743931 4.452551263255395 0 4 0.0298415518297304 1 -0.677324 0.634131 0.372974 0 0 0
3138 2 -8.48494921204089 8.776438233261437 4.31987200523978 0 1 1.90985931710274 0 0 0 1 0 0 0
174 1 -5.844040723021723 8.963339986921262 5.315532000828298 0 4 0.0298415518297304 1 -0.490205 0.749777 0.444447 0 0 0
190 1 -6.999619942319504 8.709186563023858 4.233482399091309 0 4 0.0298415518297304 1 -0.585913 0.727926 0.356132 0 0 0
191 1 -7.021482536804528 8.321548324326256 4.917931978313914 0 4 0.0298415518297304 1 -0.587705 0.69676 0.411251 0 0 0
4398 2 -5.263473210138908 7.926779195361728 4.4684764445458285 0 1 1.90985931710274 0 0 0 1 0 0 0
4428 2 -4.32135998930749 8.587045709004844 3.8115792444277137 0 1 1.90985931710274 0 0 0 1 0 0 0
4336 2 -2.5240260518338307 8.477518828813604 4.646809870258071 0 1 1.90985931710274 0 0 0 1 0 0 0
4363 2 -3.575363672728234 7.964604893721308 5.326348200492647 0 1 1.90985931710274 0 0 0 1 0 0 0
4370 2 -2.3462194739563973 7.175423214835217 4.909695735513193 0 1 1.90985931710274 0 0 0 1 0 0 0
173 1 -5.846719577457926 9.336112728622068 4.629649181325049 0 4 0.0298415518297304 1 -0.488399 0.781003 0.389231 0 0 0
189 1 -6.413209013816228 9.207096031147115 4.109775397540957 0 4 0.0298415518297304 1 -0.53729 0.770758 0.342421 0 0 0
158 1 -4.6471478823731145 9.830129370841252 4.958664267611715 0 4 0.0298415518297304 1 -0.38708 0.822871 0.415996 0 0 0
171 1 -5.222355621366762 10.059100048941238 3.7939239923523522 0 4 0.0298415518297304 1 -0.435348 0.841358 0.320296 0 0 0
172 1 -5.236891991858055 9.765930954750743 4.474010090314408 0 4 0.0298415518297304 1 -0.440282 0.816671 0.373095 0 0 0
291 1 -4.03736240898212 10.206998193417988 4.725745922084348 0 4 0.0298415518297304 1 -0.338104 0.85314 0.397289 0 0 0
305 1 -4.045510343949046 10.502245767290724 4.018942358833174 0 4 0.0298415518297304 1 -0.338099 0.879824 0.334064 0 0 0
288 1 -2.1070288296765565 10.492772653721886 5.310097654165997 0 4 0.0298415518297304 1 -0.17524 0.878746 0.443955 0 0 0
289 1 -2.7798204017072834 10.54382301778774 4.884105722525149 0 4 0.0298415518297304 1 -0.232881 0.882039 0.409603 0 0 0
290 1 -3.4183554655301926 10.215155116265121 5.172463522025751 0 4 0.0298415518297304 1 -0.284445 0.856072 0.431545 0 0 0
287 1 -1.4192693658356634 10.76190507047654 4.98783925556015 0 4 0.0298415518297304 1 -0.118869 0.900842 0.417556 0 0 0
4365 2 -0.11471636589033807 9.285856481077104 5.19342746291208 0 1 1.90985931710274 0 0 0 1 0 0 0
3142 2 -13.952767443492968 12.476651213689484 4.8841844791072955 0 1 1.90985931710274 0 0 0 1 0 0 0
3169 2 -11.466473040861143 10.833812246788304 4.142095771055766 0 1 1.90985931710274 0 0 0 1 0 0 0
302 1 -2.115633286578001 11.123083633229703 3.8114019686846525 0 4 0.0298415518297304 1 -0.176449 0.930931 0.319741 0 0 0
303 1 -2.7880810011805632 10.854048871839328 4.1501467483516485 0 4 0.0298415518297304 1 -0.232877 0.908815 0.346156 0 0 0
304 1 -3.4332240450519462 10.830451572021142 3.7079655307944175 0 4 0.0298415518297304 1 -0.286305 0.905904 0.312038 0 0 0
300 1 -0.7152375895268429 11.279869072120212 3.86648581940601 0 4 0.0298415518297304 1 -0.059642 0.944241 0.323807 0 0 0
301 1 -1.423347517251903 11.07989365716363 4.2327990080513676 0 4 0.0298415518297304 1 -0.118867 0.927636 0.354065 0 0 0
3060 2 -9.16294505694403 12.817600422542409 4.516749532922988 0 1 1.90985931710274 0 0 0 1 0 0 0
3159 2 -10.448547865880192 13.250204151617607 4.392830237084615 0 1 1.90985931710274 0 0 0 1 0 0 0
3173 2 -8.370234769324757 14.22701995882389 4.7103339531338815 0 1 1.90985931710274 0 0 0 1 0 0 0
3221 2 -7.579627852282077 13.350952695123945 4.309054948162979 0 1 1.90985931710274 0 0 0 1 0 0 0
3118 2 -5.47743619922786 13.83935157735993 4.316184688327011 0 1 1.90985931710274 0 0 0 1 0 0 0
3132 2 -4.256433246692897 13.953764832481204 4.286465511618912 0 1 1.90985931710274 0 0 0 1 0 0 0
3123 2 -1.1689513546919414 13.683971692539943 4.6460145188494995 0 1 1.90985931710274 0 0 0 1 0 0 0
3063 2 -12.997610499203958 0.23325326114512768 6.6790300748364055 0 1 1.90985931710274 0 0 0 1 0 0 0
3075 2 -13.958195522821287 0.30372456058922426 6.163703814448197 0 1 1.90985931710274 0 0 0 1 0 0 0
3124 2 -11.531989096015627 0.3470452653792293 6.4676932287132995 0 1 1.90985931710274 0 0 0 1 0 0 0
101 1 -9.897522950485259 4.423682901216784e-18 6.718450883615759 0 4 0.0298415518297304 1 -0.821739 0 0.569865 0 0 0
221 1 -9.551761345313452 1.14665875491715 7.102193318178118 0 4 0.0298415518297304 1 -0.796392 0.102459 0.596039 0 0 0
240 1 -10.16733844680462 1.5271061926927691 6.106168118875939 0 4 0.0298415518297304 1 -0.84874 0.134812 0.511338 0 0 0
241 1 -9.928117389224152 1.1377675643454386 6.570502549743725 0 4 0.0298415518297304 1 -0.832448 0.086106 0.547371 0 0 0
242 1 -10.08337967517057 0.4865794786618666 6.417728021582561 0 4 0.0298415518297304 1 -0.840898 0.050161 0.538863 0 0 0
727 1 -10.38410240725975 0.3007226119801671 5.931148609750038 0 4 0.0298415518297304 1 -0.871899 0.031001 0.488703 0 0 0
728 1 -10.49556439859258 1.324251409088832 5.575087225059108 0 4 0.0298415518297304 1 -0.87971 0.115671 0.461227 0 0 0
729 1 -10.631296536123939 0.7031792711430755 5.432734791968485 0 4 0.0298415518297304 1 -0.885665 0.053217 0.461265 0 0 0
4334 2 -3.9546675701852614 0.8514098963008241 6.934483127977671 0 1 1.90985931710274 0 0 0 1 0 0 0
4406 2 -2.8276280083754344 0.2835492340537744 6.013954741762529 0 1 1.90985931710274 0 0 0 1 0 0 0
4354 2 -1.2821413134911506 0.7887221542271128 5.715034095087475 0 1 1.90985931710274 0 0 0 1 0 0 0
4382 2 -0.06260881624965187 0.10705729210305748 5.493558376093507 0 1 1.90985931710274 0 0 0 1 0 0 0
217 1 -9.515722686147727 3.4268197334280326 6.3671283268970695 0 4 0.0298415518297304 1 -0.795275 0.289976 0.532402 0 0 0
218 1 -9.327338261728201 2.9195443775880694 6.8797784902812955 0 4 0.0298415518297304 1 -0.781589 0.241321 0.575225 0 0 0
219 1 -9.581412179409126 2.2559092717178135 6.783319053141226 0 4 0.0298415518297304 1 -0.799826 0.193441 0.568207 0 0 0
237 1 -9.931604703079781 3.309267907455417 5.7687017515614585 0 4 0.0298415518297304 1 -0.831166 0.273726 0.483981 0 0 0
238 1 -10.165746059644487 2.63849077709189 5.710312428807246 0 4 0.0298415518297304 1 -0.849516 0.225565 0.47691 0 0 0
239 1 -9.979208801255677 2.184302998367814 6.211528291683313 0 4 0.0298415518297304 1 -0.835883 0.177101 0.519552 0 0 0
4423 2 -7.623276106320325 2.063827074299926 6.253537758855824 0 1 1.90985931710274 0 0 0 1 0 0 0
4361 2 -2.863062824337618 2.670047357664151 6.1096122613749735 0 1 1.90985931710274 0 0 0 1 0 0 0
3072 2 -12.96961315689502 4.52060206539687 5.963095125194949 0 1 1.90985931710274 0 0 0 1 0 0 0
215 1 -9.336112728622068 4.629649181325049 5.846719577457926 0 4 0.0298415518297304 1 -0.781003 0.389231 0.488399 0 0 0
216 1 -9.207096031147115 4.109775397540957 6.413209013816228 0 4 0.0298415518297304 1 -0.770758 0.342421 0.53729 0 0 0
197 1 -8.321548324326256 4.917931978313914 7.021482536804528 0 4 0.0298415518297304 1 -0.69676 0.411251 0.587705 0 0 0
198 1 -8.709186563023858 4.233482399091309 6.999619942319504 0 4 0.0298415518297304 1 -0.727926 0.356132 0.585913 0 0 0
214 1 -8.963339986921262 5.315532000828298 5.844040723021723 0 4 0.0298415518297304 1 -0.749777 0.444447 0.490205 0 0 0
4359 2 -6.000846294511871 4.202754138982694 7.080979882125682 0 1 1.90985931710274 0 0 0 1 0 0 0
4378 2 -4.313063539232993 4.520014111089704 5.649437084657553 0 1 1.90985931710274 0 0 0 1 0 0 0
4432 2 -4.038435284446028 4.104538315604149 6.6805183589330035 0 1 1.90985931710274 0 0 0 1 0 0 0
3156 2 -12.126480539357829 6.051669280298192 6.18798527473035 0 1 1.90985931710274 0 0 0 1 0 0 0
3227 2 -9.340641797300474 6.817492770946478 6.833753297430567 0 1 1.90985931710274 0 0 0 1 0 0 0
179 1 -7.413383296015549 6.256104902255907 6.971342485334068 0 4 0.0298415518297304 1 -0.620434 0.523931 0.583573 0 0 0
194 1 -8.070493389834603 6.651223165669366 5.774066719283829 0 4 0.0298415518297304 1 -0.67562 0.556751 0.483286 0 0 0
195 1 -7.9994657362479495 6.136607830526459 6.407584207931539 0 4 0.0298415518297304 1 -0.669396 0.513666 0.536709 0 0 0
196 1 -8.450912740693703 5.46289520267755 6.439296458190344 0 4 0.0298415518297304 1 -0.70702 0.458125 0.538743 0 0 0
178 1 -6.896660049020172 6.896660049020172 6.896660049020172 0 4 0.0298415518297304 1 -0.57735 0.57735 0.57735 0 0 0
4415 2 -6.854577895306456 6.082539584404287 5.514423082870632 0 1 1.90985931710274 0 0 0 1 0 0 0
4337 2 -3.3979577853673373 5.6997653311443095 6.056030542398432 0 1 1.90985931710274 0 0 0 1 0 0 0
4402 2 -0.7865365108819677 7.101495606785949 6.122443251470617 0 1 1.90985931710274 0 0 0 1 0 0 0
3034 2 -12.60741587721587 7.338353632901976 7.108590183513654 0 1 1.90985931710274 0 0 0 1 0 0 0
3217 2 -12.141150190915441 8.467081284187083 6.211091332308433 0 1 1.90985931710274 0 0 0 1 0 0 0
193 1 -7.5599552786647415 7.2872611811923225 5.696441317200801 0 4 0.0298415518297304 1 -0.632533 0.610173 0.477065 0 0 0
162 1 -5.774066719283829 8.070493389834603 6.651223165669366 0 4 0.0298415518297304 1 -0.483286 0.67562 0.556751 0 0 0
175 1 -6.439296458190344 8.450912740693703 5.46289520267755 0 4 0.0298415518297304 1 -0.538743 0.70702 0.458125 0 0 0
176 1 -6.407584207931539 7.9994657362479495 6.136607830526459 0 4 0.0298415518297304 1 -0.536709 0.669396 0.513666 0 0 0
177 1 -6.971342485334068 7.413383296015549 6.256104902255907 0 4 0.0298415518297304 1 -0.583573 0.620434 0.523931 0 0 0
149 1 -4.532261116183702 8.599454995390728 6.947090881314812 0 4 0.0298415518297304 1 -0.379189 0.720381 0.580747 0 0 0
161 1 -5.182724178684511 8.59102792524135 6.484504904312215 0 4 0.0298415518297304 1 -0.434791 0.718335 0.543095 0 0 0
4431 2 -4.607469760194141 7.373304417074895 6.1557197777634975 0 1 1.90985931710274 0 0 0 1 0 0 0
4342 2 -2.86165713646163 8.149527052236465 6.1535735117882195 0 1 1.90985931710274 0 0 0 1 0 0 0
4371 2 -0.22294285500478317 8.05918193461681 5.426561104712469 0 1 1.90985931710274 0 0 0 1 0 0 0
3150 2 -12.050556726439016 9.91345673946124 5.616750125064668 0 1 1.90985931710274 0 0 0 1 0 0 0
3201 2 -9.475374606068417 9.749601808111338 7.011942927263162 0 1 1.90985931710274 0 0 0 1 0 0 0
3059 2 -6.433957084461073 10.20547346275451 5.654744514996347 0 1 1.90985931710274 0 0 0 1 0 0 0
147 1 -3.9982103829107847 9.472968743546604 6.089382005172075 0 4 0.0298415518297304 1 -0.333291 0.793559 0.509098 0 0 0
148 1 -3.9404487203291834 9.050444772702892 6.734332239905998 0 4 0.0298415518297304 1 -0.33127 0.755891 0.564703 0 0 0
159 1 -4.621672847602975 9.471464327594123 5.632089492713752 0 4 0.0298415518297304 1 -0.388906 0.791512 0.471446 0 0 0
160 1 -5.229067623256141 9.030104738562834 5.819635519704458 0 4 0.0298415518297304 1 -0.436819 0.755998 0.4875 0 0 0
3137 2 -5.127562410383113 9.615580629101302 6.928617277104284 0 1 1.90985931710274 0 0 0 1 0 0 0
138 1 -3.2975402454766938 8.996025895892759 7.142375312258343 0 4 0.0298415518297304 1 -0.275807 0.7541 0.59604 0 0 0
267 1 -2.6877540399909075 9.37289470523265 6.909457866036755 0 4 0.0298415518297304 1 -0.226831 0.784369 0.577333 0 0 0
276 1 -2.0830139269438743 10.113173319118141 6.011561039835598 0 4 0.0298415518297304 1 -0.175251 0.846422 0.502849 0 0 0
277 1 -2.737132063013731 9.79413632702012 6.274706368145702 0 4 0.0298415518297304 1 -0.226809 0.820451 0.524802 0 0 0
278 1 -3.383586720413358 9.85282733924287 5.854617017001387 0 4 0.0298415518297304 1 -0.284461 0.823738 0.490447 0 0 0
265 1 -1.3686009819231013 9.553842441772057 7.044985182758772 0 4 0.0298415518297304 1 -0.115657 0.800437 0.588153 0 0 0
274 1 -0.7040841837917592 10.25069844397294 6.095336996791155 0 4 0.0298415518297304 1 -0.059226 0.858483 0.50941 0 0 0
275 1 -1.3963315588536618 9.992199987587664 6.399635919207783 0 4 0.0298415518297304 1 -0.115646 0.836362 0.53584 0 0 0
286 1 -0.7122045543855867 10.64038312370757 5.383451567067813 0 4 0.0298415518297304 1 -0.059223 0.890774 0.450572 0 0 0
3102 2 -14.25166223085398 11.643410037157318 6.733602503029763 0 1 1.90985931710274 0 0 0 1 0 0 0
3186 2 -6.816367184989647 12.083969879016932 6.340612637600339 0 1 1.90985931710274 0 0 0 1 0 0 0
3192 2 -0.4433320411629875 11.202824173665315 6.689246792941271 0 1 1.90985931710274 0 0 0 1 0 0 0
3185 2 -11.06081252377618 13.818867801357513 6.205431207675446 0 1 1.90985931710274 0 0 0 1 0 0 0
3155 2 -9.57250193270171 13.292981082358105 5.817355192657542 0 1 1.90985931710274 0 0 0 1 0 0 0
3141 2 -5.844635111970435 13.062435112899818 5.678936507202744 0 1 1.90985931710274 0 0 0 1 0 0 0
3223 2 -6.251035433475749 13.552603573057981 6.726268385463344 0 1 1.90985931710274 0 0 0 1 0 0 0
3139 2 -1.0392028045025192 13.084710726151608 6.950946430041041 0 1 1.90985931710274 0 0 0 1 0 0 0
3188 2 -12.515545428194184 1.545914340364229 7.692248501606185 0 1 1.90985931710274 0 0 0 1 0 0 0
82 1 -9.348906162508925 0.6155775977841709 7.430419130501573 0 4 0.0298415518297304 1 -0.777251 0.052348 0.627009 0 0 0
102 1 -9.493528896893935 0 7.2736816536149265 0 4 0.0298415518297304 1 -0.799559 0 0.600588 0 0 0
220 1 -9.33984966043232 1.7891570029506303 7.246032847391109 0 4 0.0298415518297304 1 -0.783541 0.144752 0.604243 0 0 0
65 1 -8.669599745290057 1.2784715515496379 8.131128066779423 0 4 0.0298415518297304 1 -0.721864 0.108633 0.683456 0 0 0
66 1 -8.162830137834208 1.321444919037123 8.630639292972145 0 4 0.0298415518297304 1 -0.685123 0.10862 0.720284 0 0 0
67 1 -7.952522696613374 0.6656915704953397 8.896439356475284 0 4 0.0298415518297304 1 -0.662924 0.056523 0.74655 0 0 0
83 1 -8.9006657194245 0.6393586009192921 7.9566467609051275 0 4 0.0298415518297304 1 -0.748244 0.052342 0.661356 0 0 0
84 1 -8.719731403206659 2.211841450608392e-18 8.177547707543587 0 4 0.0298415518297304 1 -0.725938 0 0.68776 0 0 0
85 1 -8.21217122543628 2.211841450608392e-18 8.684155977676964 0 4 0.0298415518297304 1 -0.689412 0 0.724369 0 0 0
4373 2 -5.438964107905258 1.601748123950235 8.142064574647812 0 1 1.90985931710274 0 0 0 1 0 0 0
4420 2 -6.490590817095496 0.7133950759885312 7.324464139274312 0 1 1.90985931710274 0 0 0 1 0 0 0
4343 2 -4.132582861104205 0.3263654216234375 8.098279225120141 0 1 1.90985931710274 0 0 0 1 0 0 0
4376 2 -5.239639366426692 0.6149707789573078 8.583590592416858 0 1 1.90985931710274 0 0 0 1 0 0 0
4390 2 -2.4519328218273646 0.3519575474764025 7.708734435900833 0 1 1.90985931710274 0 0 0 1 0 0 0
4366 2 -0.9377655734640022 0.6579087905061627 7.552006037074534 0 1 1.90985931710274 0 0 0 1 0 0 0
3179 2 -13.661314134650077 3.0453389361670116 8.96089815896966 0 1 1.90985931710274 0 0 0 1 0 0 0
3074 2 -11.222782030631308 2.2921791796065722 7.787323647637885 0 1 1.90985931710274 0 0 0 1 0 0 0
3106 2 -12.161960653950494 3.118757054069354 8.752163743636446 0 1 1.90985931710274 0 0 0 1 0 0 0
3122 2 -10.60289716308079 2.2000261011754976 8.829610456622811 0 1 1.90985931710274 0 0 0 1 0 0 0
50 1 -7.8548174342616175 1.976962086269973 8.788959806380333 0 4 0.0298415518297304 1 -0.655055 0.167452 0.736792 0 0 0
184 1 -7.737155463213315 3.2201579666754445 8.519520450007567 0 4 0.0298415518297304 1 -0.649239 0.269616 0.711194 0 0 0
185 1 -8.08213718829916 2.572094274093865 8.421148108100308 0 4 0.0298415518297304 1 -0.673906 0.216805 0.706291 0 0 0
200 1 -8.850031126127387 3.015399555322699 7.444239992366906 0 4 0.0298415518297304 1 -0.738752 0.255043 0.623858 0 0 0
201 1 -8.610159610496206 2.492570003313927 7.906844018523753 0 4 0.0298415518297304 1 -0.722546 0.206595 0.659732 0 0 0
202 1 -8.887274502417357 1.848351927259901 7.778922635537865 0 4 0.0298415518297304 1 -0.740883 0.158426 0.652682 0 0 0
4352 2 -5.4174507825440985 3.1241437813489146 8.400823131233473 0 1 1.90985931710274 0 0 0 1 0 0 0
4397 2 -2.003487538377822 3.3347664839507516 8.53504176029768 0 1 1.90985931710274 0 0 0 1 0 0 0
4347 2 -0.2516920917826191 3.2223194095254524 8.125723894262372 0 1 1.90985931710274 0 0 0 1 0 0 0
3079 2 -13.183425482605001 4.751569634166187 8.239773226157292 0 1 1.90985931710274 0 0 0 1 0 0 0
3204 2 -12.313489788262272 4.627986899578656 7.558641423387603 0 1 1.90985931710274 0 0 0 1 0 0 0
181 1 -7.746829429466787 5.027747336910463 7.578527615711209 0 4 0.0298415518297304 1 -0.647794 0.421521 0.634573 0 0 0
182 1 -7.567008598743931 4.452551263255395 8.103352022611611 0 4 0.0298415518297304 1 -0.634131 0.372974 0.677324 0 0 0
183 1 -7.967511654140036 3.7838070843487692 8.061162762905834 0 4 0.0298415518297304 1 -0.665346 0.317751 0.675536 0 0 0
199 1 -8.521952334138087 3.6863335632185215 7.521794481100211 0 4 0.0298415518297304 1 -0.714242 0.307492 0.628735 0 0 0
167 1 -6.484890297575802 5.182674844411291 8.591918993333321 0 4 0.0298415518297304 1 -0.543095 0.434791 0.718335 0 0 0
168 1 -6.947090881314812 4.532261116183702 8.599454995390728 0 4 0.0298415518297304 1 -0.580747 0.379189 0.720381 0 0 0
4350 2 -4.308824031326344 4.020689498139994 8.570545238886737 0 1 1.90985931710274 0 0 0 1 0 0 0
4419 2 -4.418329315924152 5.218877262778214 7.911629513463414 0 1 1.90985931710274 0 0 0 1 0 0 0
3166 2 -12.708195106735543 6.9063890957377705 8.457396064688846 0 1 1.90985931710274 0 0 0 1 0 0 0
3164 2 -10.020335322000385 6.243835139538033 8.937526215720615 0 1 1.90985931710274 0 0 0 1 0 0 0
180 1 -7.2872611811923225 5.696441317200801 7.5599552786647415 0 4 0.0298415518297304 1 -0.610173 0.477065 0.632533 0 0 0
153 1 -5.46289520267755 6.439296458190344 8.450912740693703 0 4 0.0298415518297304 1 -0.458125 0.538743 0.70702 0 0 0
164 1 -6.256104902255907 6.971342485334068 7.413383296015549 0 4 0.0298415518297304 1 -0.523931 0.583573 0.620434 0 0 0
165 1 -6.1461123165511236 6.4200960218233645 8.00952448860646 0 4 0.0298415518297304 1 -0.513666 0.536709 0.669396 0 0 0
166 1 -6.651223165669366 5.774066719283829 8.070493389834603 0 4 0.0298415518297304 1 -0.556751 0.483286 0.67562 0 0 0
4351 2 -5.589946228544267 5.688758426061196 7.421396138083862 0 1 1.90985931710274 0 0 0 1 0 0 0
142 1 -4.233482399091309 6.999619942319504 8.709186563023858 0 4 0.0298415518297304 1 -0.356132 0.585913 0.727926 0 0 0
152 1 -4.917931978313914 7.021482536804528 8.321548324326256 0 4 0.0298415518297304 1 -0.411251 0.587705 0.69676 0 0 0
154 1 -5.315532000828298 5.844040723021723 8.963339986921262 0 4 0.0298415518297304 1 -0.444447 0.490205 0.749777 0 0 0
4412 2 -2.3719171498036644 5.79098924980898 8.531439539578326 0 1 1.90985931710274 0 0 0 1 0 0 0
4367 2 -0.7681115827005947 5.840749551122215 7.737593711081505 0 1 1.90985931710274 0 0 0 1 0 0 0
3038 2 -10.033916956847516 7.586050263800802 8.487235700037262 0 1 1.90985931710274 0 0 0 1 0 0 0
3066 2 -7.979575998439538 7.478456226703406 8.323176204175132 0 1 1.90985931710274 0 0 0 1 0 0 0
3068 2 -7.318644872589511 8.424510388107533 8.249390923311866 0 1 1.90985931710274 0 0 0 1 0 0 0
163 1 -5.696441317200801 7.5599552786647415 7.2872611811923225 0 4 0.0298415518297304 1 -0.477065 0.632533 0.610173 0 0 0
140 1 -3.7838070843487692 8.061162762905834 7.967511654140036 0 4 0.0298415518297304 1 -0.317751 0.675536 0.665346 0 0 0
141 1 -3.6863335632185215 7.521794481100211 8.521952334138087 0 4 0.0298415518297304 1 -0.307492 0.628735 0.714242 0 0 0
150 1 -4.452551263255395 8.103352022611611 7.567008598743931 0 4 0.0298415518297304 1 -0.372974 0.677324 0.634131 0 0 0
151 1 -5.027747336910463 7.578527615711209 7.746829429466787 0 4 0.0298415518297304 1 -0.421521 0.634573 0.647794 0 0 0
126 1 -1.848351927259901 7.778922635537865 8.887274502417357 0 4 0.0298415518297304 1 -0.158426 0.652682 0.740883 0 0 0
131 1 -2.572094274093865 8.421148108100308 8.08213718829916 0 4 0.0298415518297304 1 -0.216805 0.706291 0.673906 0 0 0
132 1 -2.492570003313927 7.906844018523753 8.610159610496206 0 4 0.0298415518297304 1 -0.206595 0.659732 0.722546 0 0 0
133 1 -3.015399555322699 7.444239992366906 8.850031126127387 0 4 0.0298415518297304 1 -0.255043 0.623858 0.738752 0 0 0
139 1 -3.2201579666754445 8.519520450007567 7.737155463213315 0 4 0.0298415518297304 1 -0.269616 0.711194 0.649239 0 0 0
258 1 -1.976962086269973 8.788959806380333 7.8548174342616175 0 4 0.0298415518297304 1 -0.167452 0.736792 0.655055 0 0 0
250 1 -0.6393586009192921 7.9566467609051275 8.9006657194245 0 4 0.0298415518297304 1 -0.052342 0.661356 0.748244 0 0 0
251 1 -1.2784715515496379 8.131128066779423 8.669599745290057 0 4 0.0298415518297304 1 -0.108633 0.683456 0.721864 0 0 0
256 1 -0.6656915704953396 8.896439356475284 7.952522696613374 0 4 0.0298415518297304 1 -0.056523 0.74655 0.662924 0 0 0
257 1 -1.321444919037123 8.630639292972145 8.162830137834208 0 4 0.0298415518297304 1 -0.10862 0.720284 0.685123 0 0 0
3053 2 -13.421852274519978 9.5276621427339 8.014206928664168 0 1 1.90985931710274 0 0 0 1 0 0 0
3098 2 -10.074756351856795 10.024594342849161 7.935340265851783 0 1 1.90985931710274 0 0 0 1 0 0 0
3144 2 -8.52400903377234 9.856830264856427 8.661523969179889 0 1 1.90985931710274 0 0 0 1 0 0 0
3184 2 -8.925708162043609 9.225845656451941 7.848329460552286 0 1 1.90985931710274 0 0 0 1 0 0 0
3061 2 -6.949720994255985 9.491829539673562 8.498621293547822 0 1 1.90985931710274 0 0 0 1 0 0 0
266 1 -2.02877540751461 9.255835233925785 7.28208785979175 0 4 0.0298415518297304 1 -0.167433 0.774346 0.610208 0 0 0
264 1 -0.6851437658954603 9.376631494888152 7.375600354702212 0 4 0.0298415518297304 1 -0.056516 0.783847 0.618377 0 0 0
3101 2 -13.0101242543296 12.476843482412393 8.115644905096369 0 1 1.90985931710274 0 0 0 1 0 0 0
3218 2 -13.611289384073162 11.47959588238698 8.81412727795818 0 1 1.90985931710274 0 0 0 1 0 0 0
3056 2 -11.030974453278137 11.479603754365138 8.946431614876543 0 1 1.90985931710274 0 0 0 1 0 0 0
3210 2 -6.276778753343995 11.401036547482517 8.717709538653233 0 1 1.90985931710274 0 0 0 1 0 0 0
3095 2 -2.933095059230478 11.95083151336337 7.36943309812794 0 1 1.90985931710274 0 0 0 1 0 0 0
3071 2 -9.37435395139855 14.239198844585056 8.493208941026326 0 1 1.90985931710274 0 0 0 1 0 0 0
3198 2 -10.25388353562463 13.048886756873765 7.580468777351287 0 1 1.90985931710274 0 0 0 1 0 0 0
3215 2 -8.450545933446826 13.388702559228127 7.346952947093902 0 1 1.90985931710274 0 0 0 1 0 0 0
3044 2 -2.099683692936214 12.961792821051139 7.548483406482584 0 1 1.90985931710274 0 0 0 1 0 0 0
3207 2 -0.3372896257571867 13.989871898943028 8.414957535454262 0 1 1.90985931710274 0 0 0 1 0 0 0
3131 2 -12.705128336405663 1.047410030030182 10.04975271727074 0 1 1.90985931710274 0 0 0 1 0 0 0
3054 2 -11.42441892878749 0.10992386865019554 10.620444403821685 0 1 1.90985931710274 0 0 0 1 0 0 0
68 1 -7.375600354702212 0.6851437658954604 9.376631494888152 0 4 0.0298415518297304 1 -0.618377 0.056516 0.783847 0 0 0
52 1 -7.044985182758772 1.3686009819231013 9.553842441772057 0 4 0.0298415518297304 1 -0.588153 0.115657 0.800437 0 0 0
53 1 -6.399635919207783 1.3963315588536618 9.992199987587664 0 4 0.0298415518297304 1 -0.53584 0.115646 0.836362 0 0 0
54 1 -6.095336996791155 0.7040841837917592 10.25069844397294 0 4 0.0298415518297304 1 -0.50941 0.059226 0.858483 0 0 0
55 1 -5.383451567067813 0.7122045543855867 10.64038312370757 0 4 0.0298415518297304 1 -0.450572 0.059223 0.890774 0 0 0
69 1 -7.092140394247476 5.52960362652098e-19 9.61605526409717 0 4 0.0298415518297304 1 -0.591895 0 0.806015 0 0 0
70 1 -6.4430651044093965 1.105920725304196e-18 10.060931286493508 0 4 0.0298415518297304 1 -0.539676 0 0.841873 0 0 0
41 1 -4.98783925556015 1.4192693658356634 10.76190507047654 0 4 0.0298415518297304 1 -0.417556 0.118869 0.900842 0 0 0
4411 2 -2.8887544859401952 1.3866948031362387 10.45858431073314 0 1 1.90985931710274 0 0 0 1 0 0 0
4374 2 -1.5498830820244656 1.50979166362422 8.971813497060172 0 1 1.90985931710274 0 0 0 1 0 0 0
4388 2 -1.1494974120457055 1.6477104990015552 9.97902975432152 0 1 1.90985931710274 0 0 0 1 0 0 0
4410 2 -0.3600194197330264 0.30084654704329417 9.718958156649567 0 1 1.90985931710274 0 0 0 1 0 0 0
3170 2 -12.650419865744048 2.0976684397975323 10.570035677128457 0 1 1.90985931710274 0 0 0 1 0 0 0
51 1 -7.28208785979175 2.02877540751461 9.255835233925785 0 4 0.0298415518297304 1 -0.610208 0.167433 0.774346 0 0 0
26 1 -5.854617017001387 3.383586720413358 9.85282733924287 0 4 0.0298415518297304 1 -0.490447 0.284461 0.823738 0 0 0
37 1 -6.909457866036755 2.6877540399909075 9.37289470523265 0 4 0.0298415518297304 1 -0.577333 0.226831 0.784369 0 0 0
38 1 -6.274706368145702 2.737132063013731 9.79413632702012 0 4 0.0298415518297304 1 -0.524802 0.226809 0.820451 0 0 0
39 1 -6.011561039835598 2.0830139269438743 10.113173319118141 0 4 0.0298415518297304 1 -0.502849 0.175251 0.846422 0 0 0
170 1 -7.142375312258343 3.2975402454766938 8.996025895892759 0 4 0.0298415518297304 1 -0.59604 0.275807 0.7541 0 0 0
27 1 -5.172463522025751 3.4183554655301926 10.215155116265121 0 4 0.0298415518297304 1 -0.431545 0.284445 0.856072 0 0 0
28 1 -4.884105722525149 2.7798204017072834 10.54382301778774 0 4 0.0298415518297304 1 -0.409603 0.232881 0.882039 0 0 0
40 1 -5.310097654165997 2.1070288296765565 10.492772653721886 0 4 0.0298415518297304 1 -0.443955 0.17524 0.878746 0 0 0
4340 2 -1.8782850194526741 2.8666380589182996 9.583764239846506 0 1 1.90985931710274 0 0 0 1 0 0 0
3202 2 -10.60959490672524 4.4354246689087145 9.441292348711974 0 1 1.90985931710274 0 0 0 1 0 0 0
3200 2 -8.241076537307329 3.706281475717118 10.098782377637422 0 1 1.90985931710274 0 0 0 1 0 0 0
3216 2 -7.845351126777888 4.86212680022998 10.127275298285108 0 1 1.90985931710274 0 0 0 1 0 0 0
155 1 -5.819635519704458 5.229067623256141 9.030104738562834 0 4 0.0298415518297304 1 -0.4875 0.436819 0.755998 0 0 0
156 1 -5.632089492713752 4.621672847602975 9.471464327594123 0 4 0.0298415518297304 1 -0.471446 0.388906 0.791512 0 0 0
157 1 -6.089382005172075 3.9982103829107847 9.472968743546604 0 4 0.0298415518297304 1 -0.509098 0.333291 0.793559 0 0 0
169 1 -6.734332239905998 3.9404487203291834 9.050444772702892 0 4 0.0298415518297304 1 -0.564703 0.33127 0.755891 0 0 0
17 1 -4.725745922084348 4.03736240898212 10.206998193417988 0 4 0.0298415518297304 1 -0.397289 0.338104 0.85314 0 0 0
18 1 -4.018942358833174 4.045510343949046 10.502245767290724 0 4 0.0298415518297304 1 -0.334064 0.338099 0.879824 0 0 0
137 1 -3.7939239923523522 5.222355621366762 10.059100048941238 0 4 0.0298415518297304 1 -0.320296 0.435348 0.841358 0 0 0
145 1 -4.474010090314408 5.236891991858055 9.765930954750743 0 4 0.0298415518297304 1 -0.373095 0.440282 0.816671 0 0 0
146 1 -4.958664267611715 4.6471478823731145 9.830129370841252 0 4 0.0298415518297304 1 -0.415996 0.38708 0.822871 0 0 0
5 1 -2.4208158069392542 5.140432586494049 10.517951734564901 0 4 0.0298415518297304 1 -0.206546 0.427117 0.88029 0 0 0
10 1 -3.566604096775424 4.627224043334814 10.426911840880612 0 4 0.0298415518297304 1 -0.301445 0.385995 0.871859 0 0 0
11 1 -2.861937509150159 4.597576101275517 10.65540007802271 0 4 0.0298415518297304 1 -0.236303 0.386006 0.891718 0 0 0
6 1 -1.745118796613131 5.061730274197689 10.689822936524607 0 4 0.0298415518297304 1 -0.141803 0.427143 0.892995 0 0 0
4372 2 -0.3754428277271451 4.172986389866669 9.043558489143546 0 1 1.90985931710274 0 0 0 1 0 0 0
3065 2 -11.441083893185112 7.032807237836421 9.286154316721811 0 1 1.90985931710274 0 0 0 1 0 0 0
3088 2 -10.764872282084308 6.488131009047224 10.561763056712623 0 1 1.90985931710274 0 0 0 1 0 0 0
3147 2 -8.587094308339275 5.655007185604212 10.006772616987869 0 1 1.90985931710274 0 0 0 1 0 0 0
3211 2 -8.065052396447854 5.931334900920588 9.046217772299228 0 1 1.90985931710274 0 0 0 1 0 0 0
143 1 -4.109775397540957 6.413209013816228 9.207096031147115 0 4 0.0298415518297304 1 -0.342421 0.53729 0.770758 0 0 0
144 1 -4.629649181325049 5.846719577457926 9.336112728622068 0 4 0.0298415518297304 1 -0.389231 0.488399 0.781003 0 0 0
128 1 -2.2559092717178135 6.783319053141226 9.581412179409126 0 4 0.0298415518297304 1 -0.193441 0.568207 0.799826 0 0 0
129 1 -2.184302998367814 6.211528291683313 9.979208801255677 0 4 0.0298415518297304 1 -0.177101 0.519552 0.835883 0 0 0
130 1 -2.63849077709189 5.710312428807246 10.165746059644487 0 4 0.0298415518297304 1 -0.225565 0.47691 0.849516 0 0 0
134 1 -2.9195443775880694 6.8797784902812955 9.327338261728201 0 4 0.0298415518297304 1 -0.241321 0.575225 0.781589 0 0 0
135 1 -3.4268197334280326 6.3671283268970695 9.515722686147727 0 4 0.0298415518297304 1 -0.289976 0.532402 0.795275 0 0 0
136 1 -3.309267907455417 5.7687017515614585 9.931604703079781 0 4 0.0298415518297304 1 -0.273726 0.483981 0.831166 0 0 0
1 1 -0.3007226119801671 5.931148609750038 10.38410240725975 0 4 0.0298415518297304 1 -0.031001 0.488703 0.871899 0 0 0
2 1 -1.324251409088832 5.575087225059108 10.49556439859258 0 4 0.0298415518297304 1 -0.115671 0.461227 0.87971 0 0 0
3 1 -0.7031792711430755 5.432734791968485 10.631296536123939 0 4 0.0298415518297304 1 -0.053217 0.461265 0.885665 0 0 0
122 1 -0.4865794786618666 6.417728021582561 10.08337967517057 0 4 0.0298415518297304 1 -0.050161 0.538863 0.840898 0 0 0
123 1 -1.14665875491715 7.102193318178118 9.551761345313452 0 4 0.0298415518297304 1 -0.102459 0.596039 0.796392 0 0 0
124 1 -1.1377675643454386 6.570502549743725 9.928117389224152 0 4 0.0298415518297304 1 -0.086106 0.547371 0.832448 0 0 0
125 1 -1.5271061926927691 6.106168118875939 10.16733844680462 0 4 0.0298415518297304 1 -0.134812 0.511338 0.84874 0 0 0
3167 2 -8.49693177190607 8.711453574699862 9.119735980599588 0 1 1.90985931710274 0 0 0 1 0 0 0
3193 2 -8.95805173720329 7.963576824303326 10.63436406595506 0 1 1.90985931710274 0 0 0 1 0 0 0
3127 2 -5.510213058073738 8.279470954706374 10.164623749974195 0 1 1.90985931710274 0 0 0 1 0 0 0
3149 2 -7.076180353978817 7.970326678037489 9.274779776056645 0 1 1.90985931710274 0 0 0 1 0 0 0
127 1 -1.7891570029506303 7.246032847391109 9.33984966043232 0 4 0.0298415518297304 1 -0.144752 0.604243 0.783541 0 0 0
246 1 -0.6155775977841709 7.430419130501573 9.348906162508925 0 4 0.0298415518297304 1 -0.052348 0.627009 0.777251 0 0 0
3030 2 -14.236449105144667 9.020567833604835 9.505071396420972 0 1 1.90985931710274 0 0 0 1 0 0 0
3171 2 -12.902653161760366 10.574574293534257 9.696103430228115 0 1 1.90985931710274 0 0 0 1 0 0 0
3135 2 -12.301609853885939 9.524361739042055 9.946510079821847 0 1 1.90985931710274 0 0 0 1 0 0 0
3078 2 -10.025199389238356 10.596739070937366 9.105295244299041 0 1 1.90985931710274 0 0 0 1 0 0 0
3047 2 -6.6150103902600454 9.558526899421457 10.138480576383435 0 1 1.90985931710274 0 0 0 1 0 0 0
3051 2 -3.7306774042812894 10.39525624436729 9.512521081041958 0 1 1.90985931710274 0 0 0 1 0 0 0
3168 2 -3.466054924411562 9.235705414873495 8.984555778845445 0 1 1.90985931710274 0 0 0 1 0 0 0
3032 2 -9.779220734041559 11.802460963527052 10.70077999914252 0 1 1.90985931710274 0 0 0 1 0 0 0
3145 2 -8.07835339326887 11.99023333012695 9.47060544361297 0 1 1.90985931710274 0 0 0 1 0 0 0
3209 2 -5.803682007639972 12.535003594974421 9.775460735129117 0 1 1.90985931710274 0 0 0 1 0 0 0
3177 2 -2.8460233360185487 11.609489536255301 10.653623842847706 0 1 1.90985931710274 0 0 0 1 0 0 0
3029 2 -12.714681202423922 12.69895486116061 9.99936752632206 0 1 1.90985931710274 0 0 0 1 0 0 0
3121 2 -13.105674445508473 13.826044339089341 10.270183074509815 0 1 1.90985931710274 0 0 0 1 0 0 0
3050 2 -11.201653828362382 12.980746713454609 10.39451903160795 0 1 1.90985931710274 0 0 0 1 0 0 0
3055 2 -12.140839775695202 13.684229890750563 8.98555184469983 0 1 1.90985931710274 0 0 0 1 0 0 0
3046 2 -10.55439659587431 13.718427140467076 9.716847830125579 0 1 1.90985931710274 0 0 0 1 0 0 0
3229 2 -9.20358545857175 14.235857784598542 9.742201747692222 0 1 1.90985931710274 0 0 0 1 0 0 0
3048 2 -8.804067397740532 12.879910174864738 8.999360951649281 0 1 1.90985931710274 0 0 0 1 0 0 0
3224 2 -8.298540347339468 13.749222265565143 10.67082335332079 0 1 1.90985931710274 0 0 0 1 0 0 0
3081 2 -2.876161674846633 14.119209503369214 9.428277059247668 0 1 1.90985931710274 0 0 0 1 0 0 0
3094 2 -0.9060906403601849 12.611383786303834 10.43597512375356 0 1 1.90985931710274 0 0 0 1 0 0 0
3114 2 -14.184019645667519 0.4685792660273531 11.311968121735786 0 1 1.90985931710274 0 0 0 1 0 0 0
3174 2 -11.012796371720462 1.286586494198298 11.735425990807554 0 1 1.90985931710274 0 0 0 1 0 0 0
3161 2 -6.596237922620234 1.057715195410009 11.994875628746525 0 1 1.90985931710274 0 0 0 1 0 0 0
42 1 -4.2327990080513676 1.423347517251903 11.07989365716363 0 4 0.0298415518297304 1 -0.354065 0.118867 0.927636 0 0 0
43 1 -3.86648581940601 0.7152375895268429 11.279869072120212 0 4 0.0298415518297304 1 -0.323807 0.059642 0.944241 0 0 0
56 1 -5.019681413979873 0.00036330316597323265 10.83176938352235 0 4 0.0298415518297304 1 -0.420311 0 0.90738 0 0 0
57 1 -4.262370524096592 1.105920725304196e-18 11.159030532552128 0 4 0.0298415518297304 1 -0.356822 0 0.934172 0 0 0
32 1 -2.672170851459992 1.4115491063592356 11.558231437056955 0 4 0.0298415518297304 1 -0.22391 0.117222 0.967535 0 0 0
33 1 -1.8888478978032397 1.3914885773027972 11.715167821109105 0 4 0.0298415518297304 1 -0.159038 0.117231 0.980288 0 0 0
44 1 -3.0804279528325313 0.7111428724090038 11.52006018579294 0 4 0.0298415518297304 1 -0.258241 0.059644 0.964238 0 0 0
273 1 -5.52960362652098e-19 10.060931286493508 6.4430651044093965 0 4 0.0298415518297304 1 0 0.841873 0.539676 0 0 0
46 1 -1.9008536977816826 0 11.794987974137706 0 4 0.0298415518297304 1 -0.160411 -0 0.98705 0 0 0
25 1 -0.3768687790293372 1.3496076122842269 11.86812127662825 0 4 0.0298415518297304 1 -0.030269 0.111273 0.993329 0 0 0
34 1 -1.5137182198694838 0.6968056081181138 11.83119651802187 0 4 0.0298415518297304 1 -0.126041 0.05763 0.99035 0 0 0
35 1 -0.7436907815813953 0.6812230974745015 11.906795768543468 0 4 0.0298415518297304 1 -0.064561 0.057636 0.996248 0 0 0
36 1 -0.37985787396102 0 11.94399904357446 0 4 0.0298415518297304 1 -0.030178 0 0.999545 0 0 0
3089 2 -6.054128449757801 1.9390162469609438 12.351600299903785 0 1 1.90985931710274 0 0 0 1 0 0 0
19 1 -3.7071227937142512 3.4315134233143305 10.828792332517375 0 4 0.0298415518297304 1 -0.312038 0.286305 0.905904 0 0 0
29 1 -4.148160133050597 2.787820095153561 10.852187900093165 0 4 0.0298415518297304 1 -0.346156 0.232877 0.908815 0 0 0
30 1 -3.8114019686846525 2.115633286578001 11.123083633229703 0 4 0.0298415518297304 1 -0.319741 0.176449 0.930931 0 0 0
3225 2 -4.774531632374076 2.705678688912469 11.808828551863416 0 1 1.90985931710274 0 0 0 1 0 0 0
20 1 -2.963422670948167 3.412019013526081 11.06193314522361 0 4 0.0298415518297304 1 -0.246557 0.286314 0.925869 0 0 0
21 1 -2.616436136241011 2.7661375647652378 11.325622741883521 0 4 0.0298415518297304 1 -0.220102 0.229781 0.948027 0 0 0
22 1 -1.8548371467004798 2.726875306230269 11.48537574342067 0 4 0.0298415518297304 1 -0.155112 0.229798 0.960798 0 0 0
31 1 -3.039448746477639 2.103550570471817 11.360997099847129 0 4 0.0298415518297304 1 -0.254167 0.176454 0.950927 0 0 0
14 1 -1.4521994712227135 3.3517287379160643 11.379342313562363 0 4 0.0298415518297304 1 -0.122693 0.277359 0.9529 0 0 0
15 1 -0.7237953884855253 3.276131940429869 11.472097285570149 0 4 0.0298415518297304 1 -0.060552 0.277386 0.958848 0 0 0
16 1 -0.3678117563873662 2.6502621255199252 11.648741412035173 0 4 0.0298415518297304 1 -0.030501 0.218543 0.97535 0 0 0
23 1 -1.4926796990507116 2.0629124085374824 11.674634439008784 0 4 0.0298415518297304 1 -0.124901 0.170648 0.977384 0 0 0
24 1 -0.7363147481133524 2.0167350080379154 11.756097880475448 0 4 0.0298415518297304 1 -0.063153 0.170666 0.983303 0 0 0
3037 2 -13.910508085292681 5.202334485899916 12.103380519898474 0 1 1.90985931710274 0 0 0 1 0 0 0
3073 2 -14.011342391929492 3.844688841026761 11.52275713673349 0 1 1.90985931710274 0 0 0 1 0 0 0
3087 2 -10.221911155524634 5.087893097478089 11.66026331424129 0 1 1.90985931710274 0 0 0 1 0 0 0
3041 2 -7.346226640165085 4.075246745419674 11.861766268483871 0 1 1.90985931710274 0 0 0 1 0 0 0
12 1 -2.5293110254501143 4.017420313103844 10.967922118238022 0 4 0.0298415518297304 1 -0.214148 0.333881 0.917967 0 0 0
13 1 -1.8043773161599217 3.960234221833683 11.13171558938183 0 4 0.0298415518297304 1 -0.149145 0.333904 0.930733 0 0 0
4 1 -0.3282260859712711 4.959509308734032 10.876011960372498 0 4 0.0298415518297304 1 -0.03097 0.408879 0.912063 0 0 0
7 1 -1.3942285429139425 4.527409841300541 10.975640721862607 0 4 0.0298415518297304 1 -0.119553 0.374767 0.919379 0 0 0
8 1 -0.7106141284784225 4.422370927131481 11.08496819773124 0 4 0.0298415518297304 1 -0.057112 0.374801 0.925344 0 0 0
9 1 -0.3522053557303874 3.8619611313205353 11.308090336798315 0 4 0.0298415518297304 1 -0.030774 0.318484 0.947429 0 0 0
3194 2 -12.97466416022554 5.731671089364733 11.32453495301481 0 1 1.90985931710274 0 0 0 1 0 0 0
3176 2 -11.796346467975741 5.962264731736591 12.264192296852974 0 1 1.90985931710274 0 0 0 1 0 0 0
3183 2 -9.081076214721143 6.769951181751614 11.43289569940091 0 1 1.90985931710274 0 0 0 1 0 0 0
3103 2 -2.3323088001776657 6.580399413963077 11.457768477385683 0 1 1.90985931710274 0 0 0 1 0 0 0
3133 2 -14.349187018876867 8.506655736505637 11.213749450245905 0 1 1.90985931710274 0 0 0 1 0 0 0
3111 2 -10.194437684449948 7.61701744975934 12.333038105213797 0 1 1.90985931710274 0 0 0 1 0 0 0
3178 2 -10.19094286027206 8.952339407517487 10.83367414636332 0 1 1.90985931710274 0 0 0 1 0 0 0
3082 2 -8.773638005549635 7.687012727311236 11.998813919970145 0 1 1.90985931710274 0 0 0 1 0 0 0
3163 2 -7.694402429864354 7.307925269815181 12.31878378377125 0 1 1.90985931710274 0 0 0 1 0 0 0
3028 2 -6.783875048645091 8.609260640641198 11.232143855436039 0 1 1.90985931710274 0 0 0 1 0 0 0
3205 2 -5.717079240351754 8.561178189421453 11.534197007531429 0 1 1.90985931710274 0 0 0 1 0 0 0
3165 2 -4.0074173711555385 8.803860988859912 12.352069768484684 0 1 1.90985931710274 0 0 0 1 0 0 0
3189 2 -4.711064242829238 7.461616769017427 12.313350875897617 0 1 1.90985931710274 0 0 0 1 0 0 0
3076 2 -1.9120840019862566 8.829458616989763 12.054995746951368 0 1 1.90985931710274 0 0 0 1 0 0 0
3190 2 -0.03540964795539914 7.593020813588174 10.836889976408662 0 1 1.90985931710274 0 0 0 1 0 0 0
3116 2 -13.225467656419399 9.538128559168255 11.716703940857608 0 1 1.90985931710274 0 0 0 1 0 0 0
3097 2 -12.15126766086804 10.629327790841744 11.503124677139715 0 1 1.90985931710274 0 0 0 1 0 0 0
3062 2 -10.026916108631475 10.44493023082403 12.051485459481919 0 1 1.90985931710274 0 0 0 1 0 0 0
3153 2 -6.749781396164795 11.848656658296536 12.182283989888875 0 1 1.90985931710274 0 0 0 1 0 0 0
3182 2 -3.3139147127761994 11.858876370410288 11.738421485654376 0 1 1.90985931710274 0 0 0 1 0 0 0
3070 2 -1.680107590322312 11.391709679813124 11.608956761762137 0 1 1.90985931710274 0 0 0 1 0 0 0
3180 2 -1.2505770197454207 12.370446911784102 11.934962212780455 0 1 1.90985931710274 0 0 0 1 0 0 0
3213 2 -11.787373976578118 13.257457651574088 11.498028005643883 0 1 1.90985931710274 0 0 0 1 0 0 0
3203 2 -0.7675916190571981 13.584096185753703 10.915049247273535 0 1 1.90985931710274 0 0 0 1 0 0 0
3136 2 -12.8762206325466 0.48861282438965137 13.954652379601388 0 1 1.90985931710274 0 0 0 1 0 0 0
3197 2 -9.447376463510752 1.727182124527259 13.984115432264876 0 1 1.90985931710274 0 0 0 1 0 0 0
3083 2 -6.507932909963749 1.0408162392653928 14.032287333477678 0 1 1.90985931710274 0 0 0 1 0 0 0
3134 2 -7.12440026979419 1.1688335690492995 13.037499011600074 0 1 1.90985931710274 0 0 0 1 0 0 0
3052 2 -3.6390223454124246 0.9827546533977412 14.028409655842504 0 1 1.90985931710274 0 0 0 1 0 0 0
3043 2 -1.6068267584444182 1.792124824649564 12.794321885173657 0 1 1.90985931710274 0 0 0 1 0 0 0
3107 2 -13.700648324572427 2.0807709112370194 13.584213160548254 0 1 1.90985931710274 0 0 0 1 0 0 0
3181 2 -13.521257476313727 3.487887595218284 13.292864833689128 0 1 1.90985931710274 0 0 0 1 0 0 0
3128 2 -8.702214278039104 2.6596529967952467 13.184559137690192 0 1 1.90985931710274 0 0 0 1 0 0 0
3109 2 -6.362414995737743 3.5061576791867926 13.629503349496382 0 1 1.90985931710274 0 0 0 1 0 0 0
3143 2 -3.104438513857616 2.2907895950341643 13.133669739189683 0 1 1.90985931710274 0 0 0 1 0 0 0
3117 2 -11.092453690314445 3.835675574588275 13.289661986321313 0 1 1.90985931710274 0 0 0 1 0 0 0
3033 2 -9.569411075223048 4.414868145435552 13.704411985868232 0 1 1.90985931710274 0 0 0 1 0 0 0
3119 2 -10.192845530773255 4.236809215816306 12.77751312214444 0 1 1.90985931710274 0 0 0 1 0 0 0
3222 2 -10.10972820911177 5.314685847124836 12.934957848379334 0 1 1.90985931710274 0 0 0 1 0 0 0
3049 2 -7.2010023288795875 5.267256520780622 12.606448759926325 0 1 1.90985931710274 0 0 0 1 0 0 0
3187 2 -8.545200339718878 4.516232925626216 13.290763349268838 0 1 1.90985931710274 0 0 0 1 0 0 0
3146 2 -7.172264236749555 4.011025906823817 14.160332730865463 0 1 1.90985931710274 0 0 0 1 0 0 0
3039 2 -4.222887179305488 3.7406394126889904 13.530749063860236 0 1 1.90985931710274 0 0 0 1 0 0 0
3140 2 -2.9489231748803455 4.237537786018647 12.883355615410542 0 1 1.90985931710274 0 0 0 1 0 0 0
3220 2 -12.107093460686812 6.836666236744131 13.3701589586031 0 1 1.90985931710274 0 0 0 1 0 0 0
3152 2 -7.0489544826789565 6.338041614784638 13.705585685406705 0 1 1.90985931710274 0 0 0 1 0 0 0
3112 2 -5.182474019604289 5.979442510738556 13.96018398294276 0 1 1.90985931710274 0 0 0 1 0 0 0
3130 2 -3.4866713144502697 7.149166034316961 13.2540547651513 0 1 1.90985931710274 0 0 0 1 0 0 0
3162 2 -3.5857955975531457 5.8307919243006 12.584955720204453 0 1 1.90985931710274 0 0 0 1 0 0 0
3191 2 -2.173550607148538 5.627607654519133 13.097119503077986 0 1 1.90985931710274 0 0 0 1 0 0 0
3206 2 -10.78867401662985 8.267694502110482 13.145442970823373 0 1 1.90985931710274 0 0 0 1 0 0 0
3067 2 -9.560817658430713 8.762920755013264 13.095815507891201 0 1 1.90985931710274 0 0 0 1 0 0 0
3042 2 -6.738063816342741 7.878362727557059 13.495740051479173 0 1 1.90985931710274 0 0 0 1 0 0 0
3125 2 -3.925492184211109 8.067965963915873 14.335899534059108 0 1 1.90985931710274 0 0 0 1 0 0 0
3040 2 -13.71722610915081 10.468885502356146 12.852418099726217 0 1 1.90985931710274 0 0 0 1 0 0 0
3077 2 -12.334065137746274 9.369191898379539 13.80655206485874 0 1 1.90985931710274 0 0 0 1 0 0 0
3086 2 -9.921081171305369 9.744893870667687 13.988920311769986 0 1 1.90985931710274 0 0 0 1 0 0 0
3108 2 -7.332180665526479 10.537190496461955 12.810694036040745 0 1 1.90985931710274 0 0 0 1 0 0 0
3099 2 -0.19748159629977025 10.253714989756103 12.8194568307706 0 1 1.90985931710274 0 0 0 1 0 0 0
3148 2 -13.884474264036893 12.236358331946567 13.135975025941315 0 1 1.90985931710274 0 0 0 1 0 0 0
3195 2 -1.7531375363657435 11.040964300956643 12.914296178312219 0 1 1.90985931710274 0 0 0 1 0 0 0
3377 2 0.8922862317526494 -14.017464933203811 -12.953580356448029 0 1 1.90985931710274 0 0 0 1 0 0 0
3302 2 2.6495664801557464 -12.834056022373442 -13.258158030425435 0 1 1.90985931710274 0 0 0 1 0 0 0
3287 2 3.8004607933073284 -14.290690883776852 -12.887091637533821 0 1 1.90985931710274 0 0 0 1 0 0 0
3420 2 7.5574723902758745 -12.603580633418817 -14.305985870040027 0 1 1.90985931710274 0 0 0 1 0 0 0
3240 2 11.69176290787715 -12.931425308756463 -13.781396269879918 0 1 1.90985931710274 0 0 0 1 0 0 0
3324 2 2.784552796023382 -11.505471234975483 -13.18476823293348 0 1 1.90985931710274 0 0 0 1 0 0 0
3255 2 3.734028140519394 -11.481620290542704 -14.137261151237123 0 1 1.90985931710274 0 0 0 1 0 0 0
3294 2 12.441489693425948 -12.053606590058589 -12.644507114692415 0 1 1.90985931710274 0 0 0 1 0 0 0
3419 2 12.945251028386478 -12.159579908474436 -14.27024172983781 0 1 1.90985931710274 0 0 0 1 0 0 0
3232 2 0.8617575777930124 -10.492860032836523 -13.97703588343293 0 1 1.90985931710274 0 0 0 1 0 0 0
3259 2 1.158883014436645 -10.696002363284437 -12.759997721527439 0 1 1.90985931710274 0 0 0 1 0 0 0
3383 2 4.487221002156067 -9.751648763002471 -12.714019782513716 0 1 1.90985931710274 0 0 0 1 0 0 0
3318 2 8.049103461241744 -10.085546512641413 -13.916083558733572 0 1 1.90985931710274 0 0 0 1 0 0 0
3423 2 8.767040713219126 -9.353025323527191 -14.308858926992098 0 1 1.90985931710274 0 0 0 1 0 0 0
3253 2 3.151932670708698 -7.687127398911585 -13.926099506998245 0 1 1.90985931710274 0 0 0 1 0 0 0
3365 2 3.501963988570454 -8.435038096378623 -12.982019835518226 0 1 1.90985931710274 0 0 0 1 0 0 0
3349 2 5.906424553953466 -7.8066677041472925 -13.963429603547215 0 1 1.90985931710274 0 0 0 1 0 0 0
3289 2 9.979564097255286 -7.200336403155139 -14.292877606338 0 1 1.90985931710274 0 0 0 1 0 0 0
3402 2 12.344363382531773 -8.493155788467519 -13.928874773566452 0 1 1.90985931710274 0 0 0 1 0 0 0
3406 2 10.763034221961641 -8.679313490725608 -14.262130625306616 0 1 1.90985931710274 0 0 0 1 0 0 0
3311 2 10.717808462154409 -6.725011852332719 -13.636638418437077 0 1 1.90985931710274 0 0 0 1 0 0 0
3375 2 9.596837892562993 -6.093819693756181 -13.324200960152048 0 1 1.90985931710274 0 0 0 1 0 0 0
3239 2 10.908374260681567 -5.542272724912877 -13.927657610709204 0 1 1.90985931710274 0 0 0 1 0 0 0
3316 2 1.131962787056171 -3.926759946914382 -13.23932179001472 0 1 1.90985931710274 0 0 0 1 0 0 0
3429 2 2.9164611684308515 -4.50569418265729 -13.716155921070836 0 1 1.90985931710274 0 0 0 1 0 0 0
3263 2 5.170607286511851 -4.515967595294372 -14.17483811248656 0 1 1.90985931710274 0 0 0 1 0 0 0
3380 2 4.388480588249594 -4.618333289030359 -12.569412733216799 0 1 1.90985931710274 0 0 0 1 0 0 0
3288 2 6.76273991012088 -3.7963885666659305 -13.667421191196523 0 1 1.90985931710274 0 0 0 1 0 0 0
3435 2 9.398841309848263 -4.495481380242538 -14.276149736318567 0 1 1.90985931710274 0 0 0 1 0 0 0
3412 2 14.071114883420316 -3.7867143547884137 -12.982762928872454 0 1 1.90985931710274 0 0 0 1 0 0 0
3355 2 3.061709763900245 -2.9055401285515803 -12.852046566414092 0 1 1.90985931710274 0 0 0 1 0 0 0
3392 2 4.736912624871179 -3.54426979010538 -13.772312301114173 0 1 1.90985931710274 0 0 0 1 0 0 0
3238 2 5.865746714923786 -2.6528522759152864 -13.689219308214602 0 1 1.90985931710274 0 0 0 1 0 0 0
3416 2 8.131793807197463 -3.551110432205645 -13.938608080292902 0 1 1.90985931710274 0 0 0 1 0 0 0
3356 2 10.490136368488473 -3.098496814241141 -12.651440950856692 0 1 1.90985931710274 0 0 0 1 0 0 0
3361 2 9.60723733704055 -3.516920359487896 -13.327935913076256 0 1 1.90985931710274 0 0 0 1 0 0 0
3309 2 4.846372441077149 -0.7231548163531798 -13.500236447886662 0 1 1.90985931710274 0 0 0 1 0 0 0
3279 2 9.93761800885592 -0.7497219502145798 -13.848067778654148 0 1 1.90985931710274 0 0 0 1 0 0 0
3236 2 13.693722798579438 -0.3414474696079933 -13.916234820303195 0 1 1.90985931710274 0 0 0 1 0 0 0
3422 2 4.859306341762183 -12.95183800300719 -12.444420541823952 0 1 1.90985931710274 0 0 0 1 0 0 0
3322 2 7.957031615271317 -13.267682134988688 -11.13435675485566 0 1 1.90985931710274 0 0 0 1 0 0 0
3312 2 12.04523195468641 -13.303613585503125 -12.31127155100462 0 1 1.90985931710274 0 0 0 1 0 0 0
3330 2 3.559877102782133 -10.92652354068927 -12.481736364565325 0 1 1.90985931710274 0 0 0 1 0 0 0
3341 2 2.008800394610541 -11.399109608140376 -11.303047612685479 0 1 1.90985931710274 0 0 0 1 0 0 0
3292 2 6.160622503262436 -11.964739668241744 -11.515040138979804 0 1 1.90985931710274 0 0 0 1 0 0 0
3233 2 9.41208450309451 -11.525884490555722 -11.85722676998884 0 1 1.90985931710274 0 0 0 1 0 0 0
3262 2 13.373863385893836 -12.446281282331908 -11.076440152382013 0 1 1.90985931710274 0 0 0 1 0 0 0
3276 2 3.068091826519032 -10.446589694606905 -11.240999258239963 0 1 1.90985931710274 0 0 0 1 0 0 0
3358 2 7.566170658841804 -9.917250845824043 -11.982107764678322 0 1 1.90985931710274 0 0 0 1 0 0 0
3246 2 10.892728617218124 -10.18875641499715 -11.702262857067364 0 1 1.90985931710274 0 0 0 1 0 0 0
3418 2 12.09663001127988 -10.489296419063415 -11.485567198817717 0 1 1.90985931710274 0 0 0 1 0 0 0
3382 2 13.553330842265959 -9.751612036014388 -12.09674929380122 0 1 1.90985931710274 0 0 0 1 0 0 0
3295 2 0.38543801215472406 -8.390573715569571 -11.897615577779693 0 1 1.90985931710274 0 0 0 1 0 0 0
3425 2 8.544811722511886 -7.623755742778551 -10.779152879094019 0 1 1.90985931710274 0 0 0 1 0 0 0
3359 2 12.291397051471185 -8.964367923794326 -12.089289211219267 0 1 1.90985931710274 0 0 0 1 0 0 0
3393 2 12.638117955264795 -7.948219864589006 -10.839788147410061 0 1 1.90985931710274 0 0 0 1 0 0 0
3242 2 5.279842357073138 -5.472152671829413 -12.164779436920881 0 1 1.90985931710274 0 0 0 1 0 0 0
3394 2 5.271265215396939 -6.122702823615832 -10.844366511291318 0 1 1.90985931710274 0 0 0 1 0 0 0
3340 2 6.970356897177735 -7.0773371338185385 -11.471672088168006 0 1 1.90985931710274 0 0 0 1 0 0 0
3408 2 8.172571429230429 -7.027872924219496 -12.458427357046586 0 1 1.90985931710274 0 0 0 1 0 0 0
3244 2 9.864904302734837 -6.7734219355854215 -12.36366738417099 0 1 1.90985931710274 0 0 0 1 0 0 0
3353 2 11.35743943413478 -6.491624496726275 -11.874622478491421 0 1 1.90985931710274 0 0 0 1 0 0 0
3234 2 14.146126001018287 -5.922996885616584 -12.414664557937838 0 1 1.90985931710274 0 0 0 1 0 0 0
1291 1 0.3522053557303874 -3.8619611313205353 -11.308090336798315 0 4 0.0298415518297304 1 0.030774 -0.318484 -0.947429 0 0 0
1308 1 1.3942285429139425 -4.527409841300541 -10.975640721862607 0 4 0.0298415518297304 1 0.119553 -0.374767 -0.919379 0 0 0
1309 1 0.7106141284784225 -4.422370927131481 -11.08496819773124 0 4 0.0298415518297304 1 0.057112 -0.374801 -0.925344 0 0 0
1310 1 0.32822608597127106 -4.959509308734032 -10.876011960372498 0 4 0.0298415518297304 1 0.03097 -0.408879 -0.912063 0 0 0
3364 2 0.31564617645602766 -4.637102303549492 -12.308205756318891 0 1 1.90985931710274 0 0 0 1 0 0 0
1306 1 2.5293110254501143 -4.017420313103844 -10.967922118238022 0 4 0.0298415518297304 1 0.214148 -0.333881 -0.917967 0 0 0
1307 1 1.8043773161599217 -3.960234221833683 -11.13171558938183 0 4 0.0298415518297304 1 0.149145 -0.333904 -0.930733 0 0 0
3327 2 3.435560097237529 -5.142573728868898 -12.24262709955881 0 1 1.90985931710274 0 0 0 1 0 0 0
3374 2 7.25567788157481 -4.770250372184625 -11.442463307001358 0 1 1.90985931710274 0 0 0 1 0 0 0
3282 2 9.713012225473841 -5.22619846119637 -11.369897327393481 0 1 1.90985931710274 0 0 0 1 0 0 0
1272 1 1.4926796990507116 -2.0629124085374824 -11.674634439008784 0 4 0.0298415518297304 1 0.124901 -0.170648 -0.977384 0 0 0
1273 1 0.7363147481133524 -2.0167350080379154 -11.756097880475448 0 4 0.0298415518297304 1 0.063153 -0.170666 -0.983303 0 0 0
1274 1 0.3678117563873662 -2.6502621255199252 -11.648741412035173 0 4 0.0298415518297304 1 0.030501 -0.218543 -0.97535 0 0 0
1289 1 1.4521994712227135 -3.3517287379160643 -11.379342313562363 0 4 0.0298415518297304 1 0.122693 -0.277359 -0.9529 0 0 0
1290 1 0.7237953884855253 -3.276131940429869 -11.472097285570149 0 4 0.0298415518297304 1 0.060552 -0.277386 -0.958848 0 0 0
1286 1 3.039448746477639 -2.103550570471817 -11.360997099847129 0 4 0.0298415518297304 1 0.254167 -0.176454 -0.950927 0 0 0
1287 1 2.616436136241011 -2.7661375647652378 -11.325622741883521 0 4 0.0298415518297304 1 0.220102 -0.229781 -0.948027 0 0 0
1288 1 1.8548371467004798 -2.726875306230269 -11.48537574342067 0 4 0.0298415518297304 1 0.155112 -0.229798 -0.960798 0 0 0
1305 1 2.963422670948167 -3.412019013526081 -11.06193314522361 0 4 0.0298415518297304 1 0.246557 -0.286314 -0.925869 0 0 0
1285 1 3.8114019686846525 -2.115633286578001 -11.123083633229703 0 4 0.0298415518297304 1 0.319741 -0.176449 -0.930931 0 0 0
1303 1 4.148160133050597 -2.787820095153561 -10.852187900093165 0 4 0.0298415518297304 1 0.346156 -0.232877 -0.908815 0 0 0
1304 1 3.7071227937142512 -3.4315134233143305 -10.828792332517375 0 4 0.0298415518297304 1 0.312038 -0.286305 -0.905904 0 0 0
3303 2 5.371479790270169 -3.371421976748799 -11.314260184436868 0 1 1.90985931710274 0 0 0 1 0 0 0
3230 2 9.300108653343134 -1.976079769005775 -11.558916904761627 0 1 1.90985931710274 0 0 0 1 0 0 0
1257 1 1.5137182198694838 -0.6968056081181138 -11.83119651802187 0 4 0.0298415518297304 1 0.126041 -0.05763 -0.99035 0 0 0
1258 1 0.7436907815813953 -0.6812230974745015 -11.906795768543468 0 4 0.0298415518297304 1 0.064561 -0.057636 -0.996248 0 0 0
1259 1 0.37686877902933724 -1.3496076122842269 -11.86812127662825 0 4 0.0298415518297304 1 0.030269 -0.111273 -0.993329 0 0 0
1269 1 3.0804279528325313 -0.7111428724090038 -11.52006018579294 0 4 0.0298415518297304 1 0.258241 -0.059644 -0.964238 0 0 0
1270 1 2.672170851459992 -1.4115491063592356 -11.558231437056955 0 4 0.0298415518297304 1 0.22391 -0.117222 -0.967535 0 0 0
1271 1 1.8888478978032397 -1.3914885773027972 -11.715167821109105 0 4 0.0298415518297304 1 0.159038 -0.117231 -0.980288 0 0 0
1268 1 3.86648581940601 -0.7152375895268429 -11.279869072120212 0 4 0.0298415518297304 1 0.323807 -0.059642 -0.944241 0 0 0
1284 1 4.2327990080513676 -1.423347517251903 -11.07989365716363 0 4 0.0298415518297304 1 0.354065 -0.118867 -0.927636 0 0 0
3250 2 9.291477524770778 -0.7896951775825087 -12.50142162922821 0 1 1.90985931710274 0 0 0 1 0 0 0
3334 2 9.646500299231718 -1.0051843054818104 -11.137353008089706 0 1 1.90985931710274 0 0 0 1 0 0 0
3258 2 11.47901999840244 -0.8647548501832887 -11.181203030529769 0 1 1.90985931710274 0 0 0 1 0 0 0
3335 2 13.932451013744965 -1.034012006893389 -11.272864143008933 0 1 1.90985931710274 0 0 0 1 0 0 0
3386 2 13.22135358237828 -1.0678349497453812 -12.123316084793283 0 1 1.90985931710274 0 0 0 1 0 0 0
3315 2 0.7215583952205211 -13.330813528725518 -10.243213289752408 0 1 1.90985931710274 0 0 0 1 0 0 0
3275 2 3.7663273881403274 -13.948951525469122 -9.4924965595139 0 1 1.90985931710274 0 0 0 1 0 0 0
3332 2 9.723490907654115 -12.575075205400006 -10.06951427811474 0 1 1.90985931710274 0 0 0 1 0 0 0
3274 2 13.816072306940347 -13.824291253562826 -9.507168630398409 0 1 1.90985931710274 0 0 0 1 0 0 0
3304 2 12.776136492967337 -13.059270697964793 -9.89680269425913 0 1 1.90985931710274 0 0 0 1 0 0 0
3366 2 0.5252910415280354 -11.370417038331835 -10.715311243144413 0 1 1.90985931710274 0 0 0 1 0 0 0
3427 2 0.1256380477740766 -12.282287061073054 -10.130587454812808 0 1 1.90985931710274 0 0 0 1 0 0 0
3411 2 2.206083275002745 -12.052141201318769 -10.44649896715826 0 1 1.90985931710274 0 0 0 1 0 0 0
3281 2 4.609349308004076 -11.001816257196555 -9.586685642291103 0 1 1.90985931710274 0 0 0 1 0 0 0
3331 2 5.1538545767041315 -11.685985451998913 -10.262850805931304 0 1 1.90985931710274 0 0 0 1 0 0 0
3237 2 6.18969971948342 -11.182564642181486 -10.600429144230576 0 1 1.90985931710274 0 0 0 1 0 0 0
3384 2 9.349926230840426 -11.723058116841553 -9.491800635741264 0 1 1.90985931710274 0 0 0 1 0 0 0
3265 2 0.20265404727974712 -9.423613369280563 -10.033205498420795 0 1 1.90985931710274 0 0 0 1 0 0 0
3267 2 5.721848678260715 -10.255258472169764 -10.059671757240782 0 1 1.90985931710274 0 0 0 1 0 0 0
3336 2 11.966685622746358 -10.281798995911075 -9.36154510073119 0 1 1.90985931710274 0 0 0 1 0 0 0
3285 2 13.281818991548315 -9.577341047506367 -10.635833439508128 0 1 1.90985931710274 0 0 0 1 0 0 0
3415 2 12.564771715439278 -9.431122118104362 -8.97557615672267 0 1 1.90985931710274 0 0 0 1 0 0 0
1449 1 1.7891570029506303 -7.246032847391109 -9.33984966043232 0 4 0.0298415518297304 1 0.144752 -0.604243 -0.783541 0 0 0
1552 1 0.6155775977841709 -7.430419130501573 -9.348906162508925 0 4 0.0298415518297304 1 0.052348 -0.627009 -0.777251 0 0 0
1572 1 0 -7.2736816536149265 -9.493528896893935 0 4 0.0298415518297304 1 0 -0.600588 -0.799559 0 0 0
3404 2 2.984549596264861 -8.187247576436391 -10.025381166445388 0 1 1.90985931710274 0 0 0 1 0 0 0
3307 2 4.861311130114958 -7.9584541579050825 -10.640991910710254 0 1 1.90985931710274 0 0 0 1 0 0 0
3313 2 3.635138586707532 -8.85489920650609 -9.118573747844607 0 1 1.90985931710274 0 0 0 1 0 0 0
3271 2 10.354915149584974 -8.37509692536939 -10.089048683326308 0 1 1.90985931710274 0 0 0 1 0 0 0
1329 1 1.324251409088832 -5.575087225059108 -10.49556439859258 0 4 0.0298415518297304 1 0.115671 -0.461227 -0.87971 0 0 0
1330 1 0.7031792711430755 -5.432734791968485 -10.631296536123939 0 4 0.0298415518297304 1 0.053217 -0.461265 -0.885665 0 0 0
1331 1 0.3007226119801671 -5.931148609750038 -10.38410240725975 0 4 0.0298415518297304 1 0.031001 -0.488703 -0.871899 0 0 0
1431 1 1.5271061926927691 -6.106168118875939 -10.16733844680462 0 4 0.0298415518297304 1 0.134812 -0.511338 -0.84874 0 0 0
1450 1 1.14665875491715 -7.102193318178118 -9.551761345313452 0 4 0.0298415518297304 1 0.102459 -0.596039 -0.796392 0 0 0
1451 1 1.1377675643454386 -6.570502549743725 -9.928117389224152 0 4 0.0298415518297304 1 0.086106 -0.547371 -0.832448 0 0 0
1452 1 0.4865794786618666 -6.417728021582561 -10.08337967517057 0 4 0.0298415518297304 1 0.050161 -0.538863 -0.840898 0 0 0
1573 1 3.317762175912588e-18 -6.718450883615759 -9.897522950485259 0 4 0.0298415518297304 1 -0 -0.569865 -0.821739 0 0 0
1410 1 3.4268197334280326 -6.3671283268970695 -9.515722686147727 0 4 0.0298415518297304 1 0.289976 -0.532402 -0.795275 0 0 0
1411 1 3.309267907455417 -5.7687017515614585 -9.931604703079781 0 4 0.0298415518297304 1 0.273726 -0.483981 -0.831166 0 0 0
1412 1 2.63849077709189 -5.710312428807246 -10.165746059644487 0 4 0.0298415518297304 1 0.225565 -0.47691 -0.849516 0 0 0
1428 1 2.9195443775880694 -6.8797784902812955 -9.327338261728201 0 4 0.0298415518297304 1 0.241321 -0.575225 -0.781589 0 0 0
1429 1 2.2559092717178135 -6.783319053141226 -9.581412179409126 0 4 0.0298415518297304 1 0.193441 -0.568207 -0.799826 0 0 0
1430 1 2.184302998367814 -6.211528291683313 -9.979208801255677 0 4 0.0298415518297304 1 0.177101 -0.519552 -0.835883 0 0 0
1393 1 4.629649181325049 -5.846719577457926 -9.336112728622068 0 4 0.0298415518297304 1 0.389231 -0.488399 -0.781003 0 0 0
1409 1 4.109775397540957 -6.413209013816228 -9.207096031147115 0 4 0.0298415518297304 1 0.342421 -0.53729 -0.770758 0 0 0
3401 2 8.833453692682918 -6.90304907822035 -9.723909649418633 0 1 1.90985931710274 0 0 0 1 0 0 0
3354 2 10.33620933809591 -7.051636622008092 -10.039580090011075 0 1 1.90985931710274 0 0 0 1 0 0 0
3310 2 12.375184368882367 -7.104530194071913 -9.287931766622151 0 1 1.90985931710274 0 0 0 1 0 0 0
3421 2 11.396691242268725 -6.911647189563321 -10.726896990721032 0 1 1.90985931710274 0 0 0 1 0 0 0
3372 2 13.751652568418132 -5.885264596472133 -9.67214890713535 0 1 1.90985931710274 0 0 0 1 0 0 0
1328 1 1.745118796613131 -5.061730274197689 -10.689822936524607 0 4 0.0298415518297304 1 0.141803 -0.427143 -0.892995 0 0 0
4466 2 0.4992502089466555 -4.171616233551475 -9.932919299653667 0 1 1.90985931710274 0 0 0 1 0 0 0
1325 1 3.566604096775424 -4.627224043334814 -10.426911840880612 0 4 0.0298415518297304 1 0.301445 -0.385995 -0.871859 0 0 0
1326 1 2.861937509150159 -4.597576101275517 -10.65540007802271 0 4 0.0298415518297304 1 0.236303 -0.386006 -0.891718 0 0 0
1327 1 2.4208158069392542 -5.140432586494049 -10.517951734564901 0 4 0.0298415518297304 1 0.206546 -0.427117 -0.88029 0 0 0
1323 1 4.725745922084348 -4.03736240898212 -10.206998193417988 0 4 0.0298415518297304 1 0.397289 -0.338104 -0.85314 0 0 0
1324 1 4.018942358833174 -4.045510343949046 -10.502245767290724 0 4 0.0298415518297304 1 0.334064 -0.338099 -0.879824 0 0 0
1380 1 4.958664267611715 -4.6471478823731145 -9.830129370841252 0 4 0.0298415518297304 1 0.415996 -0.38708 -0.822871 0 0 0
1394 1 4.474010090314408 -5.236891991858055 -9.765930954750743 0 4 0.0298415518297304 1 0.373095 -0.440282 -0.816671 0 0 0
1395 1 3.7939239923523522 -5.222355621366762 -10.059100048941238 0 4 0.0298415518297304 1 0.320296 -0.435348 -0.841358 0 0 0
1366 1 6.734332239905998 -3.9404487203291834 -9.050444772702892 0 4 0.0298415518297304 1 0.564703 -0.33127 -0.755891 0 0 0
1367 1 6.089382005172075 -3.9982103829107847 -9.472968743546604 0 4 0.0298415518297304 1 0.509098 -0.333291 -0.793559 0 0 0
1378 1 5.819635519704458 -5.229067623256141 -9.030104738562834 0 4 0.0298415518297304 1 0.4875 -0.436819 -0.755998 0 0 0
1379 1 5.632089492713752 -4.621672847602975 -9.471464327594123 0 4 0.0298415518297304 1 0.471446 -0.388906 -0.791512 0 0 0
3344 2 7.8926804658694945 -4.17587813143783 -9.80892507561255 0 1 1.90985931710274 0 0 0 1 0 0 0
3306 2 13.637330208582862 -4.327868347808543 -9.911125618187059 0 1 1.90985931710274 0 0 0 1 0 0 0
4509 2 0.8821283193024314 -2.9676974840110333 -9.941483773429008 0 1 1.90985931710274 0 0 0 1 0 0 0
4437 2 1.9466144237574774 -2.4980839080774206 -9.9468530572006 0 1 1.90985931710274 0 0 0 1 0 0 0
1301 1 5.314035556033138 -2.109228356369632 -10.500675721752849 0 4 0.0298415518297304 1 0.443955 -0.17524 -0.878746 0 0 0
1302 1 4.878549150679632 -2.773059349068192 -10.535005278057868 0 4 0.0298415518297304 1 0.409603 -0.232881 -0.882039 0 0 0
1322 1 5.171892390963584 -3.418510240142124 -10.211981086148262 0 4 0.0298415518297304 1 0.431545 -0.284445 -0.856072 0 0 0
4519 2 4.838667742421973 -1.8426709061386166 -9.548373534236255 0 1 1.90985931710274 0 0 0 1 0 0 0
4524 2 3.89336638994976 -2.684492114397388 -9.706858676908023 0 1 1.90985931710274 0 0 0 1 0 0 0
1300 1 6.011561039835598 -2.0830139269438743 -10.113173319118141 0 4 0.0298415518297304 1 0.502849 -0.175251 -0.846422 0 0 0
1319 1 6.909457866036755 -2.6877540399909075 -9.37289470523265 0 4 0.0298415518297304 1 0.577333 -0.226831 -0.784369 0 0 0
1320 1 6.274706368145702 -2.737132063013731 -9.79413632702012 0 4 0.0298415518297304 1 0.524802 -0.226809 -0.820451 0 0 0
1321 1 5.854617017001387 -3.383586720413358 -9.85282733924287 0 4 0.0298415518297304 1 0.490447 -0.284461 -0.823738 0 0 0
1356 1 7.142375312258343 -3.2975402454766938 -8.996025895892759 0 4 0.0298415518297304 1 0.59604 -0.275807 -0.7541 0 0 0
1318 1 7.28208785979175 -2.02877540751461 -9.255835233925785 0 4 0.0298415518297304 1 0.610208 -0.167433 -0.774346 0 0 0
3241 2 8.082375145478837 -1.7988319371508688 -10.71638569465568 0 1 1.90985931710274 0 0 0 1 0 0 0
3346 2 7.177203641551396 -3.436478445684454 -10.292108618620826 0 1 1.90985931710274 0 0 0 1 0 0 0
3231 2 10.969982687261902 -3.328831189203312 -9.233590940061042 0 1 1.90985931710274 0 0 0 1 0 0 0
3290 2 11.719692699750281 -2.73291729704626 -10.390611456493758 0 1 1.90985931710274 0 0 0 1 0 0 0
3360 2 14.079728311039974 -2.526306351162683 -10.712817991196127 0 1 1.90985931710274 0 0 0 1 0 0 0
4462 2 1.4529292900907862 -0.46455944415250094 -10.72014987107905 0 1 1.90985931710274 0 0 0 1 0 0 0
1283 1 4.98783925556015 -1.4192693658356634 -10.76190507047654 0 4 0.0298415518297304 1 0.417556 -0.118869 -0.900842 0 0 0
1281 1 6.095336996791155 -0.7040841837917592 -10.25069844397294 0 4 0.0298415518297304 1 0.50941 -0.059226 -0.858483 0 0 0
1282 1 5.383451567067813 -0.7122045543855867 -10.64038312370757 0 4 0.0298415518297304 1 0.450572 -0.059223 -0.890774 0 0 0
1298 1 7.044985182758772 -1.3686009819231013 -9.553842441772057 0 4 0.0298415518297304 1 0.588153 -0.115657 -0.800437 0 0 0
1299 1 6.399635919207783 -1.3963315588536618 -9.992199987587664 0 4 0.0298415518297304 1 0.53584 -0.115646 -0.836362 0 0 0
1297 1 7.375600354702212 -0.6851437658954604 -9.376631494888152 0 4 0.0298415518297304 1 0.618377 -0.056516 -0.783847 0 0 0
3370 2 9.267607308024745 -0.16111202810107095 -9.907020294704715 0 1 1.90985931710274 0 0 0 1 0 0 0
3347 2 0.13580482116883097 -13.615890615449546 -8.451111860515017 0 1 1.90985931710274 0 0 0 1 0 0 0
3397 2 4.017341316076317 -14.218682705324227 -8.09158438428072 0 1 1.90985931710274 0 0 0 1 0 0 0
3314 2 9.809910743505972 -12.615163895107598 -8.078207073376026 0 1 1.90985931710274 0 0 0 1 0 0 0
3298 2 11.52603530108466 -14.309194670101478 -8.168194395534208 0 1 1.90985931710274 0 0 0 1 0 0 0
3328 2 13.754582681741772 -14.041037966068103 -7.330227706598662 0 1 1.90985931710274 0 0 0 1 0 0 0
3342 2 3.728937616918218 -10.93476845548418 -7.548549322605299 0 1 1.90985931710274 0 0 0 1 0 0 0
3391 2 5.537368709724619 -11.09193765831419 -8.590693286594359 0 1 1.90985931710274 0 0 0 1 0 0 0
3305 2 7.285998656505102 -11.788678118779778 -8.661260331714374 0 1 1.90985931710274 0 0 0 1 0 0 0
3403 2 8.246584655853022 -11.497564165711404 -7.414151847972768 0 1 1.90985931710274 0 0 0 1 0 0 0
3369 2 10.494777734924979 -11.194333115879312 -7.4855085835846875 0 1 1.90985931710274 0 0 0 1 0 0 0
3300 2 12.091430656578284 -11.771568888803237 -8.11737211600537 0 1 1.90985931710274 0 0 0 1 0 0 0
3424 2 12.596949982016062 -11.03209025606347 -7.273693658713531 0 1 1.90985931710274 0 0 0 1 0 0 0
1530 1 0.6851437658954603 -9.376631494888152 -7.375600354702212 0 4 0.0298415518297304 1 0.056516 -0.783847 -0.618377 0 0 0
1515 1 2.02877540751461 -9.255835233925785 -7.28208785979175 0 4 0.0298415518297304 1 0.167433 -0.774346 -0.610208 0 0 0
3321 2 10.04740297856774 -10.535235212026157 -8.649322523613705 0 1 1.90985931710274 0 0 0 1 0 0 0
3367 2 14.212494247927191 -9.814537087695534 -7.737614898846356 0 1 1.90985931710274 0 0 0 1 0 0 0
1531 1 0.6656915704953396 -8.896439356475284 -7.952522696613374 0 4 0.0298415518297304 1 0.056523 -0.74655 -0.662924 0 0 0
1532 1 1.321444919037123 -8.630639292972145 -8.162830137834208 0 4 0.0298415518297304 1 0.10862 -0.720284 -0.685123 0 0 0
1533 1 1.2784715515496379 -8.131128066779423 -8.669599745290057 0 4 0.0298415518297304 1 0.108633 -0.683456 -0.721864 0 0 0
1549 1 2.211841450608392e-18 -8.684155977676964 -8.21217122543628 0 4 0.0298415518297304 1 0 -0.724369 -0.689412 0 0 0
3326 2 13.427290219013246 -0.8970711258099108 -1.3622605953784779 0 1 1.90985931710274 0 0 0 1 0 0 0
1551 1 0.6393586009192921 -7.9566467609051275 -8.9006657194245 0 4 0.0298415518297304 1 0.052342 -0.661356 -0.748244 0 0 0
1427 1 3.015399555322699 -7.444239992366906 -8.850031126127387 0 4 0.0298415518297304 1 0.255043 -0.623858 -0.738752 0 0 0
1445 1 3.2201579666754445 -8.519520450007567 -7.737155463213315 0 4 0.0298415518297304 1 0.269616 -0.711194 -0.649239 0 0 0
1446 1 2.572094274093865 -8.421148108100308 -8.08213718829916 0 4 0.0298415518297304 1 0.216805 -0.706291 -0.673906 0 0 0
1447 1 2.492570003313927 -7.906844018523753 -8.610159610496206 0 4 0.0298415518297304 1 0.206595 -0.659732 -0.722546 0 0 0
1448 1 1.848351927259901 -7.778922635537865 -8.887274502417357 0 4 0.0298415518297304 1 0.158426 -0.652682 -0.740883 0 0 0
1516 1 1.976962086269973 -8.788959806380333 -7.8548174342616175 0 4 0.0298415518297304 1 0.167452 -0.736792 -0.655055 0 0 0
1406 1 5.027747336910463 -7.578527615711209 -7.746829429466787 0 4 0.0298415518297304 1 0.421521 -0.634573 -0.647794 0 0 0
1424 1 4.452551263255395 -8.103352022611611 -7.567008598743931 0 4 0.0298415518297304 1 0.372974 -0.677324 -0.634131 0 0 0
1425 1 3.7838070843487692 -8.061162762905834 -7.967511654140036 0 4 0.0298415518297304 1 0.317751 -0.675536 -0.665346 0 0 0
1426 1 3.6863335632185215 -7.521794481100211 -8.521952334138087 0 4 0.0298415518297304 1 0.307492 -0.628735 -0.714242 0 0 0
1405 1 5.696441317200801 -7.5599552786647415 -7.2872611811923225 0 4 0.0298415518297304 1 0.477065 -0.632533 -0.610173 0 0 0
4482 2 1.8809207621878983 -6.402865908028808 -7.783894240174608 0 1 1.90985931710274 0 0 0 1 0 0 0
1392 1 5.315532000828298 -5.844040723021723 -8.963339986921262 0 4 0.0298415518297304 1 0.444447 -0.490205 -0.749777 0 0 0
1407 1 4.917931978313914 -7.021482536804528 -8.321548324326256 0 4 0.0298415518297304 1 0.411251 -0.587705 -0.69676 0 0 0
1408 1 4.233482399091309 -6.999619942319504 -8.709186563023858 0 4 0.0298415518297304 1 0.356132 -0.585913 -0.727926 0 0 0
1376 1 6.651223165669366 -5.774066719283829 -8.070493389834603 0 4 0.0298415518297304 1 0.556751 -0.483286 -0.67562 0 0 0
1389 1 6.256104902255907 -6.971342485334068 -7.413383296015549 0 4 0.0298415518297304 1 0.523931 -0.583573 -0.620434 0 0 0
1390 1 6.136607830526459 -6.407584207931539 -7.9994657362479495 0 4 0.0298415518297304 1 0.513666 -0.536709 -0.669396 0 0 0
1391 1 5.46289520267755 -6.439296458190344 -8.450912740693703 0 4 0.0298415518297304 1 0.458125 -0.538743 -0.70702 0 0 0
1375 1 7.2872611811923225 -5.696441317200801 -7.5599552786647415 0 4 0.0298415518297304 1 0.610173 -0.477065 -0.632533 0 0 0
3338 2 8.489728929280787 -7.119873650260004 -8.144239473115366 0 1 1.90985931710274 0 0 0 1 0 0 0
3417 2 9.10943300172959 -7.060110588266416 -7.247154902506098 0 1 1.90985931710274 0 0 0 1 0 0 0
3400 2 11.149162301879171 -5.471918316758073 -8.225973752942124 0 1 1.90985931710274 0 0 0 1 0 0 0
3399 2 12.972882313244023 -6.978079307751717 -7.9088413830951465 0 1 1.90985931710274 0 0 0 1 0 0 0
4483 2 1.3174471684547004 -5.342667781837615 -7.629597344788872 0 1 1.90985931710274 0 0 0 1 0 0 0
4469 2 2.84298121676904 -5.335533762749227 -7.316028526260189 0 1 1.90985931710274 0 0 0 1 0 0 0
4496 2 3.9031706668553934 -5.327056161397179 -8.338450602406436 0 1 1.90985931710274 0 0 0 1 0 0 0
1365 1 6.947090881314812 -4.532261116183702 -8.599454995390728 0 4 0.0298415518297304 1 0.580747 -0.379189 -0.720381 0 0 0
1377 1 6.484890297575802 -5.182674844411291 -8.591918993333321 0 4 0.0298415518297304 1 0.543095 -0.434791 -0.718335 0 0 0
1353 1 8.521952334138087 -3.6863335632185215 -7.521794481100211 0 4 0.0298415518297304 1 0.714242 -0.307492 -0.628735 0 0 0
1354 1 7.967511654140036 -3.7838070843487692 -8.061162762905834 0 4 0.0298415518297304 1 0.665346 -0.317751 -0.675536 0 0 0
1363 1 7.746829429466787 -5.027747336910463 -7.578527615711209 0 4 0.0298415518297304 1 0.647794 -0.421521 -0.634573 0 0 0
1364 1 7.567008598743931 -4.452551263255395 -8.103352022611611 0 4 0.0298415518297304 1 0.634131 -0.372974 -0.677324 0 0 0
3385 2 8.918996140463834 -4.245829224338127 -8.732089450891635 0 1 1.90985931710274 0 0 0 1 0 0 0
3379 2 13.87464220341126 -5.277237266902041 -8.146284822584317 0 1 1.90985931710274 0 0 0 1 0 0 0
3390 2 12.903040893438414 -4.057967980565467 -8.468505363794513 0 1 1.90985931710274 0 0 0 1 0 0 0
4449 2 0.3043845489943493 -2.5705770519432747 -8.542644010610136 0 1 1.90985931710274 0 0 0 1 0 0 0
4460 2 2.22554720711868 -2.3200819563474955 -7.965300332361285 0 1 1.90985931710274 0 0 0 1 0 0 0
1317 1 7.8548174342616175 -1.976962086269973 -8.788959806380333 0 4 0.0298415518297304 1 0.655055 -0.167452 -0.736792 0 0 0
1340 1 8.887274502417357 -1.848351927259901 -7.778922635537865 0 4 0.0298415518297304 1 0.740883 -0.158426 -0.652682 0 0 0
1345 1 8.850031126127387 -3.015399555322699 -7.444239992366906 0 4 0.0298415518297304 1 0.738752 -0.255043 -0.623858 0 0 0
1346 1 8.610159610496206 -2.492570003313927 -7.906844018523753 0 4 0.0298415518297304 1 0.722546 -0.206595 -0.659732 0 0 0
1347 1 8.08213718829916 -2.572094274093865 -8.421148108100308 0 4 0.0298415518297304 1 0.673906 -0.216805 -0.706291 0 0 0
1355 1 7.737155463213315 -3.2201579666754445 -8.519520450007567 0 4 0.0298415518297304 1 0.649239 -0.269616 -0.711194 0 0 0
3278 2 9.04202143324598 -3.0385014348390165 -8.847389339342401 0 1 1.90985931710274 0 0 0 1 0 0 0
3413 2 10.054691361143904 -2.843765254405893 -7.841120799836467 0 1 1.90985931710274 0 0 0 1 0 0 0
3337 2 12.855312635450774 -2.596167978830728 -8.132340208017625 0 1 1.90985931710274 0 0 0 1 0 0 0
4492 2 3.0609701328542442 -0.9852551187322405 -8.21880453277512 0 1 1.90985931710274 0 0 0 1 0 0 0
4443 2 5.357770140540211 -1.638417940672694 -7.758050885955971 0 1 1.90985931710274 0 0 0 1 0 0 0
4467 2 5.74345095574629 -1.164594772131018 -8.765531206007813 0 1 1.90985931710274 0 0 0 1 0 0 0
1296 1 7.952522696613374 -0.6656915704953397 -8.896439356475284 0 4 0.0298415518297304 1 0.662924 -0.056523 -0.74655 0 0 0
1314 1 8.9006657194245 -0.6393586009192921 -7.9566467609051275 0 4 0.0298415518297304 1 0.748244 -0.052342 -0.661356 0 0 0
1315 1 8.669599745290057 -1.2784715515496379 -8.131128066779423 0 4 0.0298415518297304 1 0.721864 -0.108633 -0.683456 0 0 0
1316 1 8.162830137834208 -1.321444919037123 -8.630639292972145 0 4 0.0298415518297304 1 0.685123 -0.10862 -0.720284 0 0 0
1313 1 9.348906162508925 -0.6155775977841709 -7.430419130501573 0 4 0.0298415518297304 1 0.777251 -0.052348 -0.627009 0 0 0
1339 1 9.33984966043232 -1.7891570029506303 -7.246032847391109 0 4 0.0298415518297304 1 0.783541 -0.144752 -0.604243 0 0 0
3297 2 10.997470792998874 -0.5537420679481961 -7.5884800053242785 0 1 1.90985931710274 0 0 0 1 0 0 0
3378 2 13.140630265235766 -0.3454621825049795 -8.561913361175021 0 1 1.90985931710274 0 0 0 1 0 0 0
3252 2 0.7608063542378058 -13.815528325183086 -5.734101352122757 0 1 1.90985931710274 0 0 0 1 0 0 0
3436 2 1.6761145469711476 -14.017117055921128 -7.106806866383412 0 1 1.90985931710274 0 0 0 1 0 0 0
3308 2 3.1413441651054423 -13.441577072818507 -6.274988860639468 0 1 1.90985931710274 0 0 0 1 0 0 0
3273 2 5.490716798960399 -13.568417862363704 -6.299915848359686 0 1 1.90985931710274 0 0 0 1 0 0 0
3362 2 6.973441055357506 -12.644078606434801 -6.1291623497073005 0 1 1.90985931710274 0 0 0 1 0 0 0
3381 2 8.197812947244751 -13.310089657450213 -6.350236765736668 0 1 1.90985931710274 0 0 0 1 0 0 0
3409 2 10.600498869374983 -13.807054414677182 -6.818557479381211 0 1 1.90985931710274 0 0 0 1 0 0 0
3269 2 11.199953267240224 -12.86098349357762 -6.610662559063447 0 1 1.90985931710274 0 0 0 1 0 0 0
3325 2 3.841559201791517 -12.375995490027478 -6.527982891794683 0 1 1.90985931710274 0 0 0 1 0 0 0
3430 2 7.292019751635157 -11.133559180454348 -6.978239159800972 0 1 1.90985931710274 0 0 0 1 0 0 0
1511 1 0.7122045543855867 -10.64038312370757 -5.383451567067813 0 4 0.0298415518297304 1 0.059223 -0.890774 -0.450572 0 0 0
1512 1 0.7040841837917592 -10.25069844397294 -6.095336996791155 0 4 0.0298415518297304 1 0.059226 -0.858483 -0.50941 0 0 0
1513 1 1.3963315588536618 -9.992199987587664 -6.399635919207783 0 4 0.0298415518297304 1 0.115646 -0.836362 -0.53584 0 0 0
1514 1 1.3686009819231013 -9.553842441772057 -7.044985182758772 0 4 0.0298415518297304 1 0.115657 -0.800437 -0.588153 0 0 0
1985 1 11.86812127662825 -0.37686877902933724 -1.3496076122842269 0 4 0.0298415518297304 1 0.993329 -0.030269 -0.111273 0 0 0
1529 1 0 -9.61605526409717 -7.092140394247476 0 4 0.0298415518297304 1 -0 -0.806015 -0.591895 0 0 0
1444 1 3.2975402454766938 -8.996025895892759 -7.142375312258343 0 4 0.0298415518297304 1 0.275807 -0.7541 -0.59604 0 0 0
1488 1 3.383586720413358 -9.85282733924287 -5.854617017001387 0 4 0.0298415518297304 1 0.284461 -0.823738 -0.490447 0 0 0
1499 1 2.0830139269438743 -10.113173319118141 -6.011561039835598 0 4 0.0298415518297304 1 0.175251 -0.846422 -0.502849 0 0 0
1500 1 2.737132063013731 -9.79413632702012 -6.274706368145702 0 4 0.0298415518297304 1 0.226809 -0.820451 -0.524802 0 0 0
1501 1 2.6877540399909075 -9.37289470523265 -6.909457866036755 0 4 0.0298415518297304 1 0.226831 -0.784369 -0.577333 0 0 0
1421 1 5.229067623256141 -9.030104738562834 -5.819635519704458 0 4 0.0298415518297304 1 0.436819 -0.755998 -0.4875 0 0 0
1441 1 4.621672847602975 -9.471464327594123 -5.632089492713752 0 4 0.0298415518297304 1 0.388906 -0.791512 -0.471446 0 0 0
1442 1 3.9982103829107847 -9.472968743546604 -6.089382005172075 0 4 0.0298415518297304 1 0.333291 -0.793559 -0.509098 0 0 0
1443 1 3.9404487203291834 -9.050444772702892 -6.734332239905998 0 4 0.0298415518297304 1 0.33127 -0.755891 -0.564703 0 0 0
3432 2 6.515929102324806 -10.154281226982173 -6.299657889376306 0 1 1.90985931710274 0 0 0 1 0 0 0
3261 2 12.460404225938623 -9.869092649525033 -6.217934567216448 0 1 1.90985931710274 0 0 0 1 0 0 0
3283 2 13.642163402697667 -9.199656860330826 -5.8394735801859685 0 1 1.90985931710274 0 0 0 1 0 0 0
4486 2 0.5174914910526827 -8.518901877561186 -6.561948170851717 0 1 1.90985931710274 0 0 0 1 0 0 0
4494 2 2.471422661130955 -7.632320372034525 -6.437678784265143 0 1 1.90985931710274 0 0 0 1 0 0 0
1422 1 5.182674844411291 -8.591918993333321 -6.484890297575802 0 4 0.0298415518297304 1 0.434791 -0.718335 -0.543095 0 0 0
1423 1 4.532261116183702 -8.599454995390728 -6.947090881314812 0 4 0.0298415518297304 1 0.379189 -0.720381 -0.580747 0 0 0
1387 1 6.971342485334068 -7.413383296015549 -6.256104902255907 0 4 0.0298415518297304 1 0.583573 -0.620434 -0.523931 0 0 0
1402 1 6.439296458190344 -8.450912740693703 -5.46289520267755 0 4 0.0298415518297304 1 0.538743 -0.70702 -0.458125 0 0 0
1403 1 6.407584207931539 -7.9994657362479495 -6.136607830526459 0 4 0.0298415518297304 1 0.536709 -0.669396 -0.513666 0 0 0
1404 1 5.774066719283829 -8.070493389834603 -6.651223165669366 0 4 0.0298415518297304 1 0.483286 -0.67562 -0.556751 0 0 0
1386 1 7.5599552786647415 -7.2872611811923225 -5.696441317200801 0 4 0.0298415518297304 1 0.632533 -0.610173 -0.477065 0 0 0
4489 2 0.3767098620208955 -6.795519014828573 -5.853132223826209 0 1 1.90985931710274 0 0 0 1 0 0 0
4517 2 1.3558168690004742 -6.237716709050311 -6.560355008570928 0 1 1.90985931710274 0 0 0 1 0 0 0
4480 2 3.5559119652238085 -5.8150224834384 -5.859171149194029 0 1 1.90985931710274 0 0 0 1 0 0 0
1388 1 6.896660049020172 -6.896660049020172 -6.896660049020172 0 4 0.0298415518297304 1 0.57735 -0.57735 -0.57735 0 0 0
1361 1 8.450912740693703 -5.46289520267755 -6.439296458190344 0 4 0.0298415518297304 1 0.70702 -0.458125 -0.538743 0 0 0
1372 1 8.070493389834603 -6.651223165669366 -5.774066719283829 0 4 0.0298415518297304 1 0.67562 -0.556751 -0.483286 0 0 0
1373 1 7.9994657362479495 -6.136607830526459 -6.407584207931539 0 4 0.0298415518297304 1 0.669396 -0.513666 -0.536709 0 0 0
1374 1 7.413383296015549 -6.256104902255907 -6.971342485334068 0 4 0.0298415518297304 1 0.620434 -0.523931 -0.583573 0 0 0
3245 2 10.235679159975769 -5.8969574142363195 -6.453124395656318 0 1 1.90985931710274 0 0 0 1 0 0 0
3428 2 9.954806742705182 -7.1213006241883745 -6.557831271912373 0 1 1.90985931710274 0 0 0 1 0 0 0
3235 2 10.853508729835474 -6.633078528157649 -5.934281419792725 0 1 1.90985931710274 0 0 0 1 0 0 0
3270 2 13.481793445529215 -6.6346909905419835 -5.5012880391148595 0 1 1.90985931710274 0 0 0 1 0 0 0
4472 2 3.837809849179422 -3.637730841455337 -6.012884339857659 0 1 1.90985931710274 0 0 0 1 0 0 0
1352 1 8.709186563023858 -4.233482399091309 -6.999619942319504 0 4 0.0298415518297304 1 0.727926 -0.356132 -0.585913 0 0 0
1360 1 8.963339986921262 -5.315532000828298 -5.844040723021723 0 4 0.0298415518297304 1 0.749777 -0.444447 -0.490205 0 0 0
1362 1 8.321548324326256 -4.917931978313914 -7.021482536804528 0 4 0.0298415518297304 1 0.69676 -0.411251 -0.587705 0 0 0
1350 1 9.336112728622068 -4.629649181325049 -5.846719577457926 0 4 0.0298415518297304 1 0.781003 -0.389231 -0.488399 0 0 0
1351 1 9.207096031147115 -4.109775397540957 -6.413209013816228 0 4 0.0298415518297304 1 0.770758 -0.342421 -0.53729 0 0 0
3405 2 11.106519315052273 -4.645247916480699 -5.706052291093274 0 1 1.90985931710274 0 0 0 1 0 0 0
3272 2 13.054994757040719 -4.566748416629238 -6.615282287583758 0 1 1.90985931710274 0 0 0 1 0 0 0
4525 2 5.302215960917788 -2.5519728547201908 -6.790415282235006 0 1 1.90985931710274 0 0 0 1 0 0 0
4457 2 6.094874833675153 -2.425244421679876 -5.530083173668269 0 1 1.90985931710274 0 0 0 1 0 0 0
4446 2 7.973263014130492 -3.5580555088561283 -6.293937344946772 0 1 1.90985931710274 0 0 0 1 0 0 0
4464 2 7.907874753678751 -2.329960921262183 -6.578017653512874 0 1 1.90985931710274 0 0 0 1 0 0 0
1336 1 10.181080066782837 -2.642482183293617 -5.717065111330342 0 4 0.0298415518297304 1 0.849516 -0.225565 -0.47691 0 0 0
1337 1 9.979208801255677 -2.184302998367814 -6.211528291683313 0 4 0.0298415518297304 1 0.835883 -0.177101 -0.519552 0 0 0
1338 1 9.581412179409126 -2.2559092717178135 -6.783319053141226 0 4 0.0298415518297304 1 0.799826 -0.193441 -0.568207 0 0 0
1342 1 9.931604703079781 -3.309267907455417 -5.7687017515614585 0 4 0.0298415518297304 1 0.831166 -0.273726 -0.483981 0 0 0
1343 1 9.515722686147727 -3.4268197334280326 -6.3671283268970695 0 4 0.0298415518297304 1 0.795275 -0.289976 -0.532402 0 0 0
1344 1 9.327338261728201 -2.9195443775880694 -6.8797784902812955 0 4 0.0298415518297304 1 0.781589 -0.241321 -0.575225 0 0 0
3277 2 11.827268760938294 -2.870978910106368 -6.003528157732372 0 1 1.90985931710274 0 0 0 1 0 0 0
3350 2 13.47687359282972 -3.2193733109206573 -6.445046643478896 0 1 1.90985931710274 0 0 0 1 0 0 0
4458 2 5.2340026426729835 -0.9694685951462407 -5.988060622863713 0 1 1.90985931710274 0 0 0 1 0 0 0
4490 2 6.390916817816976 -1.7038409500937526 -7.113982225685662 0 1 1.90985931710274 0 0 0 1 0 0 0
4499 2 5.673787558556857 -0.035989334891310065 -6.933301518233494 0 1 1.90985931710274 0 0 0 1 0 0 0
1332 1 10.08337967517057 -0.4865794786618666 -6.417728021582561 0 4 0.0298415518297304 1 0.840898 -0.050161 -0.538863 0 0 0
1333 1 10.16733844680462 -1.5271061926927691 -6.106168118875939 0 4 0.0298415518297304 1 0.84874 -0.134812 -0.511338 0 0 0
1334 1 9.928117389224152 -1.1377675643454386 -6.570502549743725 0 4 0.0298415518297304 1 0.832448 -0.086106 -0.547371 0 0 0
1335 1 9.551761345313452 -1.14665875491715 -7.102193318178118 0 4 0.0298415518297304 1 0.796392 -0.102459 -0.596039 0 0 0
2055 1 10.49556439859258 -1.324251409088832 -5.575087225059108 0 4 0.0298415518297304 1 0.87971 -0.115671 -0.461227 0 0 0
2056 1 10.631296536123939 -0.7031792711430755 -5.432734791968485 0 4 0.0298415518297304 1 0.885665 -0.053217 -0.461265 0 0 0
2057 1 10.38410240725975 -0.3007226119801671 -5.931148609750038 0 4 0.0298415518297304 1 0.871899 -0.031001 -0.488703 0 0 0
4487 2 9.164513570269044 -1.2227444881491625 -5.4671103229838 0 1 1.90985931710274 0 0 0 1 0 0 0
3414 2 13.021053780976496 -0.990853128014912 -6.634002546625263 0 1 1.90985931710274 0 0 0 1 0 0 0
3293 2 3.1737513082776143 -14.09550777813212 -4.369351066533753 0 1 1.90985931710274 0 0 0 1 0 0 0
3433 2 5.870244020150485 -13.16992533076743 -4.098106208189082 0 1 1.90985931710274 0 0 0 1 0 0 0
3339 2 8.796230926972264 -13.829172826852632 -4.620109809402913 0 1 1.90985931710274 0 0 0 1 0 0 0
3248 2 9.136632504870915 -12.846583397681037 -4.255134581762438 0 1 1.90985931710274 0 0 0 1 0 0 0
3320 2 9.893499831409423 -14.086969501842152 -4.372011461026787 0 1 1.90985931710274 0 0 0 1 0 0 0
3323 2 10.318764165771318 -13.241707881486132 -5.101488137408571 0 1 1.90985931710274 0 0 0 1 0 0 0
3387 2 12.817063388555576 -14.027192546445209 -4.239012104617419 0 1 1.90985931710274 0 0 0 1 0 0 0
3410 2 14.30617664188424 -13.854711851591368 -4.166467696100796 0 1 1.90985931710274 0 0 0 1 0 0 0
1495 1 0.7152375895268429 -11.279869072120212 -3.86648581940601 0 4 0.0298415518297304 1 0.059642 -0.944241 -0.323807 0 0 0
1496 1 1.423347517251903 -11.07989365716363 -4.2327990080513676 0 4 0.0298415518297304 1 0.118867 -0.927636 -0.354065 0 0 0
1509 1 0 -11.159030532552128 -4.262370524096592 0 4 0.0298415518297304 1 -0 -0.934172 -0.356822 0 0 0
1510 1 9.676806346411715e-19 -10.837827437084997 -5.0237641903669115 0 4 0.0298415518297304 1 -0 -0.90738 -0.420311 0 0 0
1475 1 3.4315134233143305 -10.828792332517375 -3.7071227937142512 0 4 0.0298415518297304 1 0.286305 -0.905904 -0.312038 0 0 0
1484 1 2.115633286578001 -11.123083633229703 -3.8114019686846525 0 4 0.0298415518297304 1 0.176449 -0.930931 -0.319741 0 0 0
1485 1 2.787820095153561 -10.852187900093165 -4.148160133050597 0 4 0.0298415518297304 1 0.232877 -0.908815 -0.346156 0 0 0
3373 2 4.109743242428975 -11.049971497607537 -5.394304708914054 0 1 1.90985931710274 0 0 0 1 0 0 0
3352 2 10.139575917371554 -11.243728736357962 -5.345975968245943 0 1 1.90985931710274 0 0 0 1 0 0 0
3357 2 11.81136493262922 -11.856775300681182 -5.126836548600002 0 1 1.90985931710274 0 0 0 1 0 0 0
1497 1 1.4192693658356634 -10.76190507047654 -4.98783925556015 0 4 0.0298415518297304 1 0.118869 -0.900842 -0.417556 0 0 0
4456 2 0.20705642360332333 -9.185989364178111 -4.557906418845157 0 1 1.90985931710274 0 0 0 1 0 0 0
1486 1 2.7798204017072834 -10.54382301778774 -4.884105722525149 0 4 0.0298415518297304 1 0.232881 -0.882039 -0.409603 0 0 0
1487 1 3.4127824156921522 -10.208571950024913 -5.170760470315152 0 4 0.0298415518297304 1 0.284445 -0.856072 -0.431545 0 0 0
1498 1 2.1070288296765565 -10.492772653721886 -5.310097654165997 0 4 0.0298415518297304 1 0.17524 -0.878746 -0.443955 0 0 0
1438 1 5.222355621366762 -10.059100048941238 -3.7939239923523522 0 4 0.0298415518297304 1 0.435348 -0.841358 -0.320296 0 0 0
1439 1 5.236891991858055 -9.765930954750743 -4.474010090314408 0 4 0.0298415518297304 1 0.440282 -0.816671 -0.373095 0 0 0
1440 1 4.6471478823731145 -9.830129370841252 -4.958664267611715 0 4 0.0298415518297304 1 0.38708 -0.822871 -0.415996 0 0 0
1476 1 4.045510343949046 -10.502245767290724 -4.018942358833174 0 4 0.0298415518297304 1 0.338099 -0.879824 -0.334064 0 0 0
1477 1 4.03610778892078 -10.190464357184169 -4.712685973777151 0 4 0.0298415518297304 1 0.338104 -0.85314 -0.397289 0 0 0
1418 1 6.413209013816228 -9.207096031147115 -4.109775397540957 0 4 0.0298415518297304 1 0.53729 -0.770758 -0.342421 0 0 0
1419 1 5.846719577457926 -9.336112728622068 -4.629649181325049 0 4 0.0298415518297304 1 0.488399 -0.781003 -0.389231 0 0 0
4484 2 1.3813453886471017 -7.696291008187983 -5.301150615433455 0 1 1.90985931710274 0 0 0 1 0 0 0
4501 2 0.43217666803296595 -7.350452369965027 -4.762612002220964 0 1 1.90985931710274 0 0 0 1 0 0 0
4435 2 2.915440736552082 -7.304862769144199 -3.9006870065483863 0 1 1.90985931710274 0 0 0 1 0 0 0
4465 2 4.87928083139359 -7.302028767946532 -4.104784877361442 0 1 1.90985931710274 0 0 0 1 0 0 0
1400 1 6.999619942319504 -8.709186563023858 -4.233482399091309 0 4 0.0298415518297304 1 0.585913 -0.727926 -0.356132 0 0 0
1401 1 7.021482536804528 -8.321548324326256 -4.917931978313914 0 4 0.0298415518297304 1 0.587705 -0.69676 -0.411251 0 0 0
1420 1 5.844040723021723 -8.963339986921262 -5.315532000828298 0 4 0.0298415518297304 1 0.490205 -0.749777 -0.444447 0 0 0
4520 2 5.780071524598988 -7.539722064808392 -4.780499234652105 0 1 1.90985931710274 0 0 0 1 0 0 0
1383 1 8.061162762905834 -7.967511654140036 -3.7838070843487692 0 4 0.0298415518297304 1 0.675536 -0.665346 -0.317751 0 0 0
1384 1 8.103352022611611 -7.567008598743931 -4.452551263255395 0 4 0.0298415518297304 1 0.677324 -0.634131 -0.372974 0 0 0
1385 1 7.578527615711209 -7.746829429466787 -5.027747336910463 0 4 0.0298415518297304 1 0.634573 -0.647794 -0.421521 0 0 0
1399 1 7.521794481100211 -8.521952334138087 -3.6863335632185215 0 4 0.0298415518297304 1 0.628735 -0.714242 -0.307492 0 0 0
3299 2 9.391685815279816 -8.419926703972022 -3.7397637258498713 0 1 1.90985931710274 0 0 0 1 0 0 0
3256 2 11.685199923410591 -8.431129238225544 -4.688028856717713 0 1 1.90985931710274 0 0 0 1 0 0 0
4485 2 6.648200224806391 -6.623237678997526 -4.347658911423877 0 1 1.90985931710274 0 0 0 1 0 0 0
1370 1 8.599454995390728 -6.947090881314812 -4.532261116183702 0 4 0.0298415518297304 1 0.720381 -0.580747 -0.379189 0 0 0
1371 1 8.591918993333321 -6.484890297575802 -5.182674844411291 0 4 0.0298415518297304 1 0.718335 -0.543095 -0.434791 0 0 0
4473 2 8.175222119294506 -5.52745101720488 -3.996294162430302 0 1 1.90985931710274 0 0 0 1 0 0 0
1357 1 9.472968743546604 -6.089382005172075 -3.9982103829107847 0 4 0.0298415518297304 1 0.793559 -0.509098 -0.333291 0 0 0
1358 1 9.471464327594123 -5.632089492713752 -4.621672847602975 0 4 0.0298415518297304 1 0.791512 -0.471446 -0.388906 0 0 0
1359 1 9.030104738562834 -5.819635519704458 -5.229067623256141 0 4 0.0298415518297304 1 0.755998 -0.4875 -0.436819 0 0 0
1369 1 9.050444772702892 -6.734332239905998 -3.9404487203291834 0 4 0.0298415518297304 1 0.755891 -0.564703 -0.33127 0 0 0
3247 2 13.18806398560937 -6.757555863368538 -4.0124376350127715 0 1 1.90985931710274 0 0 0 1 0 0 0
4440 2 0.5518419275598383 -5.212987501816187 -4.592729024659742 0 1 1.90985931710274 0 0 0 1 0 0 0
4445 2 1.5665481844064093 -4.2780426815052985 -4.823880059560714 0 1 1.90985931710274 0 0 0 1 0 0 0
4468 2 2.8643411965963548 -5.102022805056994 -5.180154592894104 0 1 1.90985931710274 0 0 0 1 0 0 0
4474 2 4.5634770415758155 -5.314008235268084 -4.300158150703042 0 1 1.90985931710274 0 0 0 1 0 0 0
4493 2 5.376136563485744 -3.8824614951284353 -5.37756462361231 0 1 1.90985931710274 0 0 0 1 0 0 0
4453 2 7.564828654918387 -3.7229791760059134 -5.226879364335008 0 1 1.90985931710274 0 0 0 1 0 0 0
4477 2 7.197471362377313 -4.7542807962715266 -5.16494825469058 0 1 1.90985931710274 0 0 0 1 0 0 0
4523 2 8.57675949414902 -4.146309176317781 -5.017992820860648 0 1 1.90985931710274 0 0 0 1 0 0 0
1341 1 10.059100048941238 -3.7939239923523522 -5.222355621366762 0 4 0.0298415518297304 1 0.841358 -0.320296 -0.435348 0 0 0
1348 1 9.830129370841252 -4.958664267611715 -4.6471478823731145 0 4 0.0298415518297304 1 0.822871 -0.415996 -0.38708 0 0 0
1349 1 9.765930954750743 -4.474010090314408 -5.236891991858055 0 4 0.0298415518297304 1 0.816671 -0.373095 -0.440282 0 0 0
2049 1 10.223967899074655 -4.734721367997377 -4.0404067169162134 0 4 0.0298415518297304 1 0.85314 -0.397289 -0.338104 0 0 0
2050 1 10.502245767290724 -4.018942358833174 -4.045510343949046 0 4 0.0298415518297304 1 0.879824 -0.334064 -0.338099 0 0 0
4513 2 9.26868428080061 -4.235194325111807 -3.873154748797881 0 1 1.90985931710274 0 0 0 1 0 0 0
3286 2 11.536864550223703 -4.5085683902345135 -4.620774671458719 0 1 1.90985931710274 0 0 0 1 0 0 0
4455 2 0.768272809008236 -3.131018998578318 -4.364709105781596 0 1 1.90985931710274 0 0 0 1 0 0 0
2051 1 10.426911840880612 -3.566604096775424 -4.627224043334814 0 4 0.0298415518297304 1 0.871859 -0.301445 -0.385995 0 0 0
2052 1 10.65540007802271 -2.861937509150159 -4.597576101275517 0 4 0.0298415518297304 1 0.891718 -0.236303 -0.386006 0 0 0
2053 1 10.517951734564901 -2.4208158069392542 -5.140432586494049 0 4 0.0298415518297304 1 0.88029 -0.206546 -0.427117 0 0 0
4508 2 9.207455255300108 -2.3998927906260494 -5.28570140191412 0 1 1.90985931710274 0 0 0 1 0 0 0
2032 1 10.967922118238022 -2.5293110254501143 -4.017420313103844 0 4 0.0298415518297304 1 0.917967 -0.214148 -0.333881 0 0 0
2033 1 11.13171558938183 -1.8043773161599217 -3.960234221833683 0 4 0.0298415518297304 1 0.930733 -0.149145 -0.333904 0 0 0
3434 2 13.468363209270512 -2.747919790538621 -4.227673582595951 0 1 1.90985931710274 0 0 0 1 0 0 0
4475 2 1.8370851155933803 -1.7036602220408277 -4.076485840211094 0 1 1.90985931710274 0 0 0 1 0 0 0
4502 2 3.5291304890710045 -1.4973101836538643 -4.000200670518479 0 1 1.90985931710274 0 0 0 1 0 0 0
2054 1 10.689822936524607 -1.745118796613131 -5.061730274197689 0 4 0.0298415518297304 1 0.892995 -0.141803 -0.427143 0 0 0
2017 1 11.308090336798315 -0.3522053557303874 -3.8619611313205353 0 4 0.0298415518297304 1 0.947429 -0.030774 -0.318484 0 0 0
2034 1 10.975640721862607 -1.3942285429139425 -4.527409841300541 0 4 0.0298415518297304 1 0.919379 -0.119553 -0.374767 0 0 0
2035 1 11.08496819773124 -0.7106141284784225 -4.422370927131481 0 4 0.0298415518297304 1 0.925344 -0.057112 -0.374801 0 0 0
2036 1 10.876011960372498 -0.3282260859712711 -4.959509308734032 0 4 0.0298415518297304 1 0.912063 -0.03097 -0.408879 0 0 0
3296 2 12.365293983447424 -1.125674199166152 -5.185319385536575 0 1 1.90985931710274 0 0 0 1 0 0 0
3376 2 2.569312852308679 -12.705361248058257 -2.8671361150908794 0 1 1.90985931710274 0 0 0 1 0 0 0
3249 2 9.26879551522369 -14.225315309751402 -3.1563549771362944 0 1 1.90985931710274 0 0 0 1 0 0 0
3426 2 12.624175652841098 -12.667744699713221 -2.06987608009997 0 1 1.90985931710274 0 0 0 1 0 0 0
1481 1 1.3914885773027972 -11.715167821109105 -1.8888478978032397 0 4 0.0298415518297304 1 0.117231 -0.980288 -0.159038 0 0 0
1482 1 1.4115491063592356 -11.558231437056955 -2.672170851459992 0 4 0.0298415518297304 1 0.117222 -0.967535 -0.22391 0 0 0
1984 1 11.906795768543468 -0.7436907815813953 -0.6812230974745015 0 4 0.0298415518297304 1 0.996248 -0.064561 -0.057636 0 0 0
1493 1 0 -11.639062436059561 -2.691412527142975 0 4 0.0298415518297304 1 -0 -0.974307 -0.225222 0 0 0
1494 1 0.7111428724090038 -11.52006018579294 -3.0804279528325313 0 4 0.0298415518297304 1 0.059644 -0.964238 -0.258241 0 0 0
1472 1 2.726875306230269 -11.48537574342067 -1.8548371467004798 0 4 0.0298415518297304 1 0.229798 -0.960798 -0.155112 0 0 0
1473 1 2.7661375647652378 -11.325622741883521 -2.616436136241011 0 4 0.0298415518297304 1 0.229781 -0.948027 -0.220102 0 0 0
1474 1 3.412019013526081 -11.06193314522361 -2.963422670948167 0 4 0.0298415518297304 1 0.286314 -0.925869 -0.246557 0 0 0
1483 1 2.103550570471817 -11.360997099847129 -3.039448746477639 0 4 0.0298415518297304 1 0.176454 -0.950927 -0.254167 0 0 0
1465 1 3.960234221833683 -11.13171558938183 -1.8043773161599217 0 4 0.0298415518297304 1 0.333904 -0.930733 -0.149145 0 0 0
1466 1 4.017420313103844 -10.967922118238022 -2.5293110254501143 0 4 0.0298415518297304 1 0.333881 -0.917967 -0.214148 0 0 0
3260 2 4.895234758424257 -11.82591316353135 -3.0465894714002566 0 1 1.90985931710274 0 0 0 1 0 0 0
3329 2 7.069100291476614 -12.160561152556705 -2.0609170205156744 0 1 1.90985931710274 0 0 0 1 0 0 0
3317 2 8.525820528425827 -11.096720747087536 -2.8767843002063014 0 1 1.90985931710274 0 0 0 1 0 0 0
3319 2 7.596793121654917 -11.865210345800861 -3.389169875062093 0 1 1.90985931710274 0 0 0 1 0 0 0
3251 2 10.494700124437424 -12.498732580200079 -2.891489422707087 0 1 1.90985931710274 0 0 0 1 0 0 0
3266 2 11.684999261474973 -11.803654390164926 -2.0576075019017495 0 1 1.90985931710274 0 0 0 1 0 0 0
1461 1 5.140432586494049 -10.517951734564901 -2.4208158069392542 0 4 0.0298415518297304 1 0.427117 -0.88029 -0.206546 0 0 0
1467 1 4.597576101275517 -10.65540007802271 -2.861937509150159 0 4 0.0298415518297304 1 0.386006 -0.891718 -0.236303 0 0 0
1468 1 4.627224043334814 -10.426911840880612 -3.566604096775424 0 4 0.0298415518297304 1 0.385995 -0.871859 -0.301445 0 0 0
1415 1 6.783319053141226 -9.581412179409126 -2.2559092717178135 0 4 0.0298415518297304 1 0.568207 -0.799826 -0.193441 0 0 0
1416 1 6.8797784902812955 -9.327338261728201 -2.9195443775880694 0 4 0.0298415518297304 1 0.575225 -0.781589 -0.241321 0 0 0
1417 1 6.3671283268970695 -9.515722686147727 -3.4268197334280326 0 4 0.0298415518297304 1 0.532402 -0.795275 -0.289976 0 0 0
1435 1 6.211528291683313 -9.979208801255677 -2.184302998367814 0 4 0.0298415518297304 1 0.519552 -0.835883 -0.177101 0 0 0
1436 1 5.710312428807246 -10.165746059644487 -2.63849077709189 0 4 0.0298415518297304 1 0.47691 -0.849516 -0.225565 0 0 0
1437 1 5.7687017515614585 -9.931604703079781 -3.309267907455417 0 4 0.0298415518297304 1 0.483981 -0.831166 -0.273726 0 0 0
3333 2 14.101516155675649 -9.452223559347406 -2.9660719518575185 0 1 1.90985931710274 0 0 0 1 0 0 0
4522 2 1.9917738612956253 -8.865913204398694 -2.892286328859189 0 1 1.90985931710274 0 0 0 1 0 0 0
4439 2 4.866438726082762 -7.881090727040695 -1.944885372959174 0 1 1.90985931710274 0 0 0 1 0 0 0
4442 2 4.645807039506039 -8.813257021992433 -2.8502146268196675 0 1 1.90985931710274 0 0 0 1 0 0 0
1381 1 8.421148108100308 -8.08213718829916 -2.572094274093865 0 4 0.0298415518297304 1 0.706291 -0.673906 -0.216805 0 0 0
1382 1 8.519520450007567 -7.737155463213315 -3.2201579666754445 0 4 0.0298415518297304 1 0.711194 -0.649239 -0.269616 0 0 0
1396 1 7.778922635537865 -8.887274502417357 -1.848351927259901 0 4 0.0298415518297304 1 0.652682 -0.740883 -0.158426 0 0 0
1397 1 7.906844018523753 -8.610159610496206 -2.492570003313927 0 4 0.0298415518297304 1 0.659732 -0.722546 -0.206595 0 0 0
1398 1 7.444239992366906 -8.850031126127387 -3.015399555322699 0 4 0.0298415518297304 1 0.623858 -0.738752 -0.255043 0 0 0
2043 1 8.788959806380333 -7.8548174342616175 -1.976962086269973 0 4 0.0298415518297304 1 0.736792 -0.655055 -0.167452 0 0 0
2044 1 9.255835233925785 -7.28208785979175 -2.02877540751461 0 4 0.0298415518297304 1 0.774346 -0.610208 -0.167433 0 0 0
3363 2 10.296965535661814 -8.030638020118909 -3.2630520704175576 0 1 1.90985931710274 0 0 0 1 0 0 0
3264 2 11.277137438394748 -7.17584889950371 -2.495465958848955 0 1 1.90985931710274 0 0 0 1 0 0 0
3301 2 13.860674142610996 -7.674755093131554 -2.53437173579446 0 1 1.90985931710274 0 0 0 1 0 0 0
4441 2 0.6684939057098411 -5.884586734690373 -3.0642199411097657 0 1 1.90985931710274 0 0 0 1 0 0 0
4450 2 1.002847675448571 -7.03160873585634 -3.4951255375087964 0 1 1.90985931710274 0 0 0 1 0 0 0
4436 2 2.5184495996076617 -6.530639394046373 -2.690853737405277 0 1 1.90985931710274 0 0 0 1 0 0 0
4497 2 6.0718270340381295 -7.108364921145563 -1.987119693492609 0 1 1.90985931710274 0 0 0 1 0 0 0
1368 1 8.996025895892759 -7.142375312258343 -3.2975402454766938 0 4 0.0298415518297304 1 0.7541 -0.59604 -0.275807 0 0 0
2026 1 10.113173319118141 -6.011561039835598 -2.0830139269438743 0 4 0.0298415518297304 1 0.846422 -0.502849 -0.175251 0 0 0
2045 1 9.37289470523265 -6.909457866036755 -2.6877540399909075 0 4 0.0298415518297304 1 0.784369 -0.577333 -0.226831 0 0 0
2046 1 9.79413632702012 -6.274706368145702 -2.737132063013731 0 4 0.0298415518297304 1 0.820451 -0.524802 -0.226809 0 0 0
2047 1 9.85282733924287 -5.854617017001387 -3.383586720413358 0 4 0.0298415518297304 1 0.823738 -0.490447 -0.284461 0 0 0
3431 2 13.951574234738857 -6.584744787908761 -2.7452289087812307 0 1 1.90985931710274 0 0 0 1 0 0 0
4478 2 3.047923899623653 -4.995095025258331 -1.863309516763067 0 1 1.90985931710274 0 0 0 1 0 0 0
4481 2 8.769812539101157 -3.7595991683636405 -3.009693245381104 0 1 1.90985931710274 0 0 0 1 0 0 0
2027 1 10.492772653721886 -5.310097654165997 -2.1070288296765565 0 4 0.0298415518297304 1 0.878746 -0.443955 -0.17524 0 0 0
2028 1 10.54382301778774 -4.884105722525149 -2.7798204017072834 0 4 0.0298415518297304 1 0.882039 -0.409603 -0.232881 0 0 0
2048 1 10.215155116265121 -5.172463522025751 -3.4183554655301926 0 4 0.0298415518297304 1 0.856072 -0.431545 -0.284445 0 0 0
2011 1 11.123083633229703 -3.8114019686846525 -2.115633286578001 0 4 0.0298415518297304 1 0.930931 -0.319741 -0.176449 0 0 0
2029 1 10.852187900093165 -4.148160133050597 -2.787820095153561 0 4 0.0298415518297304 1 0.908815 -0.346156 -0.232877 0 0 0
2030 1 10.828792332517375 -3.7071227937142512 -3.4315134233143305 0 4 0.0298415518297304 1 0.905904 -0.312038 -0.286305 0 0 0
3395 2 14.072772208805047 -4.633140613597325 -3.126270730254733 0 1 1.90985931710274 0 0 0 1 0 0 0
3398 2 12.650321031654938 -3.758772975470354 -2.5895047302213 0 1 1.90985931710274 0 0 0 1 0 0 0
4507 2 2.2980683729097926 -3.2533265051346696 -3.0752637983958913 0 1 1.90985931710274 0 0 0 1 0 0 0
4448 2 4.554896890733765 -2.2488764493456785 -2.7528791940949944 0 1 1.90985931710274 0 0 0 1 0 0 0
4438 2 6.16890695593214 -1.881421648533129 -2.0155308963064194 0 1 1.90985931710274 0 0 0 1 0 0 0
4463 2 8.950954925022053 -2.866195154346869 -2.1398671078339895 0 1 1.90985931710274 0 0 0 1 0 0 0
4514 2 8.555357132647352 -2.5916075959489717 -3.239327114358188 0 1 1.90985931710274 0 0 0 1 0 0 0
2012 1 11.360997099847129 -3.039448746477639 -2.103550570471817 0 4 0.0298415518297304 1 0.950927 -0.254167 -0.176454 0 0 0
2013 1 11.325622741883521 -2.616436136241011 -2.7661375647652378 0 4 0.0298415518297304 1 0.948027 -0.220102 -0.229781 0 0 0
2014 1 11.48537574342067 -1.8548371467004798 -2.726875306230269 0 4 0.0298415518297304 1 0.960798 -0.155112 -0.229798 0 0 0
2031 1 11.06193314522361 -2.963422670948167 -3.412019013526081 0 4 0.0298415518297304 1 0.925869 -0.246557 -0.286314 0 0 0
3280 2 13.806446107230817 -3.405265771619252 -2.3203876047575616 0 1 1.90985931710274 0 0 0 1 0 0 0
4479 2 0.4573536568290109 -1.2318794909679363 -3.391945238854516 0 1 1.90985931710274 0 0 0 1 0 0 0
4515 2 1.390817635837646 -0.6680039875402045 -3.4879404455265943 0 1 1.90985931710274 0 0 0 1 0 0 0
4500 2 2.4689723687444847 -0.9792285114285448 -2.5999275795401893 0 1 1.90985931710274 0 0 0 1 0 0 0
4444 2 9.391486422318119 -1.6566011267697496 -2.990283643869173 0 1 1.90985931710274 0 0 0 1 0 0 0
4506 2 10.384312982262301 -1.2451160206495695 -3.060380788738348 0 1 1.90985931710274 0 0 0 1 0 0 0
1998 1 11.674634439008784 -1.4926796990507116 -2.0629124085374824 0 4 0.0298415518297304 1 0.977384 -0.124901 -0.170648 0 0 0
1999 1 11.756097880475448 -0.7363147481133524 -2.0167350080379154 0 4 0.0298415518297304 1 0.983303 -0.063153 -0.170666 0 0 0
2000 1 11.648741412035173 -0.3678117563873662 -2.6502621255199252 0 4 0.0298415518297304 1 0.97535 -0.030501 -0.218543 0 0 0
2015 1 11.415383915429938 -1.4596029523421816 -3.362036156712707 0 4 0.0298415518297304 1 0.9529 -0.122693 -0.277359 0 0 0
2016 1 11.472097285570149 -0.7237953884855253 -3.276131940429869 0 4 0.0298415518297304 1 0.958848 -0.060552 -0.277386 0 0 0
3257 2 14.1481122254022 -1.2416176652676292 -2.1727621530237293 0 1 1.90985931710274 0 0 0 1 0 0 0
3368 2 0.970891796151939 -13.1440680743732 -0.03160799037416062 0 1 1.90985931710274 0 0 0 1 0 0 0
3437 2 2.760522987951047 -13.559139506788048 -1.771330586710409 0 1 1.90985931710274 0 0 0 1 0 0 0
3396 2 4.331620354457931 -13.132180625548768 -1.1469135981384468 0 1 1.90985931710274 0 0 0 1 0 0 0
3388 2 9.869620473011336 -13.612030098459456 -0.9695908080875384 0 1 1.90985931710274 0 0 0 1 0 0 0
3348 2 11.93326490675202 -12.996658448388178 -0.18762378544830174 0 1 1.90985931710274 0 0 0 1 0 0 0
3345 2 13.16541273599402 -14.342886148562522 -0.39899289029510676 0 1 1.90985931710274 0 0 0 1 0 0 0
1469 1 1.3496076122842269 -11.86812127662825 -0.3768687790293372 0 4 0.0298415518297304 1 0.111273 -0.993329 -0.030269 0 0 0
1983 1 11.83119651802187 -1.5137182198694838 -0.6968056081181138 0 4 0.0298415518297304 1 0.99035 -0.126041 -0.05763 0 0 0
1479 1 0.6812230974745015 -11.906795768543468 -0.7436907815813955 0 4 0.0298415518297304 1 0.057636 -0.996248 -0.064561 0 0 0
1480 1 0.6968056081181138 -11.83119651802187 -1.5137182198694838 0 4 0.0298415518297304 1 0.05763 -0.99035 -0.126041 0 0 0
1462 1 2.6502621255199252 -11.648741412035173 -0.3678117563873662 0 4 0.0298415518297304 1 0.218543 -0.97535 -0.030501 0 0 0
1463 1 3.276131940429869 -11.472097285570149 -0.7237953884855253 0 4 0.0298415518297304 1 0.277386 -0.958848 -0.060552 0 0 0
1464 1 3.3517287379160643 -11.379342313562363 -1.4521994712227135 0 4 0.0298415518297304 1 0.277359 -0.9529 -0.122693 0 0 0
1470 1 2.0167350080379154 -11.756097880475448 -0.7363147481133524 0 4 0.0298415518297304 1 0.170666 -0.983303 -0.063153 0 0 0
1471 1 2.0629124085374824 -11.674634439008784 -1.4926796990507116 0 4 0.0298415518297304 1 0.170648 -0.977384 -0.124901 0 0 0
1454 1 4.959509308734032 -10.876011960372498 -0.32822608597127106 0 4 0.0298415518297304 1 0.408879 -0.912063 -0.03097 0 0 0
1457 1 3.8619611313205353 -11.308090336798315 -0.3522053557303874 0 4 0.0298415518297304 1 0.318484 -0.947429 -0.030774 0 0 0
1458 1 4.422370927131481 -11.08496819773124 -0.7106141284784225 0 4 0.0298415518297304 1 0.374801 -0.925344 -0.057112 0 0 0
1459 1 4.527409841300541 -10.975640721862607 -1.3942285429139425 0 4 0.0298415518297304 1 0.374767 -0.919379 -0.119553 0 0 0
3407 2 8.032276459786177 -11.475716373748394 -1.0134135892641591 0 1 1.90985931710274 0 0 0 1 0 0 0
3268 2 9.651198405751996 -10.891682526212211 -0.930686048606999 0 1 1.90985931710274 0 0 0 1 0 0 0
3371 2 10.549419982069145 -11.257093363888679 -0.356518877016363 0 1 1.90985931710274 0 0 0 1 0 0 0
3351 2 13.450800678982903 -10.910426334363251 -0.2458356431385802 0 1 1.90985931710274 0 0 0 1 0 0 0
4504 2 2.82707732631167 -9.53886267975566 -0.13972465337131545 0 1 1.90985931710274 0 0 0 1 0 0 0
1460 1 5.061730274197689 -10.689822936524607 -1.745118796613131 0 4 0.0298415518297304 1 0.427143 -0.892995 -0.141803 0 0 0
4511 2 3.6795208095436216 -9.150462000351135 -1.7882999015441765 0 1 1.90985931710274 0 0 0 1 0 0 0
1413 1 7.102193318178118 -9.551761345313452 -1.14665875491715 0 4 0.0298415518297304 1 0.596039 -0.796392 -0.102459 0 0 0
1432 1 6.417728021582561 -10.08337967517057 -0.4865794786618666 0 4 0.0298415518297304 1 0.538863 -0.840898 -0.050161 0 0 0
1433 1 6.570502549743725 -9.928117389224152 -1.1377675643454386 0 4 0.0298415518297304 1 0.547371 -0.832448 -0.086106 0 0 0
1434 1 6.106168118875939 -10.16733844680462 -1.5271061926927691 0 4 0.0298415518297304 1 0.511338 -0.84874 -0.134812 0 0 0
1453 1 5.931148609750038 -10.38410240725975 -0.3007226119801671 0 4 0.0298415518297304 1 0.488703 -0.871899 -0.031001 0 0 0
1455 1 5.432734791968485 -10.631296536123939 -0.7031792711430755 0 4 0.0298415518297304 1 0.461265 -0.885665 -0.053217 0 0 0
1456 1 5.575087225059108 -10.49556439859258 -1.324251409088832 0 4 0.0298415518297304 1 0.461227 -0.87971 -0.115671 0 0 0
1414 1 7.246032847391109 -9.33984966043232 -1.7891570029506303 0 4 0.0298415518297304 1 0.604243 -0.783541 -0.144752 0 0 0
2039 1 7.430419130501573 -9.348906162508925 -0.6155775977841709 0 4 0.0298415518297304 1 0.627009 -0.777251 -0.052348 0 0 0
3254 2 11.712436767365913 -9.878996881087943 -0.47179044505673673 0 1 1.90985931710274 0 0 0 1 0 0 0
4491 2 2.165418503885416 -8.36492119779624 -1.7070873614147732 0 1 1.90985931710274 0 0 0 1 0 0 0
4512 2 7.090679399798816 -8.242501581263877 -1.1123003019928746 0 1 1.90985931710274 0 0 0 1 0 0 0
2022 1 8.896439356475284 -7.952522696613374 -0.6656915704953397 0 4 0.0298415518297304 1 0.74655 -0.662924 -0.056523 0 0 0
2040 1 7.9566467609051275 -8.9006657194245 -0.6393586009192922 0 4 0.0298415518297304 1 0.661356 -0.748244 -0.052342 0 0 0
2041 1 8.131128066779423 -8.669599745290057 -1.2784715515496379 0 4 0.0298415518297304 1 0.683456 -0.721864 -0.108633 0 0 0
2042 1 8.630639292972145 -8.162830137834208 -1.321444919037123 0 4 0.0298415518297304 1 0.720284 -0.685123 -0.10862 0 0 0
4521 2 7.197462414500304 -7.358723493386888 -0.26991535342955686 0 1 1.90985931710274 0 0 0 1 0 0 0
2023 1 9.376631494888152 -7.375600354702212 -0.6851437658954603 0 4 0.0298415518297304 1 0.783847 -0.618377 -0.056516 0 0 0
3389 2 10.493265459759195 -7.9100478272317085 -0.7064242833225389 0 1 1.90985931710274 0 0 0 1 0 0 0
4451 2 1.9620037398942003 -6.943205598188506 -0.593426754216754 0 1 1.90985931710274 0 0 0 1 0 0 0
4454 2 3.0642195829581165 -6.197789161983929 -1.4512657443754597 0 1 1.90985931710274 0 0 0 1 0 0 0
4505 2 2.6628494222716648 -7.204889941088172 -1.626815588438888 0 1 1.90985931710274 0 0 0 1 0 0 0
4503 2 4.388388512485932 -6.1648226489509526 -1.2263649186649381 0 1 1.90985931710274 0 0 0 1 0 0 0
4498 2 7.9090504382781575 -6.48780785901526 -0.3485844694797233 0 1 1.90985931710274 0 0 0 1 0 0 0
2007 1 10.25069844397294 -6.095336996791155 -0.7040841837917592 0 4 0.0298415518297304 1 0.858483 -0.50941 -0.059226 0 0 0
2008 1 10.64038312370757 -5.383451567067813 -0.7122045543855867 0 4 0.0298415518297304 1 0.890774 -0.450572 -0.059223 0 0 0
2024 1 9.553842441772057 -7.044985182758772 -1.3686009819231013 0 4 0.0298415518297304 1 0.800437 -0.588153 -0.115657 0 0 0
2025 1 9.992199987587664 -6.399635919207783 -1.3963315588536618 0 4 0.0298415518297304 1 0.836362 -0.53584 -0.115646 0 0 0
3343 2 11.987637515257793 -5.456161062276625 -1.7036436832224613 0 1 1.90985931710274 0 0 0 1 0 0 0
3291 2 13.94629527412249 -6.450025823361832 -1.551975242312114 0 1 1.90985931710274 0 0 0 1 0 0 0
4459 2 3.4407508180949478 -4.004604278205233 -1.319611795355904 0 1 1.90985931710274 0 0 0 1 0 0 0
4476 2 6.15877348822967 -4.771567323938698 -0.09297943770835637 0 1 1.90985931710274 0 0 0 1 0 0 0
4495 2 7.470846077036203 -4.774483252514027 -1.265835003239106 0 1 1.90985931710274 0 0 0 1 0 0 0
2009 1 10.76190507047654 -4.98783925556015 -1.4192693658356634 0 4 0.0298415518297304 1 0.900842 -0.417556 -0.118869 0 0 0
1994 1 11.279869072120212 -3.86648581940601 -0.7152375895268429 0 4 0.0298415518297304 1 0.944241 -0.323807 -0.059642 0 0 0
2010 1 11.07989365716363 -4.2327990080513676 -1.423347517251903 0 4 0.0298415518297304 1 0.927636 -0.354065 -0.118867 0 0 0
3284 2 13.414603360307808 -4.540921751401859 -1.47989009261879 0 1 1.90985931710274 0 0 0 1 0 0 0
4461 2 0.1292948503134248 -2.7425351928890134 -0.1376450839701296 0 1 1.90985931710274 0 0 0 1 0 0 0
4488 2 1.3431774771481546 -3.4097735709593735 -1.5475191142084732 0 1 1.90985931710274 0 0 0 1 0 0 0
4510 2 4.562446663291158 -2.480257053766987 -1.68221362048377 0 1 1.90985931710274 0 0 0 1 0 0 0
4434 2 6.880362220827212 -3.241784557013345 -0.4303657232694711 0 1 1.90985931710274 0 0 0 1 0 0 0
1995 1 11.52006018579294 -3.0804279528325313 -0.7111428724090038 0 4 0.0298415518297304 1 0.964238 -0.258241 -0.059644 0 0 0
1996 1 11.558231437056955 -2.672170851459992 -1.4115491063592356 0 4 0.0298415518297304 1 0.967535 -0.22391 -0.117222 0 0 0
1997 1 11.715167821109105 -1.8888478978032397 -1.3914885773027972 0 4 0.0298415518297304 1 0.980288 -0.159038 -0.117231 0 0 0
3243 2 13.13731806224016 -1.9498098481958246 -1.44257151899404 0 1 1.90985931710274 0 0 0 1 0 0 0
4447 2 1.7489304998811104 -0.42845049818555303 -1.7765450046108775 0 1 1.90985931710274 0 0 0 1 0 0 0
4471 2 0.5810612628338581 -0.7835176450830679 -1.6255342800081207 0 1 1.90985931710274 0 0 0 1 0 0 0
4452 2 6.941082336891108 -0.44968243741465785 -1.0411885553989237 0 1 1.90985931710274 0 0 0 1 0 0 0
4470 2 9.513238633855877 -0.007210784239356727 -1.6037607108614278 0 1 1.90985931710274 0 0 0 1 0 0 0
4516 2 10.755505410386231 -1.2750916386157911 -0.31528221558455805 0 1 1.90985931710274 0 0 0 1 0 0 0
4518 2 10.015504535446023 -1.3292367586698663 -1.4643509644558108 0 1 1.90985931710274 0 0 0 1 0 0 0
1255 1 2.691412527142975 -1.105920725304196e-18 -11.639062436059561 0 4 0.0298415518297304 1 0.225222 -0 -0.974307 0 0 0
1267 1 4.262370524096592 -6.912004533151225e-19 -11.159030532552128 0 4 0.0298415518297304 1 0.356822 0 -0.934172 0 0 0
1280 1 6.4430651044093965 -6.912004533151225e-19 -10.060931286493508 0 4 0.0298415518297304 1 0.539676 0 -0.841873 0 0 0
1311 1 9.897522950485259 -1.105920725304196e-18 -6.718450883615759 0 4 0.0298415518297304 1 0.821739 0 -0.569865 0 0 0
2038 1 7.2736816536149265 -9.493528896893935 -4.423682901216784e-18 0 4 0.0298415518297304 1 0.600588 -0.799559 0 0 0 0
1993 1 11.159030532552128 -4.262370524096592 -1.105920725304196e-18 0 4 0.0298415518297304 1 0.934172 -0.356822 -0 0 0 0
1982 1 11.794987974137706 -1.9008536977816826 -1.105920725304196e-18 0 4 0.0298415518297304 1 0.98705 -0.160411 -0 0 0 0
3596 2 6.211816169088527 -12.585618129123798 0.5788838163242254 0 1 1.90985931710274 0 0 0 1 0 0 0
3609 2 9.582743403016549 -13.37115350084881 0.589131234058895 0 1 1.90985931710274 0 0 0 1 0 0 0
3592 2 11.50490414515558 -12.912330140509399 0.8145781838901763 0 1 1.90985931710274 0 0 0 1 0 0 0
3586 2 14.285708496296705 -13.449706741318568 0.5951426588197783 0 1 1.90985931710274 0 0 0 1 0 0 0
3651 2 12.72487036217422 -13.656310937883013 1.0307850002178558 0 1 1.90985931710274 0 0 0 1 0 0 0
2149 1 0.6976003739808675 -11.839270272235504 1.5143887490851997 0 4 0.0298415518297304 1 0.05763 -0.99035 0.126041 0 0 0
2168 1 0 -11.94399904357446 0.37985787396102 0 4 0.0298415518297304 1 0 -0.999545 0.030178 0 0 0
2169 1 0.6812230974745015 -11.906795768543468 0.7436907815813955 0 4 0.0298415518297304 1 0.057636 -0.996248 0.064561 0 0 0
2170 1 1.3496076122842269 -11.86812127662825 0.3768687790293372 0 4 0.0298415518297304 1 0.111273 -0.993329 0.030269 0 0 0
2151 1 2.0629124085374824 -11.674634439008784 1.4926796990507116 0 4 0.0298415518297304 1 0.170648 -0.977384 0.124901 0 0 0
2153 1 3.3517287379160643 -11.379342313562363 1.4521994712227135 0 4 0.0298415518297304 1 0.277359 -0.9529 0.122693 0 0 0
2171 1 2.0167350080379154 -11.756097880475448 0.7363147481133524 0 4 0.0298415518297304 1 0.170666 -0.983303 0.063153 0 0 0
2172 1 2.6502621255199252 -11.648741412035173 0.3678117563873662 0 4 0.0298415518297304 1 0.218543 -0.97535 0.030501 0 0 0
2173 1 3.2729993845979384 -11.464222773248679 0.7252221647628785 0 4 0.0298415518297304 1 0.277386 -0.958848 0.060552 0 0 0
2155 1 4.527409841300541 -10.975640721862607 1.3942285429139425 0 4 0.0298415518297304 1 0.374767 -0.919379 0.119553 0 0 0
2174 1 3.8619611313205353 -11.308090336798315 0.3522053557303874 0 4 0.0298415518297304 1 0.318484 -0.947429 0.030774 0 0 0
2175 1 4.422370927131481 -11.08496819773124 0.7106141284784225 0 4 0.0298415518297304 1 0.374801 -0.925344 0.057112 0 0 0
2176 1 4.959509308734032 -10.876011960372498 0.32822608597127106 0 4 0.0298415518297304 1 0.408879 -0.912063 0.03097 0 0 0
3441 2 3.6892872945898176 -12.46712620848668 0.537139775038846 0 1 1.90985931710274 0 0 0 1 0 0 0
3580 2 8.335273054634113 -12.24744853096724 1.5070523653410455 0 1 1.90985931710274 0 0 0 1 0 0 0
3594 2 8.491606853138594 -12.104081299699477 0.05986795092036523 0 1 1.90985931710274 0 0 0 1 0 0 0
3643 2 12.555921833275816 -11.765930133378493 0.5499083076648539 0 1 1.90985931710274 0 0 0 1 0 0 0
3649 2 13.56171051623876 -12.419901575176706 1.7708880051200264 0 1 1.90985931710274 0 0 0 1 0 0 0
4606 2 0.5891401735746625 -10.750269121129703 1.420303575277986 0 1 1.90985931710274 0 0 0 1 0 0 0
2156 1 5.061730274197689 -10.689822936524607 1.745118796613131 0 4 0.0298415518297304 1 0.427143 -0.892995 0.141803 0 0 0
1189 1 7.102193318178118 -9.551761345313452 1.14665875491715 0 4 0.0298415518297304 1 0.596039 -0.796392 0.102459 0 0 0
1208 1 6.106168118875939 -10.16733844680462 1.5271061926927691 0 4 0.0298415518297304 1 0.511338 -0.84874 0.134812 0 0 0
1209 1 6.570502549743725 -9.928117389224152 1.1377675643454386 0 4 0.0298415518297304 1 0.547371 -0.832448 0.086106 0 0 0
1210 1 6.417728021582561 -10.08337967517057 0.4865794786618666 0 4 0.0298415518297304 1 0.538863 -0.840898 0.050161 0 0 0
2037 1 6.718450883615759 -9.897522950485259 0 0 4 0.0298415518297304 1 0.569865 -0.821739 0 0 0 0
2157 1 5.575087225059108 -10.49556439859258 1.324251409088832 0 4 0.0298415518297304 1 0.461227 -0.87971 0.115671 0 0 0
2177 1 5.432734791968485 -10.631296536123939 0.7031792711430755 0 4 0.0298415518297304 1 0.461265 -0.885665 0.053217 0 0 0
2178 1 5.931148609750038 -10.38410240725975 0.3007226119801671 0 4 0.0298415518297304 1 0.488703 -0.871899 0.031001 0 0 0
1188 1 7.246032847391109 -9.33984966043232 1.7891570029506303 0 4 0.0298415518297304 1 0.604243 -0.783541 0.144752 0 0 0
2018 1 7.430419130501573 -9.348906162508925 0.6155775977841709 0 4 0.0298415518297304 1 0.627009 -0.777251 0.052348 0 0 0
542 1 5.0237641903669115 -1.105920725304196e-18 10.837827437084997 0 4 0.0298415518297304 1 0.420311 0 0.90738 0 0 0
3485 2 10.679322764224535 -9.264177678260202 0.40071148078659746 0 1 1.90985931710274 0 0 0 1 0 0 0
3452 2 12.552671775495218 -8.987463251878758 1.5628476737286316 0 1 1.90985931710274 0 0 0 1 0 0 0
3455 2 10.916621955394062 -10.428737692035858 1.7866679533517544 0 1 1.90985931710274 0 0 0 1 0 0 0
3439 2 14.058533561026467 -9.011798951829162 1.4489835143450174 0 1 1.90985931710274 0 0 0 1 0 0 0
3590 2 13.085409126984674 -10.012124768590615 0.7331362975489597 0 1 1.90985931710274 0 0 0 1 0 0 0
4528 2 1.3728069765987474 -7.6959143048581 1.0301022499086478 0 1 1.90985931710274 0 0 0 1 0 0 0
4526 2 5.367396718790246 -7.2675632923034525 1.134592255859788 0 1 1.90985931710274 0 0 0 1 0 0 0
4602 2 5.162403505142748 -8.457273065777471 0.7776374780395301 0 1 1.90985931710274 0 0 0 1 0 0 0
2001 1 8.131128066779423 -8.669599745290057 1.2784715515496379 0 4 0.0298415518297304 1 0.683456 -0.721864 0.108633 0 0 0
2002 1 8.633929191436797 -8.164594686736773 1.3238922102734614 0 4 0.0298415518297304 1 0.720284 -0.685123 0.10862 0 0 0
2003 1 8.89847265918166 -7.952910595888314 0.6656057518273033 0 4 0.0298415518297304 1 0.74655 -0.662924 0.056523 0 0 0
2019 1 7.9566467609051275 -8.9006657194245 0.6393586009192921 0 4 0.0298415518297304 1 0.661356 -0.748244 0.052342 0 0 0
2020 1 8.177547707543587 -8.719731403206659 1.105920725304196e-18 0 4 0.0298415518297304 1 0.68776 -0.725938 0 0 0 0
2021 1 8.684155977676964 -8.21217122543628 3.317762175912588e-18 0 4 0.0298415518297304 1 0.724369 -0.689412 0 0 0 0
4591 2 7.805460649048406 -7.739318913755159 0.71277852514202 0 1 1.90985931710274 0 0 0 1 0 0 0
2004 1 9.376631494888152 -7.375600354702212 0.6851437658954603 0 4 0.0298415518297304 1 0.783847 -0.618377 0.056516 0 0 0
3565 2 12.310193437486534 -8.765542163835175 0.24835442221468185 0 1 1.90985931710274 0 0 0 1 0 0 0
3469 2 13.936242360531201 -8.524323428497961 0.47645632769209023 0 1 1.90985931710274 0 0 0 1 0 0 0
3477 2 13.160681369725724 -7.759677019773679 0.8794646637949981 0 1 1.90985931710274 0 0 0 1 0 0 0
4610 2 2.756117525266923 -6.281338838820854 1.7274279379046895 0 1 1.90985931710274 0 0 0 1 0 0 0
4586 2 3.687173093834364 -5.661479165392652 0.36473740503619617 0 1 1.90985931710274 0 0 0 1 0 0 0
4576 2 8.370162311331004 -5.87582945982277 0.6138307587131653 0 1 1.90985931710274 0 0 0 1 0 0 0
1988 1 9.553842441772057 -7.044985182758772 1.3686009819231013 0 4 0.0298415518297304 1 0.800437 -0.588153 0.115657 0 0 0
1989 1 9.992199987587664 -6.399635919207783 1.3963315588536618 0 4 0.0298415518297304 1 0.836362 -0.53584 0.115646 0 0 0
1990 1 10.25069844397294 -6.095336996791155 0.7040841837917592 0 4 0.0298415518297304 1 0.858483 -0.50941 0.059226 0 0 0
1991 1 10.64038312370757 -5.383451567067813 0.7122045543855867 0 4 0.0298415518297304 1 0.890774 -0.450572 0.059223 0 0 0
2005 1 9.61605526409717 -7.092140394247476 5.52960362652098e-19 0 4 0.0298415518297304 1 0.806015 -0.591895 0 0 0 0
2006 1 10.060931286493508 -6.4430651044093965 5.52960362652098e-19 0 4 0.0298415518297304 1 0.841873 -0.539676 0 0 0 0
3540 2 11.220786624500379 -7.127876022133652 0.15405199971645978 0 1 1.90985931710274 0 0 0 1 0 0 0
4545 2 0.8772029568523333 -3.700542563595321 0.8821938858522503 0 1 1.90985931710274 0 0 0 1 0 0 0
4559 2 0.6976333969046348 -4.783705843057529 0.9548714996773019 0 1 1.90985931710274 0 0 0 1 0 0 0
4533 2 3.272459606255783 -4.6657284195232185 0.12092891391085407 0 1 1.90985931710274 0 0 0 1 0 0 0
4608 2 2.245383890141019 -3.7710423999079605 1.6720847468959708 0 1 1.90985931710274 0 0 0 1 0 0 0
4557 2 6.487572902522722 -3.600329300654712 0.7377838962664782 0 1 1.90985931710274 0 0 0 1 0 0 0
4596 2 5.711933328725355 -4.694636112991517 1.3406709515738378 0 1 1.90985931710274 0 0 0 1 0 0 0
4614 2 7.482217621557989 -4.993558474840055 0.04391536318037659 0 1 1.90985931710274 0 0 0 1 0 0 0
1977 1 10.76190507047654 -4.98783925556015 1.4192693658356634 0 4 0.0298415518297304 1 0.900842 -0.417556 0.118869 0 0 0
4567 2 9.569942157913466 -3.6942019483681428 1.5803417766396013 0 1 1.90985931710274 0 0 0 1 0 0 0
4611 2 9.938477096583807 -4.380189715925209 0.456528445018618 0 1 1.90985931710274 0 0 0 1 0 0 0
1978 1 11.07989365716363 -4.2327990080513676 1.423347517251903 0 4 0.0298415518297304 1 0.927636 -0.354065 0.118867 0 0 0
1979 1 11.279869072120212 -3.86648581940601 0.7152375895268429 0 4 0.0298415518297304 1 0.944241 -0.323807 0.059642 0 0 0
1992 1 10.837827437084997 -5.0237641903669115 8.29440543978147e-19 0 4 0.0298415518297304 1 0.90738 -0.420311 -0 0 0 0
525 1 2.691412527142975 -4.147202719890735e-19 11.639062436059561 0 4 0.0298415518297304 1 0.225222 -0 0.974307 0 0 0
3524 2 13.003774441427788 -4.393772923175391 1.773342191207261 0 1 1.90985931710274 0 0 0 1 0 0 0
4581 2 0.9390885959208148 -2.3394483588475765 1.3896648487762793 0 1 1.90985931710274 0 0 0 1 0 0 0
4592 2 1.007445688180745 -2.204056335565115 0.27495435541789887 0 1 1.90985931710274 0 0 0 1 0 0 0
4561 2 4.62051798703547 -3.3299578948465847 0.5301813134604725 0 1 1.90985931710274 0 0 0 1 0 0 0
4613 2 5.292265148054042 -2.3722386557322857 0.3874391074848109 0 1 1.90985931710274 0 0 0 1 0 0 0
1968 1 11.558231437056955 -2.672170851459992 1.4115491063592356 0 4 0.0298415518297304 1 0.967535 -0.22391 0.117222 0 0 0
1969 1 11.715167821109105 -1.8888478978032397 1.3914885773027972 0 4 0.0298415518297304 1 0.980288 -0.159038 0.117231 0 0 0
1980 1 11.52006018579294 -3.0804279528325313 0.7111428724090038 0 4 0.0298415518297304 1 0.964238 -0.258241 0.059644 0 0 0
1981 1 11.639062436059561 -2.691412527142975 5.52960362652098e-19 0 4 0.0298415518297304 1 0.974307 -0.225222 -0 0 0 0
561 1 7.092140394247476 -1.382400906630245e-18 9.61605526409717 0 4 0.0298415518297304 1 0.591895 0 0.806015 0 0 0
3481 2 13.3377062395022 -2.872471432753214 1.291803905852258 0 1 1.90985931710274 0 0 0 1 0 0 0
3510 2 13.94737534024721 -2.8413497189311747 0.3766237346365538 0 1 1.90985931710274 0 0 0 1 0 0 0
4615 2 0.8993406977919491 -0.6901882107169595 0.03207248007476693 0 1 1.90985931710274 0 0 0 1 0 0 0
4535 2 2.921525915916561 -0.7015651903339464 0.1598000573578684 0 1 1.90985931710274 0 0 0 1 0 0 0
4577 2 4.79568679515447 -1.1298938388083393 0.43118314822270953 0 1 1.90985931710274 0 0 0 1 0 0 0
4607 2 8.599604565665771 -0.36991885535463886 1.3440780546029725 0 1 1.90985931710274 0 0 0 1 0 0 0
4553 2 9.84336697347553 -0.41830279677065185 1.3528266756407188 0 1 1.90985931710274 0 0 0 1 0 0 0
1961 1 11.86812127662825 -0.37686877902933724 1.3496076122842269 0 4 0.0298415518297304 1 0.993329 -0.030269 0.111273 0 0 0
1970 1 11.83119651802187 -1.5137182198694838 0.6968056081181138 0 4 0.0298415518297304 1 0.99035 -0.126041 0.05763 0 0 0
1971 1 11.906795768543468 -0.7436907815813953 0.6812230974745015 0 4 0.0298415518297304 1 0.996248 -0.064561 0.057636 0 0 0
1972 1 11.94399904357446 -0.37985787396102 0 0 4 0.0298415518297304 1 0.999545 -0.030178 0 0 0 0
3629 2 13.32677609938417 -0.21167365026142804 1.3366160561710352 0 1 1.90985931710274 0 0 0 1 0 0 0
3462 2 6.9938587481138885 -13.897044449928005 1.876902060020475 0 1 1.90985931710274 0 0 0 1 0 0 0
3487 2 7.142452814015963 -13.471756833756345 3.1134610571367407 0 1 1.90985931710274 0 0 0 1 0 0 0
3569 2 5.998345255331477 -12.754515643861536 3.3266596191604716 0 1 1.90985931710274 0 0 0 1 0 0 0
3607 2 5.620910779598928 -13.353975280802224 2.292535557021866 0 1 1.90985931710274 0 0 0 1 0 0 0
3532 2 7.7769579507594795 -13.009027818929031 2.0751949280331883 0 1 1.90985931710274 0 0 0 1 0 0 0
3624 2 8.747711638800462 -12.91504868061827 3.1507468487492165 0 1 1.90985931710274 0 0 0 1 0 0 0
3501 2 10.388141176993408 -12.910312452943366 2.8678887422261865 0 1 1.90985931710274 0 0 0 1 0 0 0
3591 2 11.316750771431614 -12.576544367760018 3.357475696015966 0 1 1.90985931710274 0 0 0 1 0 0 0
2130 1 0 -11.639062436059561 2.691412527142975 0 4 0.0298415518297304 1 0 -0.974307 0.225222 0 0 0
2131 1 0.7111428724090038 -11.52006018579294 3.0804279528325313 0 4 0.0298415518297304 1 0.059644 -0.964238 0.258241 0 0 0
2132 1 1.4115491063592356 -11.558231437056955 2.672170851459992 0 4 0.0298415518297304 1 0.117222 -0.967535 0.22391 0 0 0
2148 1 1.105920725304196e-18 -11.794987974137706 1.9008536977816826 0 4 0.0298415518297304 1 0 -0.98705 0.160411 0 0 0
2150 1 1.3914885773027972 -11.715167821109105 1.8888478978032397 0 4 0.0298415518297304 1 0.117231 -0.980288 0.159038 0 0 0
2133 1 2.103550570471817 -11.360997099847129 3.039448746477639 0 4 0.0298415518297304 1 0.176454 -0.950927 0.254167 0 0 0
2134 1 2.7661375647652378 -11.325622741883521 2.616436136241011 0 4 0.0298415518297304 1 0.229781 -0.948027 0.220102 0 0 0
2135 1 3.412019013526081 -11.06193314522361 2.963422670948167 0 4 0.0298415518297304 1 0.286314 -0.925869 0.246557 0 0 0
2152 1 2.726875306230269 -11.48537574342067 1.8548371467004798 0 4 0.0298415518297304 1 0.229798 -0.960798 0.155112 0 0 0
2136 1 4.017420313103844 -10.967922118238022 2.5293110254501143 0 4 0.0298415518297304 1 0.333881 -0.917967 0.214148 0 0 0
2154 1 3.960234221833683 -11.13171558938183 1.8043773161599217 0 4 0.0298415518297304 1 0.333904 -0.930733 0.149145 0 0 0
3464 2 3.742512275241415 -12.394238017559145 2.581890883447974 0 1 1.90985931710274 0 0 0 1 0 0 0
3514 2 6.860886184422825 -11.49029582348888 3.4294427589231122 0 1 1.90985931710274 0 0 0 1 0 0 0
3622 2 6.790677208873453 -11.930283045970148 2.405708243211816 0 1 1.90985931710274 0 0 0 1 0 0 0
3611 2 8.167222854433506 -10.818087536053575 1.8332715475667651 0 1 1.90985931710274 0 0 0 1 0 0 0
3495 2 10.735533071996004 -11.673636963139167 1.8621445200352387 0 1 1.90985931710274 0 0 0 1 0 0 0
3621 2 13.121136440666513 -12.266137717927343 2.981576795168321 0 1 1.90985931710274 0 0 0 1 0 0 0
4558 2 0.42347501379125063 -10.093687210475702 2.779807534861897 0 1 1.90985931710274 0 0 0 1 0 0 0
4552 2 2.1197707208159606 -10.20471524614147 2.302696100311154 0 1 1.90985931710274 0 0 0 1 0 0 0
2121 1 4.627224043334814 -10.426911840880612 3.566604096775424 0 4 0.0298415518297304 1 0.385995 -0.871859 0.301445 0 0 0
2137 1 4.597576101275517 -10.65540007802271 2.861937509150159 0 4 0.0298415518297304 1 0.386006 -0.891718 0.236303 0 0 0
2138 1 5.140432586494049 -10.517951734564901 2.4208158069392542 0 4 0.0298415518297304 1 0.427117 -0.88029 0.206546 0 0 0
1185 1 6.3671283268970695 -9.515722686147727 3.4268197334280326 0 4 0.0298415518297304 1 0.532402 -0.795275 0.289976 0 0 0
1186 1 6.8797784902812955 -9.327338261728201 2.9195443775880694 0 4 0.0298415518297304 1 0.575225 -0.781589 0.241321 0 0 0
1187 1 6.783319053141226 -9.581412179409126 2.2559092717178135 0 4 0.0298415518297304 1 0.568207 -0.799826 0.193441 0 0 0
1205 1 5.7687017515614585 -9.931604703079781 3.309267907455417 0 4 0.0298415518297304 1 0.483981 -0.831166 0.273726 0 0 0
1206 1 5.710312428807246 -10.165746059644487 2.63849077709189 0 4 0.0298415518297304 1 0.47691 -0.849516 0.225565 0 0 0
1207 1 6.211528291683313 -9.979208801255677 2.184302998367814 0 4 0.0298415518297304 1 0.519552 -0.835883 0.177101 0 0 0
3513 2 10.419762287070766 -9.13082920162423 2.903226301572369 0 1 1.90985931710274 0 0 0 1 0 0 0
4549 2 1.700061988542954 -8.563868558557033 3.0455403319407672 0 1 1.90985931710274 0 0 0 1 0 0 0
4560 2 2.2792638011011324 -8.373250893278883 1.8011886618013104 0 1 1.90985931710274 0 0 0 1 0 0 0
4595 2 5.3388738069500725 -8.30058259010519 3.3408821020758577 0 1 1.90985931710274 0 0 0 1 0 0 0
1152 1 8.519520450007567 -7.737155463213315 3.2201579666754445 0 4 0.0298415518297304 1 0.711194 -0.649239 0.269616 0 0 0
1153 1 8.421148108100308 -8.08213718829916 2.572094274093865 0 4 0.0298415518297304 1 0.706291 -0.673906 0.216805 0 0 0
1168 1 7.444239992366906 -8.850031126127387 3.015399555322699 0 4 0.0298415518297304 1 0.623858 -0.738752 0.255043 0 0 0
1169 1 7.906844018523753 -8.610159610496206 2.492570003313927 0 4 0.0298415518297304 1 0.659732 -0.722546 0.206595 0 0 0
1170 1 7.778922635537865 -8.887274502417357 1.848351927259901 0 4 0.0298415518297304 1 0.652682 -0.740883 0.158426 0 0 0
1986 1 8.788959806380333 -7.8548174342616175 1.976962086269973 0 4 0.0298415518297304 1 0.736792 -0.655055 0.167452 0 0 0
1987 1 9.255835233925785 -7.28208785979175 2.02877540751461 0 4 0.0298415518297304 1 0.774346 -0.610208 0.167433 0 0 0
3548 2 11.07048153269024 -7.609282075146624 2.8710270106995655 0 1 1.90985931710274 0 0 0 1 0 0 0
4562 2 0.7709281314511713 -6.338170700177623 3.2574541146776212 0 1 1.90985931710274 0 0 0 1 0 0 0
4609 2 1.193585458558161 -6.257140012987649 1.8382677165741832 0 1 1.90985931710274 0 0 0 1 0 0 0
1138 1 8.996025895892759 -7.142375312258343 3.2975402454766938 0 4 0.0298415518297304 1 0.7541 -0.59604 0.275807 0 0 0
1962 1 9.85282733924287 -5.854617017001387 3.383586720413358 0 4 0.0298415518297304 1 0.823738 -0.490447 0.284461 0 0 0
1973 1 9.37289470523265 -6.909457866036755 2.6877540399909075 0 4 0.0298415518297304 1 0.784369 -0.577333 0.226831 0 0 0
1974 1 9.79413632702012 -6.274706368145702 2.737132063013731 0 4 0.0298415518297304 1 0.820451 -0.524802 0.226809 0 0 0
1975 1 10.113173319118141 -6.011561039835598 2.0830139269438743 0 4 0.0298415518297304 1 0.846422 -0.502849 0.175251 0 0 0
1963 1 10.215155116265121 -5.172463522025751 3.4183554655301926 0 4 0.0298415518297304 1 0.856072 -0.431545 0.284445 0 0 0
1964 1 10.54382301778774 -4.884105722525149 2.7798204017072834 0 4 0.0298415518297304 1 0.882039 -0.409603 0.232881 0 0 0
1976 1 10.492772653721886 -5.310097654165997 2.1070288296765565 0 4 0.0298415518297304 1 0.878746 -0.443955 0.17524 0 0 0
4583 2 9.372060331974343 -4.950708507262718 2.6959804355035644 0 1 1.90985931710274 0 0 0 1 0 0 0
1955 1 10.828792332517375 -3.7071227937142512 3.4315134233143305 0 4 0.0298415518297304 1 0.905904 -0.312038 0.286305 0 0 0
1965 1 10.852187900093165 -4.148160133050597 2.787820095153561 0 4 0.0298415518297304 1 0.908815 -0.346156 0.232877 0 0 0
1966 1 11.123083633229703 -3.8114019686846525 2.115633286578001 0 4 0.0298415518297304 1 0.930931 -0.319741 0.176449 0 0 0
4598 2 1.4656258172676555 -2.33222918250938 3.1344715648423094 0 1 1.90985931710274 0 0 0 1 0 0 0
4530 2 2.961233429506086 -3.0295682911810733 2.56929211970283 0 1 1.90985931710274 0 0 0 1 0 0 0
4534 2 3.9972037278396844 -3.4735481984234013 2.8833270978824057 0 1 1.90985931710274 0 0 0 1 0 0 0
4554 2 4.4384552395661 -1.8085706125582828 2.5953527329421338 0 1 1.90985931710274 0 0 0 1 0 0 0
4587 2 9.725087284550241 -3.1860605640783604 3.33724153497786 0 1 1.90985931710274 0 0 0 1 0 0 0
1956 1 11.06193314522361 -2.963422670948167 3.412019013526081 0 4 0.0298415518297304 1 0.925869 -0.246557 0.286314 0 0 0
1957 1 11.325622741883521 -2.616436136241011 2.7661375647652378 0 4 0.0298415518297304 1 0.948027 -0.220102 0.229781 0 0 0
1958 1 11.48537574342067 -1.8548371467004798 2.726875306230269 0 4 0.0298415518297304 1 0.960798 -0.155112 0.229798 0 0 0
1967 1 11.360997099847129 -3.039448746477639 2.103550570471817 0 4 0.0298415518297304 1 0.950927 -0.254167 0.176454 0 0 0
4584 2 0.1394195306907271 -0.6985916809344612 2.300416534511438 0 1 1.90985931710274 0 0 0 1 0 0 0
4599 2 1.236615051576896 -0.5861101471145869 3.2888934451426906 0 1 1.90985931710274 0 0 0 1 0 0 0
4590 2 6.447884712478633 -0.9475553716324221 3.5438169738908023 0 1 1.90985931710274 0 0 0 1 0 0 0
4603 2 10.698898370967303 -0.6604852195574883 2.0404955051904627 0 1 1.90985931710274 0 0 0 1 0 0 0
1950 1 11.379342313562363 -1.4521994712227135 3.3517287379160643 0 4 0.0298415518297304 1 0.9529 -0.122693 0.277359 0 0 0
1951 1 11.472097285570149 -0.7237953884855253 3.276131940429869 0 4 0.0298415518297304 1 0.958848 -0.060552 0.277386 0 0 0
1952 1 11.648741412035173 -0.3678117563873662 2.6502621255199252 0 4 0.0298415518297304 1 0.97535 -0.030501 0.218543 0 0 0
1959 1 11.674634439008784 -1.4926796990507116 2.0629124085374824 0 4 0.0298415518297304 1 0.977384 -0.124901 0.170648 0 0 0
1960 1 11.811318179856322 -0.7402829867207941 2.015894124890887 0 4 0.0298415518297304 1 0.983303 -0.063153 0.170666 0 0 0
3555 2 2.946625319062255 -14.156506520672291 3.6641670608158723 0 1 1.90985931710274 0 0 0 1 0 0 0
3458 2 3.933677504522807 -14.002757485195048 4.625746326853195 0 1 1.90985931710274 0 0 0 1 0 0 0
3484 2 7.290973011627228 -14.287973581163273 4.081519388878553 0 1 1.90985931710274 0 0 0 1 0 0 0
3554 2 13.30721569044278 -13.251432728174933 3.6595775638992887 0 1 1.90985931710274 0 0 0 1 0 0 0
3600 2 9.449209017795887 -0.02714265910991319 13.224443352213045 0 1 1.90985931710274 0 0 0 1 0 0 0
2114 1 0.0006785948020632995 -11.155564226921376 4.263652823051294 0 4 0.0298415518297304 1 0 -0.934172 0.356822 0 0 0
2115 1 0.7152375895268429 -11.279869072120212 3.86648581940601 0 4 0.0298415518297304 1 0.059642 -0.944241 0.323807 0 0 0
2116 1 1.423347517251903 -11.07989365716363 4.2327990080513676 0 4 0.0298415518297304 1 0.118867 -0.927636 0.354065 0 0 0
3509 2 1.4490879398094219 -12.407801623036946 4.227125618072149 0 1 1.90985931710274 0 0 0 1 0 0 0
2117 1 2.115633286578001 -11.123083633229703 3.8114019686846525 0 4 0.0298415518297304 1 0.176449 -0.930931 0.319741 0 0 0
2118 1 2.787820095153561 -10.852187900093165 4.148160133050597 0 4 0.0298415518297304 1 0.232877 -0.908815 0.346156 0 0 0
2119 1 3.4315134233143305 -10.828792332517375 3.7071227937142512 0 4 0.0298415518297304 1 0.286305 -0.905904 0.312038 0 0 0
3527 2 2.6427872100821457 -11.968872149380488 5.133631362155098 0 1 1.90985931710274 0 0 0 1 0 0 0
3467 2 7.2552415414340015 -12.103819118722319 4.4663436339891565 0 1 1.90985931710274 0 0 0 1 0 0 0
3562 2 10.686022352237382 -11.468577946341913 4.157759831473202 0 1 1.90985931710274 0 0 0 1 0 0 0
3563 2 9.359156730025413 -11.349052462878324 3.9459804040111965 0 1 1.90985931710274 0 0 0 1 0 0 0
2102 1 1.4192693658356634 -10.76190507047654 4.98783925556015 0 4 0.0298415518297304 1 0.118869 -0.900842 0.417556 0 0 0
2103 1 2.1070288296765565 -10.492772653721886 5.310097654165997 0 4 0.0298415518297304 1 0.17524 -0.878746 0.443955 0 0 0
2104 1 2.7798204017072834 -10.54382301778774 4.884105722525149 0 4 0.0298415518297304 1 0.232881 -0.882039 0.409603 0 0 0
2105 1 3.4183554655301926 -10.215155116265121 5.172463522025751 0 4 0.0298415518297304 1 0.284445 -0.856072 0.431545 0 0 0
1202 1 4.6471478823731145 -9.830129370841252 4.958664267611715 0 4 0.0298415518297304 1 0.38708 -0.822871 0.415996 0 0 0
1203 1 5.236989763413343 -9.76656379777115 4.473864102795729 0 4 0.0298415518297304 1 0.440282 -0.816671 0.373095 0 0 0
1204 1 5.222355621366762 -10.059100048941238 3.7939239923523522 0 4 0.0298415518297304 1 0.435348 -0.841358 0.320296 0 0 0
2106 1 4.03736240898212 -10.206998193417988 4.725745922084348 0 4 0.0298415518297304 1 0.338104 -0.85314 0.397289 0 0 0
2120 1 4.045510343949046 -10.502245767290724 4.018942358833174 0 4 0.0298415518297304 1 0.338099 -0.879824 0.334064 0 0 0
1183 1 5.885078344930871 -9.368392355490435 4.625479934689406 0 4 0.0298415518297304 1 0.488399 -0.781003 0.389231 0 0 0
1184 1 6.413209013816228 -9.207096031147115 4.109775397540957 0 4 0.0298415518297304 1 0.53729 -0.770758 0.342421 0 0 0
3616 2 7.907668471714443 -10.582309895351774 3.797106822742032 0 1 1.90985931710274 0 0 0 1 0 0 0
3507 2 12.091536266716504 -9.996579295715119 3.6960529159810616 0 1 1.90985931710274 0 0 0 1 0 0 0
3652 2 12.525294438781986 -9.90085739116547 5.23283868193081 0 1 1.90985931710274 0 0 0 1 0 0 0
4527 2 5.001055682110207 -8.64522000947458 4.693500777632591 0 1 1.90985931710274 0 0 0 1 0 0 0
1165 1 7.021482536804528 -8.321548324326256 4.917931978313914 0 4 0.0298415518297304 1 0.587705 -0.69676 0.411251 0 0 0
1166 1 6.999619942319504 -8.709186563023858 4.233482399091309 0 4 0.0298415518297304 1 0.585913 -0.727926 0.356132 0 0 0
1182 1 5.878687645418006 -8.975630119471726 5.34235402178373 0 4 0.0298415518297304 1 0.490205 -0.749777 0.444447 0 0 0
1149 1 7.578527615711209 -7.746829429466787 5.027747336910463 0 4 0.0298415518297304 1 0.634573 -0.647794 0.421521 0 0 0
1150 1 8.103352022611611 -7.567008598743931 4.452551263255395 0 4 0.0298415518297304 1 0.677324 -0.634131 0.372974 0 0 0
1151 1 8.061162762905834 -7.967511654140036 3.7838070843487692 0 4 0.0298415518297304 1 0.675536 -0.665346 0.317751 0 0 0
1167 1 7.521794481100211 -8.521952334138087 3.6863335632185215 0 4 0.0298415518297304 1 0.628735 -0.714242 0.307492 0 0 0
3543 2 10.182488810138894 -7.53408999560591 3.7761718514751816 0 1 1.90985931710274 0 0 0 1 0 0 0
3617 2 11.8286332594275 -8.638946801990533 4.055644945109259 0 1 1.90985931710274 0 0 0 1 0 0 0
4531 2 1.3629740986183663 -5.534048521116994 4.707347586680189 0 1 1.90985931710274 0 0 0 1 0 0 0
4565 2 4.559157811514556 -6.154573874812795 3.6017360213501206 0 1 1.90985931710274 0 0 0 1 0 0 0
4604 2 6.609787544686068 -6.450546461253392 4.046699714236297 0 1 1.90985931710274 0 0 0 1 0 0 0
1135 1 8.620909683579615 -6.493313350437631 5.200719857092197 0 4 0.0298415518297304 1 0.718335 -0.543095 0.434791 0 0 0
1136 1 8.599985539423894 -6.9475277358707 4.532182475576576 0 4 0.0298415518297304 1 0.720381 -0.580747 0.379189 0 0 0
4569 2 7.715890627361364 -6.2310354951838764 4.639532102946592 0 1 1.90985931710274 0 0 0 1 0 0 0
1123 1 9.030104738562834 -5.819635519704458 5.229067623256141 0 4 0.0298415518297304 1 0.755998 -0.4875 0.436819 0 0 0
1124 1 9.471464327594123 -5.632089492713752 4.621672847602975 0 4 0.0298415518297304 1 0.791512 -0.471446 0.388906 0 0 0
1125 1 9.472968743546604 -6.089382005172075 3.9982103829107847 0 4 0.0298415518297304 1 0.793559 -0.509098 0.333291 0 0 0
1137 1 9.050444772702892 -6.734332239905998 3.9404487203291834 0 4 0.0298415518297304 1 0.755891 -0.564703 0.33127 0 0 0
4585 2 0.583199252684814 -4.3771401263304 3.875824764975958 0 1 1.90985931710274 0 0 0 1 0 0 0
4544 2 4.86098828342033 -3.816368554536405 5.237899906644323 0 1 1.90985931710274 0 0 0 1 0 0 0
4582 2 8.455631511101913 -4.449668910164785 4.681032860465258 0 1 1.90985931710274 0 0 0 1 0 0 0
1105 1 10.059100048941238 -3.7939239923523522 5.222355621366762 0 4 0.0298415518297304 1 0.841358 -0.320296 0.435348 0 0 0
1113 1 9.765930954750743 -4.474010090314408 5.236891991858055 0 4 0.0298415518297304 1 0.816671 -0.373095 0.440282 0 0 0
1114 1 9.830129370841252 -4.958664267611715 4.6471478823731145 0 4 0.0298415518297304 1 0.822871 -0.415996 0.38708 0 0 0
1953 1 10.206998193417988 -4.725745922084348 4.03736240898212 0 4 0.0298415518297304 1 0.85314 -0.397289 0.338104 0 0 0
1954 1 10.502245767290724 -4.018942358833174 4.045510343949046 0 4 0.0298415518297304 1 0.879824 -0.334064 0.338099 0 0 0
3531 2 12.964581592954401 -4.6945109888614365 5.1701646074782825 0 1 1.90985931710274 0 0 0 1 0 0 0
3585 2 12.83462310549884 -4.200274107605059 4.175365080151961 0 1 1.90985931710274 0 0 0 1 0 0 0
4612 2 0.525001545221544 -1.885311461523548 4.361116173729041 0 1 1.90985931710274 0 0 0 1 0 0 0
4547 2 2.733613480174782 -1.8255767024549439 3.784935839740495 0 1 1.90985931710274 0 0 0 1 0 0 0
4578 2 5.2026286224502485 -2.0859104786634806 5.27193310288159 0 1 1.90985931710274 0 0 0 1 0 0 0
1941 1 10.517951734564901 -2.4208158069392542 5.140432586494049 0 4 0.0298415518297304 1 0.88029 -0.206546 0.427117 0 0 0
1946 1 10.426911840880612 -3.566604096775424 4.627224043334814 0 4 0.0298415518297304 1 0.871859 -0.301445 0.385995 0 0 0
1947 1 10.65540007802271 -2.861937509150159 4.597576101275517 0 4 0.0298415518297304 1 0.891718 -0.236303 0.386006 0 0 0
1948 1 10.967922118238022 -2.5293110254501143 4.017420313103844 0 4 0.0298415518297304 1 0.917967 -0.214148 0.333881 0 0 0
1949 1 11.13171558938183 -1.8043773161599217 3.960234221833683 0 4 0.0298415518297304 1 0.930733 -0.149145 0.333904 0 0 0
3521 2 14.259016288983071 -2.848131061511868 4.886041170023772 0 1 1.90985931710274 0 0 0 1 0 0 0
4601 2 3.398415426259076 -0.8558683409802941 4.5486951130028555 0 1 1.90985931710274 0 0 0 1 0 0 0
4580 2 5.3506874207315285 -1.0897997652101346 4.600094113256603 0 1 1.90985931710274 0 0 0 1 0 0 0
1942 1 10.689822936524607 -1.745118796613131 5.061730274197689 0 4 0.0298415518297304 1 0.892995 -0.141803 0.427143 0 0 0
1940 1 10.876011960372498 -0.3282260859712711 4.959509308734032 0 4 0.0298415518297304 1 0.912063 -0.03097 0.408879 0 0 0
1943 1 10.975640721862607 -1.3942285429139425 4.527409841300541 0 4 0.0298415518297304 1 0.919379 -0.119553 0.374767 0 0 0
1944 1 11.08496819773124 -0.7106141284784225 4.422370927131481 0 4 0.0298415518297304 1 0.925344 -0.057112 0.374801 0 0 0
1945 1 11.308090336798315 -0.3522053557303874 3.8619611313205353 0 4 0.0298415518297304 1 0.947429 -0.030774 0.318484 0 0 0
3648 2 13.78607449695439 -1.377791687558112 5.237965210810694 0 1 1.90985931710274 0 0 0 1 0 0 0
3489 2 2.9756904533337387 -13.577392819865343 7.157270523178903 0 1 1.90985931710274 0 0 0 1 0 0 0
3519 2 2.0227639614418873 -14.202490046251159 5.748590656791093 0 1 1.90985931710274 0 0 0 1 0 0 0
3545 2 3.231806398760911 -14.200798025356578 5.485291832006068 0 1 1.90985931710274 0 0 0 1 0 0 0
3444 2 10.092780919643145 -13.927666320660263 7.047896329459451 0 1 1.90985931710274 0 0 0 1 0 0 0
3598 2 0.09692746168730103 -11.130368726407582 6.238950459208852 0 1 1.90985931710274 0 0 0 1 0 0 0
3581 2 4.157477161968851 -12.445228789496559 6.612806931354923 0 1 1.90985931710274 0 0 0 1 0 0 0
3456 2 10.723600716810596 -11.31307256428099 5.937162129411542 0 1 1.90985931710274 0 0 0 1 0 0 0
3564 2 9.488880180766648 -12.370159854958828 5.4482537069933645 0 1 1.90985931710274 0 0 0 1 0 0 0
3593 2 10.942163918347292 -11.661376337109036 7.018828208424635 0 1 1.90985931710274 0 0 0 1 0 0 0
3632 2 8.20193638028636 -1.4097385271653025 13.62821793277172 0 1 1.90985931710274 0 0 0 1 0 0 0
2080 1 1.3686009819231013 -9.553842441772057 7.044985182758772 0 4 0.0298415518297304 1 0.115657 -0.800437 0.588153 0 0 0
3549 2 6.811954827629124 -0.13917803731740008 14.324434806452318 0 1 1.90985931710274 0 0 0 1 0 0 0
2089 1 0.7252682777015494 -10.221045580300148 6.090181591558384 0 4 0.0298415518297304 1 0.059226 -0.858483 0.50941 0 0 0
2090 1 1.3963315588536618 -9.992199987587664 6.399635919207783 0 4 0.0298415518297304 1 0.115646 -0.836362 0.53584 0 0 0
2101 1 0.7122045543855867 -10.64038312370757 5.383451567067813 0 4 0.0298415518297304 1 0.059223 -0.890774 0.450572 0 0 0
1198 1 3.2975402454766938 -8.996025895892759 7.142375312258343 0 4 0.0298415518297304 1 0.275807 -0.7541 0.59604 0 0 0
2082 1 2.6877540399909075 -9.37289470523265 6.909457866036755 0 4 0.0298415518297304 1 0.226831 -0.784369 0.577333 0 0 0
2091 1 2.0830139269438743 -10.113173319118141 6.011561039835598 0 4 0.0298415518297304 1 0.175251 -0.846422 0.502849 0 0 0
2092 1 2.737132063013731 -9.79413632702012 6.274706368145702 0 4 0.0298415518297304 1 0.226809 -0.820451 0.524802 0 0 0
2093 1 3.383586720413358 -9.85282733924287 5.854617017001387 0 4 0.0298415518297304 1 0.284461 -0.823738 0.490447 0 0 0
1181 1 5.229067623256141 -9.030104738562834 5.819635519704458 0 4 0.0298415518297304 1 0.436819 -0.755998 0.4875 0 0 0
1199 1 3.9404487203291834 -9.050444772702892 6.734332239905998 0 4 0.0298415518297304 1 0.33127 -0.755891 0.564703 0 0 0
1200 1 3.9982103829107847 -9.472968743546604 6.089382005172075 0 4 0.0298415518297304 1 0.333291 -0.793559 0.509098 0 0 0
1201 1 4.621672847602975 -9.471464327594123 5.632089492713752 0 4 0.0298415518297304 1 0.388906 -0.791512 0.471446 0 0 0
3546 2 6.925812699035324 -9.448884241337725 6.480877716969906 0 1 1.90985931710274 0 0 0 1 0 0 0
3450 2 7.316883809787649 -9.375945970921688 5.458000839078459 0 1 1.90985931710274 0 0 0 1 0 0 0
3579 2 8.922043451370625 -10.431862813905028 6.664932698200987 0 1 1.90985931710274 0 0 0 1 0 0 0
3560 2 9.152664398413757 -9.033295860008778 6.18374083249188 0 1 1.90985931710274 0 0 0 1 0 0 0
3516 2 13.483256711282587 -10.742677473552295 6.402056006574115 0 1 1.90985931710274 0 0 0 1 0 0 0
4550 2 2.7873427486210414 -7.66572592615098 6.137045180465076 0 1 1.90985931710274 0 0 0 1 0 0 0
1179 1 4.532261116183702 -8.599454995390728 6.947090881314812 0 4 0.0298415518297304 1 0.379189 -0.720381 0.580747 0 0 0
1180 1 5.182674844411291 -8.591918993333321 6.484890297575802 0 4 0.0298415518297304 1 0.434791 -0.718335 0.543095 0 0 0
4566 2 4.181963106703016 -7.507807642425314 5.41848175773378 0 1 1.90985931710274 0 0 0 1 0 0 0
1147 1 6.971342485334068 -7.413383296015549 6.256104902255907 0 4 0.0298415518297304 1 0.583573 -0.620434 0.523931 0 0 0
1162 1 5.774066719283829 -8.070493389834603 6.651223165669366 0 4 0.0298415518297304 1 0.483286 -0.67562 0.556751 0 0 0
1163 1 6.407584207931539 -7.9994657362479495 6.136607830526459 0 4 0.0298415518297304 1 0.536709 -0.669396 0.513666 0 0 0
1164 1 6.439296458190344 -8.450912740693703 5.46289520267755 0 4 0.0298415518297304 1 0.538743 -0.70702 0.458125 0 0 0
1148 1 7.5599552786647415 -7.2872611811923225 5.696441317200801 0 4 0.0298415518297304 1 0.632533 -0.610173 0.477065 0 0 0
3511 2 10.144871139134834 -8.350218560819473 6.2263083071344045 0 1 1.90985931710274 0 0 0 1 0 0 0
3634 2 12.69102664313048 -8.445816906051498 6.766183992475424 0 1 1.90985931710274 0 0 0 1 0 0 0
4541 2 1.045532941821337 -7.147676808809414 6.990168340171895 0 1 1.90985931710274 0 0 0 1 0 0 0
4571 2 3.478177398756475 -6.402134879817177 7.024146927785875 0 1 1.90985931710274 0 0 0 1 0 0 0
4529 2 5.327656037755009 -5.497005451574849 5.433189381509916 0 1 1.90985931710274 0 0 0 1 0 0 0
1146 1 6.896660049020172 -6.896660049020172 6.896660049020172 0 4 0.0298415518297304 1 0.57735 -0.57735 0.57735 0 0 0
4575 2 6.685240955475599 -5.9367053215838155 5.92907614082014 0 1 1.90985931710274 0 0 0 1 0 0 0
1121 1 8.450912740693703 -5.46289520267755 6.439296458190344 0 4 0.0298415518297304 1 0.70702 -0.458125 0.538743 0 0 0
1132 1 7.413383296015549 -6.256104902255907 6.971342485334068 0 4 0.0298415518297304 1 0.620434 -0.523931 0.583573 0 0 0
1133 1 7.9994657362479495 -6.136607830526459 6.407584207931539 0 4 0.0298415518297304 1 0.669396 -0.513666 0.536709 0 0 0
1134 1 8.070493389834603 -6.651223165669366 5.774066719283829 0 4 0.0298415518297304 1 0.67562 -0.556751 0.483286 0 0 0
3603 2 10.11941159806498 -5.732315321899872 6.548942828859838 0 1 1.90985931710274 0 0 0 1 0 0 0
3602 2 11.646046615241046 -6.355617643710515 6.606130157377249 0 1 1.90985931710274 0 0 0 1 0 0 0
4588 2 2.0745718677001133 -4.499343564178641 6.914352849577067 0 1 1.90985931710274 0 0 0 1 0 0 0
4593 2 4.128083560101945 -4.193383366606788 6.908123439714938 0 1 1.90985931710274 0 0 0 1 0 0 0
4568 2 5.82014061680675 -3.7906733289369736 6.581152556282355 0 1 1.90985931710274 0 0 0 1 0 0 0
1110 1 8.709186563023858 -4.233482399091309 6.999619942319504 0 4 0.0298415518297304 1 0.727926 -0.356132 0.585913 0 0 0
1120 1 8.321548324326256 -4.917931978313914 7.021482536804528 0 4 0.0298415518297304 1 0.69676 -0.411251 0.587705 0 0 0
1122 1 8.963339986921262 -5.315532000828298 5.844040723021723 0 4 0.0298415518297304 1 0.749777 -0.444447 0.490205 0 0 0
1111 1 9.207096031147115 -4.109775397540957 6.413209013816228 0 4 0.0298415518297304 1 0.770758 -0.342421 0.53729 0 0 0
1112 1 9.336112728622068 -4.629649181325049 5.846719577457926 0 4 0.0298415518297304 1 0.781003 -0.389231 0.488399 0 0 0
3529 2 11.47711698443622 -4.147616580458008 5.965458242251328 0 1 1.90985931710274 0 0 0 1 0 0 0
3491 2 12.636661398735589 -3.727471450962364 6.875525675549055 0 1 1.90985931710274 0 0 0 1 0 0 0
4532 2 3.9019366329450076 -2.149886093275043 6.324788326356334 0 1 1.90985931710274 0 0 0 1 0 0 0
4605 2 6.322441386169466 -1.912389106318942 6.622347218123571 0 1 1.90985931710274 0 0 0 1 0 0 0
4538 2 7.47661019597167 -3.5672483041391807 6.62579833277405 0 1 1.90985931710274 0 0 0 1 0 0 0
1096 1 9.581412179409126 -2.2559092717178135 6.783319053141226 0 4 0.0298415518297304 1 0.799826 -0.193441 0.568207 0 0 0
1097 1 9.979208801255677 -2.184302998367814 6.211528291683313 0 4 0.0298415518297304 1 0.835883 -0.177101 0.519552 0 0 0
1098 1 10.165746059644487 -2.63849077709189 5.710312428807246 0 4 0.0298415518297304 1 0.849516 -0.225565 0.47691 0 0 0
1102 1 9.327338261728201 -2.9195443775880694 6.8797784902812955 0 4 0.0298415518297304 1 0.781589 -0.241321 0.575225 0 0 0
1103 1 9.515722686147727 -3.4268197334280326 6.3671283268970695 0 4 0.0298415518297304 1 0.795275 -0.289976 0.532402 0 0 0
1104 1 9.931604703079781 -3.309267907455417 5.7687017515614585 0 4 0.0298415518297304 1 0.831166 -0.273726 0.483981 0 0 0
3606 2 14.218047253586457 -2.58845297246031 6.729395859570468 0 1 1.90985931710274 0 0 0 1 0 0 0
4542 2 0.6161572690339305 -0.5560533467162863 6.184399739352504 0 1 1.90985931710274 0 0 0 1 0 0 0
4540 2 5.242537479586993 -1.0299325813834592 6.249576688203323 0 1 1.90985931710274 0 0 0 1 0 0 0
4548 2 3.98457593011463 -0.45074256342736874 6.241962476226433 0 1 1.90985931710274 0 0 0 1 0 0 0
4537 2 7.277540846281088 -0.8648885537245992 5.705501550666909 0 1 1.90985931710274 0 0 0 1 0 0 0
1090 1 10.08337967517057 -0.4865794786618666 6.417728021582561 0 4 0.0298415518297304 1 0.840898 -0.050161 0.538863 0 0 0
1091 1 9.551761345313452 -1.14665875491715 7.102193318178118 0 4 0.0298415518297304 1 0.796392 -0.102459 0.596039 0 0 0
1092 1 9.928117389224152 -1.1377675643454386 6.570502549743725 0 4 0.0298415518297304 1 0.832448 -0.086106 0.547371 0 0 0
1093 1 10.16733844680462 -1.5271061926927691 6.106168118875939 0 4 0.0298415518297304 1 0.84874 -0.134812 0.511338 0 0 0
1937 1 10.38410240725975 -0.3007226119801671 5.931148609750038 0 4 0.0298415518297304 1 0.871899 -0.031001 0.488703 0 0 0
1938 1 10.49556439859258 -1.324251409088832 5.575087225059108 0 4 0.0298415518297304 1 0.87971 -0.115671 0.461227 0 0 0
1939 1 10.631296536123939 -0.7031792711430755 5.432734791968485 0 4 0.0298415518297304 1 0.885665 -0.053217 0.461265 0 0 0
3642 2 14.322344281699054 -0.4350354840529569 7.137589521947314 0 1 1.90985931710274 0 0 0 1 0 0 0
3537 2 4.157389888594695 -13.912032388948015 8.284456950733384 0 1 1.90985931710274 0 0 0 1 0 0 0
3572 2 8.189342117525117 -13.279948905387707 8.25378818159379 0 1 1.90985931710274 0 0 0 1 0 0 0
3490 2 9.135236299705374 -13.830316701722293 8.080497120682622 0 1 1.90985931710274 0 0 0 1 0 0 0
3494 2 12.087896459144611 -13.76863715651299 7.436232486197168 0 1 1.90985931710274 0 0 0 1 0 0 0
3500 2 14.130995339624443 -13.754878717069177 7.524804860001346 0 1 1.90985931710274 0 0 0 1 0 0 0
3566 2 1.0990738093227304 -11.371022712875485 7.806210701734445 0 1 1.90985931710274 0 0 0 1 0 0 0
3646 2 2.5471708755757536 -11.7313421983215 7.847452810573751 0 1 1.90985931710274 0 0 0 1 0 0 0
3645 2 7.118699754758117 -10.874107780325218 7.437128074068875 0 1 1.90985931710274 0 0 0 1 0 0 0
3520 2 8.932177199879076 -12.320515632331222 7.4869774091732335 0 1 1.90985931710274 0 0 0 1 0 0 0
3635 2 7.902471255410989 -11.828642307524639 8.486875433410345 0 1 1.90985931710274 0 0 0 1 0 0 0
3625 2 12.08465818928377 -10.7920507076754 8.91783609956695 0 1 1.90985931710274 0 0 0 1 0 0 0
2079 1 0.6851437658954603 -9.376631494888152 7.375600354702212 0 4 0.0298415518297304 1 0.056516 -0.783847 0.618377 0 0 0
3472 2 0.023285411631743358 -10.457402705285059 7.932388274042156 0 1 1.90985931710274 0 0 0 1 0 0 0
2081 1 2.02877540751461 -9.255835233925785 7.28208785979175 0 4 0.0298415518297304 1 0.167433 -0.774346 0.610208 0 0 0
3644 2 3.1108634246291675 -9.111690257591576 8.85942465839833 0 1 1.90985931710274 0 0 0 1 0 0 0
3479 2 7.953798998800563 -10.196079158958455 8.729849385283325 0 1 1.90985931710274 0 0 0 1 0 0 0
3447 2 11.773945330753035 -9.343956033755298 8.517308674717901 0 1 1.90985931710274 0 0 0 1 0 0 0
3480 2 10.870536174289056 -10.06292272384059 8.004722411196513 0 1 1.90985931710274 0 0 0 1 0 0 0
3503 2 13.785565464641754 -9.933097766012569 8.689644626747524 0 1 1.90985931710274 0 0 0 1 0 0 0
2064 1 2.211841450608392e-18 -8.177547707543587 8.719731403206659 0 4 0.0298415518297304 1 0 -0.68776 0.725938 0 0 0
2065 1 0.6393586009192922 -7.9566467609051275 8.9006657194245 0 4 0.0298415518297304 1 0.052342 -0.661356 0.748244 0 0 0
2066 1 1.2784715515496379 -8.131128066779423 8.669599745290057 0 4 0.0298415518297304 1 0.108633 -0.683456 0.721864 0 0 0
3641 2 5.179355125819706 -0.9965023482255617 13.223929372986214 0 1 1.90985931710274 0 0 0 1 0 0 0
2071 1 0.6656915704953396 -8.896439356475284 7.952522696613374 0 4 0.0298415518297304 1 0.056523 -0.74655 0.662924 0 0 0
2072 1 1.321444919037123 -8.630639292972145 8.162830137834208 0 4 0.0298415518297304 1 0.10862 -0.720284 0.685123 0 0 0
1175 1 3.015399555322699 -7.444239992366906 8.850031126127387 0 4 0.0298415518297304 1 0.255043 -0.623858 0.738752 0 0 0
1194 1 1.848351927259901 -7.778922635537865 8.887274502417357 0 4 0.0298415518297304 1 0.158426 -0.652682 0.740883 0 0 0
1195 1 2.492570003313927 -7.906844018523753 8.610159610496206 0 4 0.0298415518297304 1 0.206595 -0.659732 0.722546 0 0 0
1196 1 2.572094274093865 -8.421148108100308 8.08213718829916 0 4 0.0298415518297304 1 0.216805 -0.706291 0.673906 0 0 0
1197 1 3.2201579666754445 -8.519520450007567 7.737155463213315 0 4 0.0298415518297304 1 0.269616 -0.711194 0.649239 0 0 0
2073 1 1.976962086269973 -8.788959806380333 7.8548174342616175 0 4 0.0298415518297304 1 0.167452 -0.736792 0.655055 0 0 0
1160 1 5.027747336910463 -7.578527615711209 7.746829429466787 0 4 0.0298415518297304 1 0.421521 -0.634573 0.647794 0 0 0
1176 1 3.6863335632185215 -7.521794481100211 8.521952334138087 0 4 0.0298415518297304 1 0.307492 -0.628735 0.714242 0 0 0
1177 1 3.7838070843487692 -8.061162762905834 7.967511654140036 0 4 0.0298415518297304 1 0.317751 -0.675536 0.665346 0 0 0
1178 1 4.452551263255395 -8.103352022611611 7.567008598743931 0 4 0.0298415518297304 1 0.372974 -0.677324 0.634131 0 0 0
1161 1 5.696441317200801 -7.5599552786647415 7.2872611811923225 0 4 0.0298415518297304 1 0.477065 -0.632533 0.610173 0 0 0
3561 2 8.160520352853192 -8.662655596406843 7.397253190176405 0 1 1.90985931710274 0 0 0 1 0 0 0
3538 2 9.702590702035474 -8.174178889843493 8.712376400417897 0 1 1.90985931710274 0 0 0 1 0 0 0
3476 2 14.338998166521298 -7.544133276507982 7.185313730343472 0 1 1.90985931710274 0 0 0 1 0 0 0
4600 2 0.7297025668145363 -5.6064735480929935 7.256397201062757 0 1 1.90985931710274 0 0 0 1 0 0 0
4551 2 3.5190457303987466 -5.464610856702485 8.56235006322149 0 1 1.90985931710274 0 0 0 1 0 0 0
4555 2 2.9390207558629413 -6.129452763201809 7.914284190229754 0 1 1.90985931710274 0 0 0 1 0 0 0
1142 1 5.315532000828298 -5.844040723021723 8.963339986921262 0 4 0.0298415518297304 1 0.444447 -0.490205 0.749777 0 0 0
1158 1 4.233482399091309 -6.999619942319504 8.709186563023858 0 4 0.0298415518297304 1 0.356132 -0.585913 0.727926 0 0 0
1159 1 4.917931978313914 -7.021482536804528 8.321548324326256 0 4 0.0298415518297304 1 0.411251 -0.587705 0.69676 0 0 0
1130 1 6.651223165669366 -5.774066719283829 8.070493389834603 0 4 0.0298415518297304 1 0.556751 -0.483286 0.67562 0 0 0
1143 1 5.46289520267755 -6.439296458190344 8.450912740693703 0 4 0.0298415518297304 1 0.458125 -0.538743 0.70702 0 0 0
1144 1 6.131870653382054 -6.404794941963227 7.9990634679367 0 4 0.0298415518297304 1 0.513666 -0.536709 0.669396 0 0 0
1145 1 6.242083889349359 -6.971516648083276 7.401987358132282 0 4 0.0298415518297304 1 0.523931 -0.583573 0.620434 0 0 0
3474 2 7.0949985528276205 -6.964373915783845 8.091673430595867 0 1 1.90985931710274 0 0 0 1 0 0 0
1131 1 7.2872611811923225 -5.696441317200801 7.5599552786647415 0 4 0.0298415518297304 1 0.610173 -0.477065 0.632533 0 0 0
3618 2 9.473902292217906 -5.793686693681217 8.319681299807316 0 1 1.90985931710274 0 0 0 1 0 0 0
3631 2 11.167929538854851 -5.7630004665085135 7.443409391405213 0 1 1.90985931710274 0 0 0 1 0 0 0
3449 2 13.464777890756265 -5.604180059458452 7.536248681799945 0 1 1.90985931710274 0 0 0 1 0 0 0
3533 2 13.994140315378639 -5.949049431221102 8.93770546694484 0 1 1.90985931710274 0 0 0 1 0 0 0
4564 2 1.1866435722758466 -3.6852070209375394 7.7801013354198005 0 1 1.90985931710274 0 0 0 1 0 0 0
4589 2 2.0047615029490125 -4.3719386673809435 8.034577955412834 0 1 1.90985931710274 0 0 0 1 0 0 0
1117 1 6.947090881314812 -4.532261116183702 8.599454995390728 0 4 0.0298415518297304 1 0.580747 -0.379189 0.720381 0 0 0
1129 1 6.484890297575802 -5.182674844411291 8.591918993333321 0 4 0.0298415518297304 1 0.543095 -0.434791 0.718335 0 0 0
1108 1 7.967511654140036 -3.7838070843487692 8.061162762905834 0 4 0.0298415518297304 1 0.665346 -0.317751 0.675536 0 0 0
1109 1 8.521952334138087 -3.6863335632185215 7.521794481100211 0 4 0.0298415518297304 1 0.714242 -0.307492 0.628735 0 0 0
1118 1 7.567008598743931 -4.452551263255395 8.103352022611611 0 4 0.0298415518297304 1 0.634131 -0.372974 0.677324 0 0 0
1119 1 7.746829429466787 -5.027747336910463 7.578527615711209 0 4 0.0298415518297304 1 0.647794 -0.421521 0.634573 0 0 0
3508 2 10.052935669444656 -3.650581643677029 7.613286720171461 0 1 1.90985931710274 0 0 0 1 0 0 0
3619 2 11.941570137741794 -4.78103697364573 8.174783936232688 0 1 1.90985931710274 0 0 0 1 0 0 0
4563 2 1.4457516872816016 -2.63584886561285 7.624522785239376 0 1 1.90985931710274 0 0 0 1 0 0 0
4573 2 0.8124096912992691 -2.7673563331809117 8.731318228404287 0 1 1.90985931710274 0 0 0 1 0 0 0
4594 2 4.489602381154796 -3.2113699313309922 8.479110119996044 0 1 1.90985931710274 0 0 0 1 0 0 0
4572 2 6.107838174275578 -2.422868493811148 7.563333395433042 0 1 1.90985931710274 0 0 0 1 0 0 0
599 1 7.8548174342616175 -1.976962086269973 8.788959806380333 0 4 0.0298415518297304 1 0.655055 -0.167452 0.736792 0 0 0
1094 1 8.887274502417357 -1.848351927259901 7.778922635537865 0 4 0.0298415518297304 1 0.740883 -0.158426 0.652682 0 0 0
1099 1 8.08213718829916 -2.572094274093865 8.421148108100308 0 4 0.0298415518297304 1 0.673906 -0.216805 0.706291 0 0 0
1100 1 8.610159610496206 -2.492570003313927 7.906844018523753 0 4 0.0298415518297304 1 0.722546 -0.206595 0.659732 0 0 0
1101 1 8.850031126127387 -3.015399555322699 7.444239992366906 0 4 0.0298415518297304 1 0.738752 -0.255043 0.623858 0 0 0
1107 1 7.737155463213315 -3.2201579666754445 8.519520450007567 0 4 0.0298415518297304 1 0.649239 -0.269616 0.711194 0 0 0
3640 2 10.428653211944274 -3.206524852606373 8.591334244707346 0 1 1.90985931710274 0 0 0 1 0 0 0
4543 2 0.8110829711957201 -1.1479631135162442 7.66939713248442 0 1 1.90985931710274 0 0 0 1 0 0 0
4597 2 2.2982071014872982 -0.9217153029733822 7.321446926363414 0 1 1.90985931710274 0 0 0 1 0 0 0
4570 2 5.241165385348513 -0.17314244758946273 7.939399363906016 0 1 1.90985931710274 0 0 0 1 0 0 0
4574 2 3.6088811779286747 -0.5118505527584514 7.655839788692628 0 1 1.90985931710274 0 0 0 1 0 0 0
580 1 7.952522696613374 -0.6656915704953396 8.896439356475284 0 4 0.0298415518297304 1 0.662924 -0.056523 0.74655 0 0 0
600 1 8.162830137834208 -1.321444919037123 8.630639292972145 0 4 0.0298415518297304 1 0.685123 -0.10862 0.720284 0 0 0
601 1 8.669599745290057 -1.2784715515496379 8.131128066779423 0 4 0.0298415518297304 1 0.721864 -0.108633 0.683456 0 0 0
602 1 8.9006657194245 -0.6393586009192921 7.9566467609051275 0 4 0.0298415518297304 1 0.748244 -0.052342 0.661356 0 0 0
4546 2 7.606225110063313 -1.6289851658890342 7.273126903003462 0 1 1.90985931710274 0 0 0 1 0 0 0
603 1 9.348906162508925 -0.6155775977841709 7.430419130501573 0 4 0.0298415518297304 1 0.777251 -0.052348 0.627009 0 0 0
1095 1 9.33984966043232 -1.7891570029506303 7.246032847391109 0 4 0.0298415518297304 1 0.783541 -0.144752 0.604243 0 0 0
3584 2 9.849875573770275 -1.0514236429622272 8.596736733867411 0 1 1.90985931710274 0 0 0 1 0 0 0
3612 2 11.526788257800318 -1.6542511500561279 8.361007006648974 0 1 1.90985931710274 0 0 0 1 0 0 0
3544 2 1.1558792061121548 -13.671123390396478 9.42761631251503 0 1 1.90985931710274 0 0 0 1 0 0 0
3459 2 1.8667690737712508 -14.316710609178939 9.97701282350585 0 1 1.90985931710274 0 0 0 1 0 0 0
3557 2 7.381525245114483 -13.534567360852018 9.397410160161977 0 1 1.90985931710274 0 0 0 1 0 0 0
3471 2 8.991870249878938 -13.59771428470535 10.027538957185198 0 1 1.90985931710274 0 0 0 1 0 0 0
3528 2 9.758663230141677 -12.899301008833493 9.51202053549695 0 1 1.90985931710274 0 0 0 1 0 0 0
3482 2 11.114503037879166 -13.968288364884799 9.926371381198008 0 1 1.90985931710274 0 0 0 1 0 0 0
3633 2 12.620705353416893 -13.590879122250321 10.1017383388486 0 1 1.90985931710274 0 0 0 1 0 0 0
3535 2 0.7831602729565468 -11.22743841931476 10.135536576836865 0 1 1.90985931710274 0 0 0 1 0 0 0
3626 2 4.95845742166677 -11.183090046604892 9.27019271156795 0 1 1.90985931710274 0 0 0 1 0 0 0
3451 2 6.676360992849437 -11.678333179488007 9.036118345080949 0 1 1.90985931710274 0 0 0 1 0 0 0
3460 2 8.691461329618756 -11.177893097601206 10.512032616544941 0 1 1.90985931710274 0 0 0 1 0 0 0
3542 2 10.40936540867098 -11.664600466812168 10.233068287923734 0 1 1.90985931710274 0 0 0 1 0 0 0
3454 2 12.905986403228676 -11.954972935679342 9.128964037305115 0 1 1.90985931710274 0 0 0 1 0 0 0
3493 2 0.5615469583228204 -9.866399317623486 9.805026445068032 0 1 1.90985931710274 0 0 0 1 0 0 0
3523 2 2.007662219545777 -9.70762009417977 9.74846712059742 0 1 1.90985931710274 0 0 0 1 0 0 0
3446 2 4.335224143386123 -9.96548810939434 9.625929409321552 0 1 1.90985931710274 0 0 0 1 0 0 0
3506 2 7.6464669744617755 -9.328492220958838 10.10776434481181 0 1 1.90985931710274 0 0 0 1 0 0 0
3443 2 11.510911052548112 -10.19259382392232 9.905687337588096 0 1 1.90985931710274 0 0 0 1 0 0 0
1193 1 1.7891570029506303 -7.246032847391109 9.33984966043232 0 4 0.0298415518297304 1 0.144752 -0.604243 0.783541 0 0 0
2060 1 0 -7.2736816536149265 9.493528896893935 0 4 0.0298415518297304 1 0 -0.600588 0.799559 0 0 0
2061 1 0.6155775977841709 -7.430419130501573 9.348906162508925 0 4 0.0298415518297304 1 0.052348 -0.627009 0.777251 0 0 0
3639 2 0.3236307501848629 -8.819639793779766 10.007270200466936 0 1 1.90985931710274 0 0 0 1 0 0 0
3547 2 4.526639217760392 -7.374861101050836 10.734460638597982 0 1 1.90985931710274 0 0 0 1 0 0 0
3470 2 13.872729539923428 -8.722278506947656 9.853285730746743 0 1 1.90985931710274 0 0 0 1 0 0 0
585 1 0.3007226119801671 -5.931148609750038 10.38410240725975 0 4 0.0298415518297304 1 0.031001 -0.488703 0.871899 0 0 0
586 1 0.7031792711430755 -5.432734791968485 10.631296536123939 0 4 0.0298415518297304 1 0.053217 -0.461265 0.885665 0 0 0
587 1 1.324251409088832 -5.575087225059108 10.49556439859258 0 4 0.0298415518297304 1 0.115671 -0.461227 0.87971 0 0 0
1171 1 1.5270750695026198 -6.10162299006971 10.16489834146368 0 4 0.0298415518297304 1 0.134812 -0.511338 0.84874 0 0 0
1190 1 0.4865794786618666 -6.417728021582561 10.08337967517057 0 4 0.0298415518297304 1 0.050161 -0.538863 0.840898 0 0 0
1191 1 1.119016938117202 -6.550362341178892 9.899471696407941 0 4 0.0298415518297304 1 0.086106 -0.547371 0.832448 0 0 0
1192 1 1.14665875491715 -7.102193318178118 9.551761345313452 0 4 0.0298415518297304 1 0.102459 -0.596039 0.796392 0 0 0
2058 1 0 -6.718450883615759 9.897522950485259 0 4 0.0298415518297304 1 0 -0.569865 0.821739 0 0 0
3461 2 1.5740637170618526 -7.097289153633001 10.710093883730153 0 1 1.90985931710274 0 0 0 1 0 0 0
1154 1 2.63849077709189 -5.710312428807246 10.165746059644487 0 4 0.0298415518297304 1 0.225565 -0.47691 0.849516 0 0 0
1155 1 3.309267907455417 -5.7687017515614585 9.931604703079781 0 4 0.0298415518297304 1 0.273726 -0.483981 0.831166 0 0 0
1156 1 3.4268197334280326 -6.3671283268970695 9.515722686147727 0 4 0.0298415518297304 1 0.289976 -0.532402 0.795275 0 0 0
1172 1 2.184302998367814 -6.211528291683313 9.979208801255677 0 4 0.0298415518297304 1 0.177101 -0.519552 0.835883 0 0 0
1173 1 2.2559092717178135 -6.783319053141226 9.581412179409126 0 4 0.0298415518297304 1 0.193441 -0.568207 0.799826 0 0 0
1174 1 2.9195443775880694 -6.8797784902812955 9.327338261728201 0 4 0.0298415518297304 1 0.241321 -0.575225 0.781589 0 0 0
1141 1 4.629649181325049 -5.846719577457926 9.336112728622068 0 4 0.0298415518297304 1 0.389231 -0.488399 0.781003 0 0 0
1157 1 4.109775397540957 -6.413209013816228 9.207096031147115 0 4 0.0298415518297304 1 0.342421 -0.53729 0.770758 0 0 0
3582 2 9.656638209959633 -5.568175208427803 9.946805953934723 0 1 1.90985931710274 0 0 0 1 0 0 0
3567 2 11.560429708063873 -6.295150677091452 9.441770591912618 0 1 1.90985931710274 0 0 0 1 0 0 0
3623 2 11.731697574480435 -5.4305319826439975 10.084154871061004 0 1 1.90985931710274 0 0 0 1 0 0 0
3599 2 13.046380380506884 -5.843104820800306 10.08094480925383 0 1 1.90985931710274 0 0 0 1 0 0 0
588 1 1.745118796613131 -5.061730274197689 10.689822936524607 0 4 0.0298415518297304 1 0.141803 -0.427143 0.892995 0 0 0
4556 2 1.6121267702494606 -3.601246417282427 9.241382734258512 0 1 1.90985931710274 0 0 0 1 0 0 0
589 1 2.4208158069392542 -5.140432586494049 10.517951734564901 0 4 0.0298415518297304 1 0.206546 -0.427117 0.88029 0 0 0
590 1 2.861937509150159 -4.597576101275517 10.65540007802271 0 4 0.0298415518297304 1 0.236303 -0.386006 0.891718 0 0 0
591 1 3.566604096775424 -4.627224043334814 10.426911840880612 0 4 0.0298415518297304 1 0.301445 -0.385995 0.871859 0 0 0
592 1 4.018942358833174 -4.045510343949046 10.502245767290724 0 4 0.0298415518297304 1 0.334064 -0.338099 0.879824 0 0 0
593 1 4.725745922084348 -4.03736240898212 10.206998193417988 0 4 0.0298415518297304 1 0.397289 -0.338104 0.85314 0 0 0
1126 1 4.958664267611715 -4.6471478823731145 9.830129370841252 0 4 0.0298415518297304 1 0.415996 -0.38708 0.822871 0 0 0
1139 1 3.7939239923523522 -5.222355621366762 10.059100048941238 0 4 0.0298415518297304 1 0.320296 -0.435348 0.841358 0 0 0
1140 1 4.474010090314408 -5.236891991858055 9.765930954750743 0 4 0.0298415518297304 1 0.373095 -0.440282 0.816671 0 0 0
1115 1 6.089382005172075 -3.9982103829107847 9.472968743546604 0 4 0.0298415518297304 1 0.509098 -0.333291 0.793559 0 0 0
1116 1 6.734332239905998 -3.9404487203291834 9.050444772702892 0 4 0.0298415518297304 1 0.564703 -0.33127 0.755891 0 0 0
1127 1 5.632089492713752 -4.621672847602975 9.471464327594123 0 4 0.0298415518297304 1 0.471446 -0.388906 0.791512 0 0 0
1128 1 5.819635519704458 -5.229067623256141 9.030104738562834 0 4 0.0298415518297304 1 0.4875 -0.436819 0.755998 0 0 0
3498 2 10.505475860162973 -3.5975062409462275 9.917666416772898 0 1 1.90985931710274 0 0 0 1 0 0 0
3505 2 10.720572878691884 -4.799759825494981 9.211846905857294 0 1 1.90985931710274 0 0 0 1 0 0 0
4579 2 2.565630925973048 -2.83416117100686 10.068574887699086 0 1 1.90985931710274 0 0 0 1 0 0 0
574 1 4.884105722525149 -2.7798204017072834 10.54382301778774 0 4 0.0298415518297304 1 0.409603 -0.232881 0.882039 0 0 0
575 1 5.310097654165997 -2.1070288296765565 10.492772653721886 0 4 0.0298415518297304 1 0.443955 -0.17524 0.878746 0 0 0
594 1 5.172463522025751 -3.4183554655301926 10.215155116265121 0 4 0.0298415518297304 1 0.431545 -0.284445 0.856072 0 0 0
576 1 6.011561039835598 -2.0830139269438743 10.113173319118141 0 4 0.0298415518297304 1 0.502849 -0.175251 0.846422 0 0 0
595 1 5.854617017001387 -3.383586720413358 9.85282733924287 0 4 0.0298415518297304 1 0.490447 -0.284461 0.823738 0 0 0
596 1 6.274706368145702 -2.737132063013731 9.79413632702012 0 4 0.0298415518297304 1 0.524802 -0.226809 0.820451 0 0 0
597 1 6.909457866036755 -2.6877540399909075 9.37289470523265 0 4 0.0298415518297304 1 0.577333 -0.226831 0.784369 0 0 0
1106 1 7.142375312258343 -3.2975402454766938 8.996025895892759 0 4 0.0298415518297304 1 0.59604 -0.275807 0.7541 0 0 0
598 1 7.28208785979175 -2.02877540751461 9.255835233925785 0 4 0.0298415518297304 1 0.610208 -0.167433 0.774346 0 0 0
3488 2 12.170482999174306 -3.3891708774362215 9.876652929424912 0 1 1.90985931710274 0 0 0 1 0 0 0
3536 2 14.179108965874732 -2.596746641444593 9.856055328409136 0 1 1.90985931710274 0 0 0 1 0 0 0
4539 2 0.8938183988033959 -0.7596785505244946 9.169646433996741 0 1 1.90985931710274 0 0 0 1 0 0 0
557 1 4.98783925556015 -1.4192693658356634 10.76190507047654 0 4 0.0298415518297304 1 0.417556 -0.118869 0.900842 0 0 0
4536 2 3.699915736985547 -1.2190084838979374 9.488757127384773 0 1 1.90985931710274 0 0 0 1 0 0 0
558 1 5.383451567067813 -0.7122045543855867 10.64038312370757 0 4 0.0298415518297304 1 0.450572 -0.059223 0.890774 0 0 0
559 1 6.095336996791155 -0.7040841837917592 10.25069844397294 0 4 0.0298415518297304 1 0.50941 -0.059226 0.858483 0 0 0
577 1 6.399635919207783 -1.3963315588536618 9.992199987587664 0 4 0.0298415518297304 1 0.53584 -0.115646 0.836362 0 0 0
578 1 7.044985182758772 -1.3686009819231013 9.553842441772057 0 4 0.0298415518297304 1 0.588153 -0.115657 0.800437 0 0 0
579 1 7.375600354702212 -0.6851437658954604 9.376631494888152 0 4 0.0298415518297304 1 0.618377 -0.056516 0.783847 0 0 0
3475 2 10.925765278073223 -0.2623834233180382 10.090280293736003 0 1 1.90985931710274 0 0 0 1 0 0 0
3595 2 12.710243037270827 -1.1879145892222933 10.680922940918931 0 1 1.90985931710274 0 0 0 1 0 0 0
3570 2 1.4371072300960357 -12.859931775911596 11.065556253805463 0 1 1.90985931710274 0 0 0 1 0 0 0
3588 2 0.4243608010045925 -14.340423515802627 12.28938190525241 0 1 1.90985931710274 0 0 0 1 0 0 0
3483 2 5.557686058148205 -14.031390703136879 11.305850378492297 0 1 1.90985931710274 0 0 0 1 0 0 0
3552 2 7.634261291898897 -13.56174105523722 11.906632628048593 0 1 1.90985931710274 0 0 0 1 0 0 0
3438 2 9.049385364124197 -12.844544059357103 12.346856899434156 0 1 1.90985931710274 0 0 0 1 0 0 0
3578 2 9.697784575999437 -12.781298282688484 11.438558340405569 0 1 1.90985931710274 0 0 0 1 0 0 0
3647 2 10.612457313017716 -13.729150111218477 10.969840751085249 0 1 1.90985931710274 0 0 0 1 0 0 0
3575 2 11.266553022477938 -12.861563213313826 12.347081834534356 0 1 1.90985931710274 0 0 0 1 0 0 0
3576 2 6.515879985992489 -10.97977942422323 10.881637080182019 0 1 1.90985931710274 0 0 0 1 0 0 0
3589 2 0.6244646815330164 -9.222501474598136 12.026410429127912 0 1 1.90985931710274 0 0 0 1 0 0 0
3577 2 2.4653217086852575 -9.717778126872119 11.22897566027885 0 1 1.90985931710274 0 0 0 1 0 0 0
3587 2 13.893190495147214 -9.248132060789349 11.76955831341049 0 1 1.90985931710274 0 0 0 1 0 0 0
3530 2 3.3875481406414334 -8.44889623947046 12.414015219977133 0 1 1.90985931710274 0 0 0 1 0 0 0
3628 2 2.294618757761503 -8.612874302458357 11.739734582398254 0 1 1.90985931710274 0 0 0 1 0 0 0
3550 2 5.841553880723124 -7.44650068648878 12.133896183089403 0 1 1.90985931710274 0 0 0 1 0 0 0
3627 2 7.699482395124706 -8.03223113911056 12.2374209688081 0 1 1.90985931710274 0 0 0 1 0 0 0
3445 2 9.050307752774907 -7.2757991121588255 11.00585594661691 0 1 1.90985931710274 0 0 0 1 0 0 0
3630 2 2.6635944521549977 -6.674682630972988 11.185467236994038 0 1 1.90985931710274 0 0 0 1 0 0 0
3518 2 4.513054335221087 -6.087229939217886 11.326521564983386 0 1 1.90985931710274 0 0 0 1 0 0 0
3604 2 14.234895117850131 -6.437338292872696 10.779691688600776 0 1 1.90985931710274 0 0 0 1 0 0 0
549 1 0.3522053557303874 -3.8619611313205353 11.308090336798315 0 4 0.0298415518297304 1 0.030774 -0.318484 0.947429 0 0 0
566 1 0.3282260859712711 -4.959509308734032 10.876011960372498 0 4 0.0298415518297304 1 0.03097 -0.408879 0.912063 0 0 0
567 1 0.7106141284784225 -4.422370927131481 11.08496819773124 0 4 0.0298415518297304 1 0.057112 -0.374801 0.925344 0 0 0
568 1 1.3942285429139425 -4.527409841300541 10.975640721862607 0 4 0.0298415518297304 1 0.119553 -0.374767 0.919379 0 0 0
3583 2 0.7698678163631083 -5.025004385200361 12.070939937525365 0 1 1.90985931710274 0 0 0 1 0 0 0
569 1 1.8043773161599217 -3.960234221833683 11.13171558938183 0 4 0.0298415518297304 1 0.149145 -0.333904 0.930733 0 0 0
570 1 2.5293110254501143 -4.017420313103844 10.967922118238022 0 4 0.0298415518297304 1 0.214148 -0.333881 0.917967 0 0 0
3610 2 6.007356692305256 -4.804764425585827 11.202815179028134 0 1 1.90985931710274 0 0 0 1 0 0 0
3525 2 9.769448989608511 -3.8296056497345266 12.371686911801765 0 1 1.90985931710274 0 0 0 1 0 0 0
3615 2 9.93675383877533 -4.644217703080987 11.608744317867918 0 1 1.90985931710274 0 0 0 1 0 0 0
3478 2 11.845939384341126 -5.199084996735692 11.147800226559788 0 1 1.90985931710274 0 0 0 1 0 0 0
3605 2 12.122281151061454 -4.935067491977558 12.163691780393846 0 1 1.90985931710274 0 0 0 1 0 0 0
534 1 0.3678117563873662 -2.6502621255199252 11.648741412035173 0 4 0.0298415518297304 1 0.030501 -0.218543 0.97535 0 0 0
535 1 0.7363147481133524 -2.0167350080379154 11.756097880475448 0 4 0.0298415518297304 1 0.063153 -0.170666 0.983303 0 0 0
536 1 1.4926796990507116 -2.0629124085374824 11.674634439008784 0 4 0.0298415518297304 1 0.124901 -0.170648 0.977384 0 0 0
550 1 0.7237953884855253 -3.276131940429869 11.472097285570149 0 4 0.0298415518297304 1 0.060552 -0.277386 0.958848 0 0 0
551 1 1.4521994712227135 -3.3517287379160643 11.379342313562363 0 4 0.0298415518297304 1 0.122693 -0.277359 0.9529 0 0 0
552 1 1.8548371467004798 -2.726875306230269 11.48537574342067 0 4 0.0298415518297304 1 0.155112 -0.229798 0.960798 0 0 0
553 1 2.616436136241011 -2.7661375647652378 11.325622741883521 0 4 0.0298415518297304 1 0.220102 -0.229781 0.948027 0 0 0
554 1 3.039448746477639 -2.103550570471817 11.360997099847129 0 4 0.0298415518297304 1 0.254167 -0.176454 0.950927 0 0 0
571 1 2.963422670948167 -3.412019013526081 11.06193314522361 0 4 0.0298415518297304 1 0.246557 -0.286314 0.925869 0 0 0
555 1 3.8114019686846525 -2.115633286578001 11.123083633229703 0 4 0.0298415518297304 1 0.319741 -0.176449 0.930931 0 0 0
572 1 3.7071227937142512 -3.4315134233143305 10.828792332517375 0 4 0.0298415518297304 1 0.312038 -0.286305 0.905904 0 0 0
573 1 4.148160133050597 -2.787820095153561 10.852187900093165 0 4 0.0298415518297304 1 0.346156 -0.232877 0.908815 0 0 0
3442 2 3.99928321201938 -2.009203590291275 12.502895974556958 0 1 1.90985931710274 0 0 0 1 0 0 0
3558 2 13.63738495157529 -3.407802874094429 12.440719094925624 0 1 1.90985931710274 0 0 0 1 0 0 0
521 1 0.3768687790293372 -1.3496076122842269 11.86812127662825 0 4 0.0298415518297304 1 0.030269 -0.111273 0.993329 0 0 0
522 1 0.7404832945787598 -0.6767778649512248 11.900298761704263 0 4 0.0298415518297304 1 0.064561 -0.057636 0.996248 0 0 0
523 1 1.5140182423774733 -0.696338906937248 11.830436426679666 0 4 0.0298415518297304 1 0.126041 -0.05763 0.99035 0 0 0
537 1 1.8888478978032397 -1.3914885773027972 11.715167821109105 0 4 0.0298415518297304 1 0.159038 -0.117231 0.980288 0 0 0
538 1 2.672170851459992 -1.4115491063592356 11.558231437056955 0 4 0.0298415518297304 1 0.22391 -0.117222 0.967535 0 0 0
539 1 3.0804279528325313 -0.7111428724090038 11.52006018579294 0 4 0.0298415518297304 1 0.258241 -0.059644 0.964238 0 0 0
540 1 3.86648581940601 -0.7152375895268429 11.279869072120212 0 4 0.0298415518297304 1 0.323807 -0.059642 0.944241 0 0 0
556 1 4.2327990080513676 -1.423347517251903 11.07989365716363 0 4 0.0298415518297304 1 0.354065 -0.118867 0.927636 0 0 0
3448 2 5.534554203550515 -0.9931549265045767 12.081858237582017 0 1 1.90985931710274 0 0 0 1 0 0 0
3613 2 7.064613130276099 -1.472997449621305 12.375986214725538 0 1 1.90985931710274 0 0 0 1 0 0 0
3440 2 11.436310427203404 -1.1571679923970546 10.819283782704 0 1 1.90985931710274 0 0 0 1 0 0 0
3522 2 3.817611828967534 -13.044174542633828 14.215527953275808 0 1 1.90985931710274 0 0 0 1 0 0 0
3517 2 6.554972330831292 -13.583722842998142 14.207591100349847 0 1 1.90985931710274 0 0 0 1 0 0 0
3571 2 5.745555353262587 -14.128666591202279 13.717714293194897 0 1 1.90985931710274 0 0 0 1 0 0 0
3637 2 8.607355021206052 -12.67651845489544 13.384738815757 0 1 1.90985931710274 0 0 0 1 0 0 0
3539 2 11.133274805585907 -14.183222517665248 13.86590960019017 0 1 1.90985931710274 0 0 0 1 0 0 0
3650 2 12.736828992926794 -13.575261879387199 14.270893139371717 0 1 1.90985931710274 0 0 0 1 0 0 0
3502 2 1.348399672400701 -11.310965961446694 12.641741965420417 0 1 1.90985931710274 0 0 0 1 0 0 0
3512 2 6.983794845034735 -10.83449950122106 13.008312977643657 0 1 1.90985931710274 0 0 0 1 0 0 0
3486 2 7.808868619163361 -12.170473856360363 12.83427990796962 0 1 1.90985931710274 0 0 0 1 0 0 0
3465 2 9.96882954360053 -10.86863270591323 13.353421716348292 0 1 1.90985931710274 0 0 0 1 0 0 0
3492 2 10.41617076720191 -12.091315637488238 13.704694735185969 0 1 1.90985931710274 0 0 0 1 0 0 0
3608 2 13.776958866531162 -11.07872221078383 12.613675356161183 0 1 1.90985931710274 0 0 0 1 0 0 0
3636 2 4.9089989322827545 -10.1001951237347 12.991565390887837 0 1 1.90985931710274 0 0 0 1 0 0 0
3568 2 6.430535380134641 -10.311870077082498 14.306280474479005 0 1 1.90985931710274 0 0 0 1 0 0 0
3614 2 7.663518146928768 -9.760376568192733 12.80432238474791 0 1 1.90985931710274 0 0 0 1 0 0 0
3574 2 13.471405548401622 -9.017514013948698 13.119381564231558 0 1 1.90985931710274 0 0 0 1 0 0 0
3466 2 2.6925018929285205 -8.745923550369369 14.266356942028816 0 1 1.90985931710274 0 0 0 1 0 0 0
3638 2 1.953086663693652 -8.523979300800914 13.341139439036978 0 1 1.90985931710274 0 0 0 1 0 0 0
3453 2 5.195987265805849 -8.471065601064588 12.927776907497039 0 1 1.90985931710274 0 0 0 1 0 0 0
3468 2 6.758505151763577 -8.733966309575587 14.324044963106106 0 1 1.90985931710274 0 0 0 1 0 0 0
3457 2 9.78970083622402 -7.869947582905085 13.133220114250419 0 1 1.90985931710274 0 0 0 1 0 0 0
3534 2 11.947616663937092 -7.690688204479952 13.212691644834784 0 1 1.90985931710274 0 0 0 1 0 0 0
3556 2 12.797541586090714 -7.987757578111668 12.594148337833147 0 1 1.90985931710274 0 0 0 1 0 0 0
3620 2 2.890788856745898 -5.463826671649969 12.965929578986168 0 1 1.90985931710274 0 0 0 1 0 0 0
3463 2 3.89314875193857 -6.343246168466717 13.625856579893812 0 1 1.90985931710274 0 0 0 1 0 0 0
3497 2 5.4317986397383375 -5.9402759177705615 12.888676030176933 0 1 1.90985931710274 0 0 0 1 0 0 0
3526 2 9.582110283668168 -6.605316134860407 13.605175441490873 0 1 1.90985931710274 0 0 0 1 0 0 0
3504 2 11.649439250717743 -6.737781186933355 12.628515211109884 0 1 1.90985931710274 0 0 0 1 0 0 0
3496 2 12.870488232272704 -5.849758192683316 13.062099571501415 0 1 1.90985931710274 0 0 0 1 0 0 0
3541 2 6.493563186884048 -4.110182071490065 13.999925703384623 0 1 1.90985931710274 0 0 0 1 0 0 0
3653 2 6.780923021951741 -5.0710440570954365 13.211712397008155 0 1 1.90985931710274 0 0 0 1 0 0 0
3515 2 8.032707320281743 -4.23424402472603 13.77379642961442 0 1 1.90985931710274 0 0 0 1 0 0 0
3551 2 12.928931229940673 -4.387425005267729 12.678147018070524 0 1 1.90985931710274 0 0 0 1 0 0 0
3499 2 2.3871329849087193 -3.5853346391037313 13.578120583577894 0 1 1.90985931710274 0 0 0 1 0 0 0
3559 2 8.041341771028135 -2.6205003301451466 13.430241250524693 0 1 1.90985931710274 0 0 0 1 0 0 0
3601 2 9.054032828972696 -2.070631455878525 13.324143049657375 0 1 1.90985931710274 0 0 0 1 0 0 0
3473 2 11.748756992027493 -2.167954993906303 13.56979741677599 0 1 1.90985931710274 0 0 0 1 0 0 0
3553 2 0.4371302054125774 -0.6327016307948483 14.289565230995079 0 1 1.90985931710274 0 0 0 1 0 0 0
3573 2 1.1488063617543518 -1.2471884684685839 12.720543839435525 0 1 1.90985931710274 0 0 0 1 0 0 0
3597 2 1.5350025131924987 -1.5652979950348305 13.681220922372084 0 1 1.90985931710274 0 0 0 1 0 0 0
3682 2 6.892258587547628 0.5746969129527759 -13.337662002708978 0 1 1.90985931710274 0 0 0 1 0 0 0
3698 2 5.480017259149838 0.8394285313176582 -12.662922144129174 0 1 1.90985931710274 0 0 0 1 0 0 0
3839 2 10.196648213433926 0.8342491840036743 -13.60893045025815 0 1 1.90985931710274 0 0 0 1 0 0 0
3734 2 11.275868138717806 0.19212543018944928 -14.17151680595288 0 1 1.90985931710274 0 0 0 1 0 0 0
3842 2 11.655050126776713 1.4609307362076596 -14.273580557871265 0 1 1.90985931710274 0 0 0 1 0 0 0
3782 2 2.104014002633038 2.4155342534771247 -14.163811809958764 0 1 1.90985931710274 0 0 0 1 0 0 0
3793 2 5.9463693100052115 3.419685257588265 -13.64115771405164 0 1 1.90985931710274 0 0 0 1 0 0 0
3762 2 9.76988762852732 3.542598658687643 -14.314393436743586 0 1 1.90985931710274 0 0 0 1 0 0 0
3754 2 1.5120055872110458 4.181371484402445 -14.204324327274401 0 1 1.90985931710274 0 0 0 1 0 0 0
3809 2 1.243000527326839 4.341773553775972 -13.158267008111588 0 1 1.90985931710274 0 0 0 1 0 0 0
3668 2 2.9067504084398106 4.492126647872906 -13.405743200084272 0 1 1.90985931710274 0 0 0 1 0 0 0
3774 2 7.710488235855282 4.736370019707719 -12.66383477236107 0 1 1.90985931710274 0 0 0 1 0 0 0
3681 2 11.848229072223125 4.995844854015912 -14.236582554553694 0 1 1.90985931710274 0 0 0 1 0 0 0
3716 2 12.821621183719708 5.17348277712796 -13.589784810366314 0 1 1.90985931710274 0 0 0 1 0 0 0
3703 2 4.578034151618392 6.436398331408944 -14.221834341140339 0 1 1.90985931710274 0 0 0 1 0 0 0
3831 2 5.768897994838378 5.573067248586467 -13.829569007286292 0 1 1.90985931710274 0 0 0 1 0 0 0
3687 2 8.818888501610529 6.609630568120279 -13.873915602452703 0 1 1.90985931710274 0 0 0 1 0 0 0
3750 2 10.622191862688089 6.373956198683734 -14.102070722503715 0 1 1.90985931710274 0 0 0 1 0 0 0
3708 2 12.270142964376655 6.932412278462804 -13.38847587566012 0 1 1.90985931710274 0 0 0 1 0 0 0
3748 2 2.581439665577598 7.923294448140918 -12.756493955601083 0 1 1.90985931710274 0 0 0 1 0 0 0
3778 2 3.2177289629396473 7.509584126647281 -13.830995439131677 0 1 1.90985931710274 0 0 0 1 0 0 0
3844 2 3.568912585867512 8.407501589792776 -12.817512492831527 0 1 1.90985931710274 0 0 0 1 0 0 0
3758 2 5.0688767237539185 7.764104132081377 -12.576270108282523 0 1 1.90985931710274 0 0 0 1 0 0 0
3667 2 6.178862344431439 7.581330859197111 -13.429609474158728 0 1 1.90985931710274 0 0 0 1 0 0 0
3678 2 6.5324222197017665 8.735696527606974 -13.945364509601351 0 1 1.90985931710274 0 0 0 1 0 0 0
3798 2 7.796045411853401 7.641127020082363 -12.973823475726121 0 1 1.90985931710274 0 0 0 1 0 0 0
3808 2 8.187183745251863 8.952570448071706 -13.984321258886709 0 1 1.90985931710274 0 0 0 1 0 0 0
3795 2 10.151129400004844 8.62727280951623 -12.616235455392125 0 1 1.90985931710274 0 0 0 1 0 0 0
3836 2 12.352192205143284 8.281489843121895 -13.306106650341572 0 1 1.90985931710274 0 0 0 1 0 0 0
3761 2 3.8633599971009343 9.616843275427689 -14.276477886878393 0 1 1.90985931710274 0 0 0 1 0 0 0
3802 2 7.955011991781435 10.190693870538441 -13.137109860470108 0 1 1.90985931710274 0 0 0 1 0 0 0
3663 2 10.451608501680402 9.4888077425296 -13.587629305039515 0 1 1.90985931710274 0 0 0 1 0 0 0
3699 2 2.58609045682841 10.965991915095012 -12.999550998178094 0 1 1.90985931710274 0 0 0 1 0 0 0
3715 2 6.010079942338665 12.263804885934649 -13.488390096401515 0 1 1.90985931710274 0 0 0 1 0 0 0
3690 2 10.88680072930649 12.007947239351486 -14.053247862855248 0 1 1.90985931710274 0 0 0 1 0 0 0
3745 2 10.899561595508207 11.52748792122881 -13.066610264193548 0 1 1.90985931710274 0 0 0 1 0 0 0
3791 2 0.1763729867503889 13.593149178860592 -13.093029240959197 0 1 1.90985931710274 0 0 0 1 0 0 0
3763 2 2.656295417683088 14.155914999651342 -13.60586085991572 0 1 1.90985931710274 0 0 0 1 0 0 0
3726 2 10.298121313055605 12.928088525566237 -13.59882480832027 0 1 1.90985931710274 0 0 0 1 0 0 0
3749 2 12.574528329536184 13.942512514634826 -12.624676532510815 0 1 1.90985931710274 0 0 0 1 0 0 0
1235 1 0.3768687790293372 1.3496076122842269 -11.86812127662825 0 4 0.0298415518297304 1 0.030269 0.111273 -0.993329 0 0 0
1244 1 1.5137182198694838 0.6968056081181138 -11.83119651802187 0 4 0.0298415518297304 1 0.126041 0.05763 -0.99035 0 0 0
1245 1 0.7436907815813953 0.6812230974745015 -11.906795768543468 0 4 0.0298415518297304 1 0.064561 0.057636 -0.996248 0 0 0
1246 1 0.37985787396102 0 -11.94399904357446 0 4 0.0298415518297304 1 0.030178 0 -0.999545 0 0 0
1242 1 2.672170851459992 1.4115491063592356 -11.558231437056955 0 4 0.0298415518297304 1 0.22391 0.117222 -0.967535 0 0 0
1243 1 1.8888478978032397 1.3914885773027972 -11.715167821109105 0 4 0.0298415518297304 1 0.159038 0.117231 -0.980288 0 0 0
1254 1 3.0804279528325313 0.7111428724090038 -11.52006018579294 0 4 0.0298415518297304 1 0.258241 0.059644 -0.964238 0 0 0
3807 2 1.1176745319081167 14.240381779707048 -0.3262944636523315 0 1 1.90985931710274 0 0 0 1 0 0 0
1256 1 1.9008536977816826 0 -11.794987974137706 0 4 0.0298415518297304 1 0.160411 -0 -0.98705 0 0 0
1252 1 4.2327990080513676 1.423347517251903 -11.07989365716363 0 4 0.0298415518297304 1 0.354065 0.118867 -0.927636 0 0 0
1253 1 3.86648581940601 0.7152375895268429 -11.279869072120212 0 4 0.0298415518297304 1 0.323807 0.059642 -0.944241 0 0 0
1266 1 5.0237641903669115 0 -10.837827437084997 0 4 0.0298415518297304 1 0.420311 0 -0.90738 0 0 0
3801 2 1.6623611185633091 13.138857693556185 -1.4359804011952875 0 1 1.90985931710274 0 0 0 1 0 0 0
3767 2 6.5199604906914015 0.19907505040500695 -12.173625843018076 0 1 1.90985931710274 0 0 0 1 0 0 0
3686 2 9.829493498707942 0.8001687843806167 -12.376326915009457 0 1 1.90985931710274 0 0 0 1 0 0 0
3671 2 12.129703987182554 0.06423057715910296 -11.11826168692778 0 1 1.90985931710274 0 0 0 1 0 0 0
3676 2 10.910471307549168 1.0016999788436571 -11.970633574659754 0 1 1.90985931710274 0 0 0 1 0 0 0
3680 2 11.409057157677355 0.014635083279152639 -12.338001327300601 0 1 1.90985931710274 0 0 0 1 0 0 0
1224 1 1.452025059863383 3.3556025850482296 -11.390908414587333 0 4 0.0298415518297304 1 0.122693 0.277359 -0.9529 0 0 0
1225 1 0.7237953884855253 3.276131940429869 -11.472097285570149 0 4 0.0298415518297304 1 0.060552 0.277386 -0.958848 0 0 0
1226 1 0.3678117563873662 2.6502621255199252 -11.648741412035173 0 4 0.0298415518297304 1 0.030501 0.218543 -0.97535 0 0 0
1233 1 1.4926796990507116 2.0629124085374824 -11.674634439008784 0 4 0.0298415518297304 1 0.124901 0.170648 -0.977384 0 0 0
1234 1 0.7363147481133524 2.0167350080379154 -11.756097880475448 0 4 0.0298415518297304 1 0.063153 0.170666 -0.983303 0 0 0
1230 1 2.963422670948167 3.412019013526081 -11.06193314522361 0 4 0.0298415518297304 1 0.246557 0.286314 -0.925869 0 0 0
1231 1 2.616436136241011 2.7661375647652378 -11.325622741883521 0 4 0.0298415518297304 1 0.220102 0.229781 -0.948027 0 0 0
1232 1 1.8548371467004798 2.726875306230269 -11.48537574342067 0 4 0.0298415518297304 1 0.155112 0.229798 -0.960798 0 0 0
1241 1 3.039448746477639 2.103550570471817 -11.360997099847129 0 4 0.0298415518297304 1 0.254167 0.176454 -0.950927 0 0 0
1229 1 3.7071227937142512 3.4315134233143305 -10.828792332517375 0 4 0.0298415518297304 1 0.312038 0.286305 -0.905904 0 0 0
1239 1 4.148160133050597 2.787820095153561 -10.852187900093165 0 4 0.0298415518297304 1 0.346156 0.232877 -0.908815 0 0 0
1240 1 3.8114019686846525 2.115633286578001 -11.123083633229703 0 4 0.0298415518297304 1 0.319741 0.176449 -0.930931 0 0 0
3721 2 4.062729377962663 2.3900294184616317 -12.307163915379284 0 1 1.90985931710274 0 0 0 1 0 0 0
3723 2 7.910151659826473 2.4515387035581266 -11.75999329861779 0 1 1.90985931710274 0 0 0 1 0 0 0
1214 1 0.3282260859712711 4.959509308734032 -10.876011960372498 0 4 0.0298415518297304 1 0.03097 0.408879 -0.912063 0 0 0
1217 1 1.3942285429139425 4.527409841300541 -10.975640721862607 0 4 0.0298415518297304 1 0.119553 0.374767 -0.919379 0 0 0
1218 1 0.7106141284784225 4.422370927131481 -11.08496819773124 0 4 0.0298415518297304 1 0.057112 0.374801 -0.925344 0 0 0
1219 1 0.3497595991234464 3.8585904782634937 -11.295935130530692 0 4 0.0298415518297304 1 0.030774 0.318484 -0.947429 0 0 0
3817 2 0.5593975334357962 4.135239815665052 -12.334619253430612 0 1 1.90985931710274 0 0 0 1 0 0 0
1222 1 2.5293110254501143 4.017420313103844 -10.967922118238022 0 4 0.0298415518297304 1 0.214148 0.333881 -0.917967 0 0 0
1223 1 1.8043773161599217 3.960234221833683 -11.13171558938183 0 4 0.0298415518297304 1 0.149145 0.333904 -0.930733 0 0 0
3843 2 6.118936329319036 4.9430848650110075 -11.23980376002889 0 1 1.90985931710274 0 0 0 1 0 0 0
3672 2 8.198861804803263 4.318059328422889 -11.443593196484448 0 1 1.90985931710274 0 0 0 1 0 0 0
3689 2 11.561297954215304 4.3283364966217075 -10.921791278966754 0 1 1.90985931710274 0 0 0 1 0 0 0
3821 2 11.926770992547722 4.79957574950995 -12.30561198629296 0 1 1.90985931710274 0 0 0 1 0 0 0
3841 2 3.8443878882182982 6.464643284903795 -11.082194621876196 0 1 1.90985931710274 0 0 0 1 0 0 0
3744 2 6.192442562589802 6.2153054467962345 -11.34351569567995 0 1 1.90985931710274 0 0 0 1 0 0 0
3738 2 8.928125095780485 5.679052782601696 -11.99852681328965 0 1 1.90985931710274 0 0 0 1 0 0 0
3806 2 8.777267037346336 7.036135645058608 -12.092139982563083 0 1 1.90985931710274 0 0 0 1 0 0 0
3827 2 7.903541496950913 6.158907254018041 -12.091839718777795 0 1 1.90985931710274 0 0 0 1 0 0 0
3783 2 9.495798877993638 6.67690347384833 -11.34530254857589 0 1 1.90985931710274 0 0 0 1 0 0 0
3813 2 11.127672175724767 6.457753406186319 -12.076010226534123 0 1 1.90985931710274 0 0 0 1 0 0 0
3733 2 4.013504976350218 7.4072375181147105 -11.904805046076818 0 1 1.90985931710274 0 0 0 1 0 0 0
3757 2 8.17518869490594 8.259417284138644 -11.165383481837456 0 1 1.90985931710274 0 0 0 1 0 0 0
3840 2 9.73086170206208 7.759014557394378 -12.01346987267866 0 1 1.90985931710274 0 0 0 1 0 0 0
3828 2 12.826895034866565 7.707817002356668 -11.45795739149651 0 1 1.90985931710274 0 0 0 1 0 0 0
3769 2 0.0756744553840143 9.012435639121966 -12.368345277120753 0 1 1.90985931710274 0 0 0 1 0 0 0
3735 2 6.505124230924581 9.155903149414177 -12.001795795893802 0 1 1.90985931710274 0 0 0 1 0 0 0
3737 2 7.753521908022664 10.475948136913493 -11.951352894925272 0 1 1.90985931710274 0 0 0 1 0 0 0
3740 2 8.597102787534299 10.199354088982433 -11.090288472207385 0 1 1.90985931710274 0 0 0 1 0 0 0
3759 2 10.552428080100013 10.598916240910336 -11.705197019982483 0 1 1.90985931710274 0 0 0 1 0 0 0
3824 2 10.002331468292667 8.979246666738602 -11.591161129697516 0 1 1.90985931710274 0 0 0 1 0 0 0
3658 2 12.748451681331312 9.560698135339583 -10.771745347646398 0 1 1.90985931710274 0 0 0 1 0 0 0
3810 2 1.7407881801777219 11.012158246985011 -12.011548922898026 0 1 1.90985931710274 0 0 0 1 0 0 0
3846 2 2.0533652006534435 12.193939382419972 -10.973053667563125 0 1 1.90985931710274 0 0 0 1 0 0 0
3677 2 5.521627132374546 11.350311819003904 -11.48107600139071 0 1 1.90985931710274 0 0 0 1 0 0 0
3739 2 13.583582413286392 10.767944104379799 -12.262201688752876 0 1 1.90985931710274 0 0 0 1 0 0 0
3732 2 2.0705663282901217 14.282351572068977 -12.467344236727538 0 1 1.90985931710274 0 0 0 1 0 0 0
3776 2 2.92778147397315 13.548117066741897 -11.27625526897138 0 1 1.90985931710274 0 0 0 1 0 0 0
3709 2 5.651579899586496 14.183326350260016 -12.120795179954587 0 1 1.90985931710274 0 0 0 1 0 0 0
3727 2 8.286473446815984 13.051132636252026 -12.075224512231934 0 1 1.90985931710274 0 0 0 1 0 0 0
3765 2 11.305655383311754 12.90774732063838 -11.060328030728954 0 1 1.90985931710274 0 0 0 1 0 0 0
3818 2 12.879757789637523 13.343340086679964 -10.892774623857209 0 1 1.90985931710274 0 0 0 1 0 0 0
3823 2 13.995242766540576 12.579847247423876 -11.46681054691284 0 1 1.90985931710274 0 0 0 1 0 0 0
4637 2 0.4355116892257449 0.8660928171237714 -9.38302460075574 0 1 1.90985931710274 0 0 0 1 0 0 0
4662 2 2.8575500228677466 0.3466103382103185 -10.409077699170908 0 1 1.90985931710274 0 0 0 1 0 0 0
4675 2 2.7465774741779843 0.8020685094052062 -9.148554426722963 0 1 1.90985931710274 0 0 0 1 0 0 0
1251 1 4.98783925556015 1.4192693658356634 -10.76190507047654 0 4 0.0298415518297304 1 0.417556 0.118869 -0.900842 0 0 0
1262 1 7.044985182758772 1.3686009819231013 -9.553842441772057 0 4 0.0298415518297304 1 0.588153 0.115657 -0.800437 0 0 0
1263 1 6.399635919207783 1.3963315588536618 -9.992199987587664 0 4 0.0298415518297304 1 0.53584 0.115646 -0.836362 0 0 0
1264 1 6.095336996791155 0.7040841837917592 -10.25069844397294 0 4 0.0298415518297304 1 0.50941 0.059226 -0.858483 0 0 0
1265 1 5.383451567067813 0.7122045543855867 -10.64038312370757 0 4 0.0298415518297304 1 0.450572 0.059223 -0.890774 0 0 0
1279 1 7.092140394247476 2.211841450608392e-18 -9.61605526409717 0 4 0.0298415518297304 1 0.591895 0 -0.806015 0 0 0
931 1 4.527409841300541 10.975640721862607 -1.3942285429139425 0 4 0.0298415518297304 1 0.374767 0.919379 -0.119553 0 0 0
1278 1 7.375600354702212 0.6851437658954604 -9.376631494888152 0 4 0.0298415518297304 1 0.618377 0.056516 -0.783847 0 0 0
3845 2 13.116800878529256 0.969351441145557 -10.331720666651709 0 1 1.90985931710274 0 0 0 1 0 0 0
4680 2 1.4675409403774933 3.002461361125484 -10.35490271268073 0 1 1.90985931710274 0 0 0 1 0 0 0
4677 2 3.431138807682048 1.869382712188127 -8.982248254128537 0 1 1.90985931710274 0 0 0 1 0 0 0
1237 1 5.172463522025751 3.4183554655301926 -10.215155116265121 0 4 0.0298415518297304 1 0.431545 0.284445 -0.856072 0 0 0
1238 1 4.884105722525149 2.7798204017072834 -10.54382301778774 0 4 0.0298415518297304 1 0.409603 0.232881 -0.882039 0 0 0
1250 1 5.310097654165997 2.1070288296765565 -10.492772653721886 0 4 0.0298415518297304 1 0.443955 0.17524 -0.878746 0 0 0
4624 2 3.7656497274070198 3.3635805297838637 -9.456427922592933 0 1 1.90985931710274 0 0 0 1 0 0 0
1236 1 5.854617017001387 3.383586720413358 -9.85282733924287 0 4 0.0298415518297304 1 0.490447 0.284461 -0.823738 0 0 0
1247 1 6.909457866036755 2.6877540399909075 -9.37289470523265 0 4 0.0298415518297304 1 0.577333 0.226831 -0.784369 0 0 0
1248 1 6.274706368145702 2.737132063013731 -9.79413632702012 0 4 0.0298415518297304 1 0.524802 0.226809 -0.820451 0 0 0
1249 1 6.011561039835598 2.0830139269438743 -10.113173319118141 0 4 0.0298415518297304 1 0.502849 0.175251 -0.846422 0 0 0
1924 1 7.142375312258343 3.2975402454766938 -8.996025895892759 0 4 0.0298415518297304 1 0.59604 0.275807 -0.7541 0 0 0
1261 1 7.28208785979175 2.02877540751461 -9.255835233925785 0 4 0.0298415518297304 1 0.610208 0.167433 -0.774346 0 0 0
3787 2 8.965498321146976 2.386783517192418 -9.458838546983774 0 1 1.90985931710274 0 0 0 1 0 0 0
3729 2 10.092612938618858 3.080119367151722 -9.207372281015882 0 1 1.90985931710274 0 0 0 1 0 0 0
3780 2 13.164760390910926 3.394244039917483 -10.715293106855173 0 1 1.90985931710274 0 0 0 1 0 0 0
1216 1 1.745118796613131 5.061730274197689 -10.689822936524607 0 4 0.0298415518297304 1 0.141803 0.427143 -0.892995 0 0 0
1215 1 2.4208158069392542 5.140432586494049 -10.517951734564901 0 4 0.0298415518297304 1 0.206546 0.427117 -0.88029 0 0 0
1220 1 3.566604096775424 4.627224043334814 -10.426911840880612 0 4 0.0298415518297304 1 0.301445 0.385995 -0.871859 0 0 0
1221 1 2.861937509150159 4.597576101275517 -10.65540007802271 0 4 0.0298415518297304 1 0.236303 0.386006 -0.891718 0 0 0
1227 1 4.725745922084348 4.03736240898212 -10.206998193417988 0 4 0.0298415518297304 1 0.397289 0.338104 -0.85314 0 0 0
1228 1 4.018942358833174 4.045510343949046 -10.502245767290724 0 4 0.0298415518297304 1 0.334064 0.338099 -0.879824 0 0 0
1928 1 4.958664267611715 4.6471478823731145 -9.830129370841252 0 4 0.0298415518297304 1 0.415996 0.38708 -0.822871 0 0 0
1929 1 4.474010090314408 5.236891991858055 -9.765930954750743 0 4 0.0298415518297304 1 0.373095 0.440282 -0.816671 0 0 0
1930 1 3.7939239923523522 5.222355621366762 -10.059100048941238 0 4 0.0298415518297304 1 0.320296 0.435348 -0.841358 0 0 0
1907 1 5.819635519704458 5.229067623256141 -9.030104738562834 0 4 0.0298415518297304 1 0.4875 0.436819 -0.755998 0 0 0
1925 1 6.734332239905998 3.9404487203291834 -9.050444772702892 0 4 0.0298415518297304 1 0.564703 0.33127 -0.755891 0 0 0
1926 1 6.089382005172075 3.9982103829107847 -9.472968743546604 0 4 0.0298415518297304 1 0.509098 0.333291 -0.793559 0 0 0
1927 1 5.632089492713752 4.621672847602975 -9.471464327594123 0 4 0.0298415518297304 1 0.471446 0.388906 -0.791512 0 0 0
3718 2 12.032837124905805 4.954947644453563 -9.244018708113583 0 1 1.90985931710274 0 0 0 1 0 0 0
3834 2 11.229868982004627 5.044123199173823 -9.978776446406757 0 1 1.90985931710274 0 0 0 1 0 0 0
968 1 4.423682901216784e-18 6.718450883615759 -9.897522950485259 0 4 0.0298415518297304 1 0 0.569865 -0.821739 0 0 0
1211 1 0.3007226119801671 5.931148609750038 -10.38410240725975 0 4 0.0298415518297304 1 0.031001 0.488703 -0.871899 0 0 0
1212 1 1.324251409088832 5.575087225059108 -10.49556439859258 0 4 0.0298415518297304 1 0.115671 0.461227 -0.87971 0 0 0
1213 1 0.7031792711430755 5.432734791968485 -10.631296536123939 0 4 0.0298415518297304 1 0.053217 0.461265 -0.885665 0 0 0
1915 1 1.14665875491715 7.102193318178118 -9.551761345313452 0 4 0.0298415518297304 1 0.102459 0.596039 -0.796392 0 0 0
1934 1 1.5271061926927691 6.106168118875939 -10.16733844680462 0 4 0.0298415518297304 1 0.134812 0.511338 -0.84874 0 0 0
1935 1 1.1377675643454386 6.570502549743725 -9.928117389224152 0 4 0.0298415518297304 1 0.086106 0.547371 -0.832448 0 0 0
1936 1 0.4865794786618666 6.417728021582561 -10.08337967517057 0 4 0.0298415518297304 1 0.050161 0.538863 -0.840898 0 0 0
1911 1 3.4268197334280326 6.3671283268970695 -9.515722686147727 0 4 0.0298415518297304 1 0.289976 0.532402 -0.795275 0 0 0
1912 1 2.9195443775880694 6.8797784902812955 -9.327338261728201 0 4 0.0298415518297304 1 0.241321 0.575225 -0.781589 0 0 0
1913 1 2.2559092717178135 6.783319053141226 -9.581412179409126 0 4 0.0298415518297304 1 0.193441 0.568207 -0.799826 0 0 0
1931 1 3.309267907455417 5.7687017515614585 -9.931604703079781 0 4 0.0298415518297304 1 0.273726 0.483981 -0.831166 0 0 0
1932 1 2.63849077709189 5.710312428807246 -10.165746059644487 0 4 0.0298415518297304 1 0.225565 0.47691 -0.849516 0 0 0
1933 1 2.184302998367814 6.211528291683313 -9.979208801255677 0 4 0.0298415518297304 1 0.177101 0.519552 -0.835883 0 0 0
1909 1 4.629649181325049 5.846719577457926 -9.336112728622068 0 4 0.0298415518297304 1 0.389231 0.488399 -0.781003 0 0 0
1910 1 4.109775397540957 6.413209013816228 -9.207096031147115 0 4 0.0298415518297304 1 0.342421 0.53729 -0.770758 0 0 0
3711 2 6.2266494484629415 7.108556316633086 -9.148308347749301 0 1 1.90985931710274 0 0 0 1 0 0 0
3786 2 5.545276572877436 7.0111423510938895 -10.422469164993405 0 1 1.90985931710274 0 0 0 1 0 0 0
3803 2 8.065792389124775 6.5057220201250825 -9.498147757742831 0 1 1.90985931710274 0 0 0 1 0 0 0
966 1 0.6155775977841709 7.430419130501573 -9.348906162508925 0 4 0.0298415518297304 1 0.052348 0.627009 -0.777251 0 0 0
967 1 0 7.2736816536149265 -9.493528896893935 0 4 0.0298415518297304 1 0 0.600588 -0.799559 0 0 0
1914 1 1.7891570029506303 7.246032847391109 -9.33984966043232 0 4 0.0298415518297304 1 0.144752 0.604243 -0.783541 0 0 0
3804 2 8.088987245776408 8.55798741890645 -10.070011879320226 0 1 1.90985931710274 0 0 0 1 0 0 0
3832 2 7.603978955176508 8.772185996776813 -9.108396732083417 0 1 1.90985931710274 0 0 0 1 0 0 0
3695 2 10.299571240550575 8.595925933482023 -9.580031967632873 0 1 1.90985931710274 0 0 0 1 0 0 0
3741 2 9.577184516762395 8.005021225606834 -10.33693322596183 0 1 1.90985931710274 0 0 0 1 0 0 0
3657 2 13.93008588208396 8.12966218510491 -10.676188941747924 0 1 1.90985931710274 0 0 0 1 0 0 0
3679 2 12.767123866509595 7.672080426737876 -9.359609816496668 0 1 1.90985931710274 0 0 0 1 0 0 0
3792 2 13.556143704546495 8.8230703129214 -9.209948730016867 0 1 1.90985931710274 0 0 0 1 0 0 0
3728 2 0.852305986663338 10.158581796132433 -10.270228920428796 0 1 1.90985931710274 0 0 0 1 0 0 0
3670 2 5.3311394928116504 10.085492862385241 -10.359490743911408 0 1 1.90985931710274 0 0 0 1 0 0 0
3712 2 5.566746800391795 9.008623007841454 -10.468186356085955 0 1 1.90985931710274 0 0 0 1 0 0 0
3717 2 7.876463789912295 10.281389055941466 -9.981110791807737 0 1 1.90985931710274 0 0 0 1 0 0 0
3772 2 10.453353795418687 10.120865601881404 -9.995967179247069 0 1 1.90985931710274 0 0 0 1 0 0 0
3797 2 9.667825640787404 10.252410713904558 -9.101507406115793 0 1 1.90985931710274 0 0 0 1 0 0 0
3704 2 12.200291908414423 9.690568721237954 -9.319952153760426 0 1 1.90985931710274 0 0 0 1 0 0 0
3722 2 12.78266923246518 10.633200042291632 -9.519227204534127 0 1 1.90985931710274 0 0 0 1 0 0 0
3662 2 1.717303187485327 10.817432120470565 -10.1025707330464 0 1 1.90985931710274 0 0 0 1 0 0 0
3685 2 0.8750332880560023 11.724344357227844 -10.655792071643447 0 1 1.90985931710274 0 0 0 1 0 0 0
3731 2 2.8439963083250976 11.724444019946231 -8.980760763663431 0 1 1.90985931710274 0 0 0 1 0 0 0
3660 2 5.048596543363034 11.328240302489748 -9.322832054822701 0 1 1.90985931710274 0 0 0 1 0 0 0
3713 2 3.9983567911194715 11.121534344903734 -10.597487202892216 0 1 1.90985931710274 0 0 0 1 0 0 0
3659 2 6.95444158834364 12.445007291544046 -10.335523019212346 0 1 1.90985931710274 0 0 0 1 0 0 0
3838 2 5.400410322995773 11.837070589960197 -10.338202539003758 0 1 1.90985931710274 0 0 0 1 0 0 0
3835 2 8.574439563315574 11.282140436377777 -9.200752119337556 0 1 1.90985931710274 0 0 0 1 0 0 0
3830 2 6.1331143901378535 13.625001046892296 -10.636430881218931 0 1 1.90985931710274 0 0 0 1 0 0 0
3688 2 9.362288881878476 12.591929731523818 -9.3041582792108 0 1 1.90985931710274 0 0 0 1 0 0 0
3691 2 11.616533660303736 14.239840724882244 -9.419802904171977 0 1 1.90985931710274 0 0 0 1 0 0 0
3697 2 13.589301142431278 13.874225193658235 -10.22482473200858 0 1 1.90985931710274 0 0 0 1 0 0 0
4617 2 6.782378235443964 0.2542551067070562 -7.980883574476777 0 1 1.90985931710274 0 0 0 1 0 0 0
4623 2 5.410560730177796 0.6626360982071002 -8.666445433272408 0 1 1.90985931710274 0 0 0 1 0 0 0
1275 1 8.669599745290057 1.2784715515496379 -8.131128066779423 0 4 0.0298415518297304 1 0.721864 0.108633 -0.683456 0 0 0
1276 1 8.162830137834208 1.321444919037123 -8.630639292972145 0 4 0.0298415518297304 1 0.685123 0.10862 -0.720284 0 0 0
1277 1 7.952522696613374 0.6656915704953396 -8.896439356475284 0 4 0.0298415518297304 1 0.662924 0.056523 -0.74655 0 0 0
1293 1 8.9006657194245 0.6393586009192921 -7.9566467609051275 0 4 0.0298415518297304 1 0.748244 0.052342 -0.661356 0 0 0
1294 1 8.719731403206659 0 -8.177547707543587 0 4 0.0298415518297304 1 0.725938 0 -0.68776 0 0 0
1295 1 8.21217122543628 0 -8.684155977676964 0 4 0.0298415518297304 1 0.689412 0 -0.724369 0 0 0
1292 1 9.348906162508925 0.6155775977841709 -7.430419130501573 0 4 0.0298415518297304 1 0.777251 0.052348 -0.627009 0 0 0
1312 1 9.493528896893935 0 -7.2736816536149265 0 4 0.0298415518297304 1 0.799559 0 -0.600588 0 0 0
1919 1 9.33984966043232 1.7891570029506303 -7.246032847391109 0 4 0.0298415518297304 1 0.783541 0.144752 -0.604243 0 0 0
3743 2 10.428905235530257 1.0292355570193727 -8.397675175418179 0 1 1.90985931710274 0 0 0 1 0 0 0
4642 2 2.481960352901508 2.051619215641578 -7.583318712001436 0 1 1.90985931710274 0 0 0 1 0 0 0
4647 2 5.836144054151223 2.0857401196139023 -8.135157649145164 0 1 1.90985931710274 0 0 0 1 0 0 0
1260 1 7.8548174342616175 1.976962086269973 -8.788959806380333 0 4 0.0298415518297304 1 0.655055 0.167452 -0.736792 0 0 0
1901 1 8.850031126127387 3.015399555322699 -7.444239992366906 0 4 0.0298415518297304 1 0.738752 0.255043 -0.623858 0 0 0
1920 1 8.887274502417357 1.848351927259901 -7.778922635537865 0 4 0.0298415518297304 1 0.740883 0.158426 -0.652682 0 0 0
1921 1 8.610159610496206 2.492570003313927 -7.906844018523753 0 4 0.0298415518297304 1 0.722546 0.206595 -0.659732 0 0 0
1922 1 8.08213718829916 2.572094274093865 -8.421148108100308 0 4 0.0298415518297304 1 0.673906 0.216805 -0.706291 0 0 0
1923 1 7.737155463213315 3.2201579666754445 -8.519520450007567 0 4 0.0298415518297304 1 0.649239 0.269616 -0.711194 0 0 0
3666 2 11.378509926383861 3.227010733533495 -8.69826150253419 0 1 1.90985931710274 0 0 0 1 0 0 0
3655 2 13.046531173850727 2.765489414667918 -8.844481511517689 0 1 1.90985931710274 0 0 0 1 0 0 0
3692 2 12.946464653341913 2.163604212014413 -7.93731283851926 0 1 1.90985931710274 0 0 0 1 0 0 0
4619 2 4.34059266396315 3.728003228647683 -7.504096118377473 0 1 1.90985931710274 0 0 0 1 0 0 0
1905 1 6.947090881314812 4.532261116183702 -8.599454995390728 0 4 0.0298415518297304 1 0.580747 0.379189 -0.720381 0 0 0
1906 1 6.484890297575802 5.182674844411291 -8.591918993333321 0 4 0.0298415518297304 1 0.543095 0.434791 -0.718335 0 0 0
4626 2 5.925917426096685 4.099388406976356 -8.121261948402127 0 1 1.90985931710274 0 0 0 1 0 0 0
4672 2 5.611477611287064 5.094158901688072 -7.400579328592014 0 1 1.90985931710274 0 0 0 1 0 0 0
1886 1 7.746829429466787 5.027747336910463 -7.578527615711209 0 4 0.0298415518297304 1 0.647794 0.421521 -0.634573 0 0 0
1902 1 8.521048063005093 3.677307286481024 -7.515697771160679 0 4 0.0298415518297304 1 0.714242 0.307492 -0.628735 0 0 0
1903 1 7.941795105580659 3.752831685284481 -8.05899631098782 0 4 0.0298415518297304 1 0.665346 0.317751 -0.675536 0 0 0
1904 1 7.547334616002632 4.450374031738113 -8.103028397034876 0 4 0.0298415518297304 1 0.634131 0.372974 -0.677324 0 0 0
3837 2 8.6618470609798 4.609758292101166 -8.128316754690603 0 1 1.90985931710274 0 0 0 1 0 0 0
3669 2 10.531568340352782 4.422398309234028 -8.585076703685345 0 1 1.90985931710274 0 0 0 1 0 0 0
3730 2 13.719780292081142 3.7581730077767457 -7.494152296268029 0 1 1.90985931710274 0 0 0 1 0 0 0
4699 2 1.356537587126601 5.875392836795793 -7.952153973094103 0 1 1.90985931710274 0 0 0 1 0 0 0
4625 2 2.5832307443329654 5.955050004148543 -8.538510275447592 0 1 1.90985931710274 0 0 0 1 0 0 0
1891 1 4.917931978313914 7.021482536804528 -8.321548324326256 0 4 0.0298415518297304 1 0.411251 0.587705 -0.69676 0 0 0
1892 1 4.233482399091309 6.999619942319504 -8.709186563023858 0 4 0.0298415518297304 1 0.356132 0.585913 -0.727926 0 0 0
1908 1 5.315532000828298 5.844040723021723 -8.963339986921262 0 4 0.0298415518297304 1 0.444447 0.490205 -0.749777 0 0 0
1873 1 6.256104902255907 6.971342485334068 -7.413383296015549 0 4 0.0298415518297304 1 0.523931 0.583573 -0.620434 0 0 0
1888 1 6.651223165669366 5.774066719283829 -8.070493389834603 0 4 0.0298415518297304 1 0.556751 0.483286 -0.67562 0 0 0
1889 1 6.136607830526459 6.407584207931539 -7.9994657362479495 0 4 0.0298415518297304 1 0.513666 0.536709 -0.669396 0 0 0
1890 1 5.46289520267755 6.439296458190344 -8.450912740693703 0 4 0.0298415518297304 1 0.458125 0.538743 -0.70702 0 0 0
1887 1 7.2872611811923225 5.696441317200801 -7.5599552786647415 0 4 0.0298415518297304 1 0.610173 0.477065 -0.632533 0 0 0
3751 2 10.176445870735401 5.706603449849299 -8.171966382841232 0 1 1.90985931710274 0 0 0 1 0 0 0
3710 2 13.320347272671023 6.543411781876491 -7.470390001803212 0 1 1.90985931710274 0 0 0 1 0 0 0
943 1 0.6656915704953396 8.896439356475284 -7.952522696613374 0 4 0.0298415518297304 1 0.056523 0.74655 -0.662924 0 0 0
944 1 0 8.684155977676964 -8.21217122543628 0 4 0.0298415518297304 1 0 0.724369 -0.689412 0 0 0
945 1 2.211841450608392e-18 8.177547707543587 -8.719731403206659 0 4 0.0298415518297304 1 0 0.68776 -0.725938 0 0 0
963 1 1.321444919037123 8.630639292972145 -8.162830137834208 0 4 0.0298415518297304 1 0.10862 0.720284 -0.685123 0 0 0
964 1 1.2784715515496379 8.131128066779423 -8.669599745290057 0 4 0.0298415518297304 1 0.108633 0.683456 -0.721864 0 0 0
965 1 0.6393586009192921 7.9566467609051275 -8.9006657194245 0 4 0.0298415518297304 1 0.052342 0.661356 -0.748244 0 0 0
962 1 1.976962086269973 8.788959806380333 -7.8548174342616175 0 4 0.0298415518297304 1 0.167452 0.736792 -0.655055 0 0 0
1878 1 3.2201579666754445 8.519520450007567 -7.737155463213315 0 4 0.0298415518297304 1 0.269616 0.711194 -0.649239 0 0 0
1879 1 2.572094274093865 8.421148108100308 -8.08213718829916 0 4 0.0298415518297304 1 0.216805 0.706291 -0.673906 0 0 0
1894 1 3.015399555322699 7.444239992366906 -8.850031126127387 0 4 0.0298415518297304 1 0.255043 0.623858 -0.738752 0 0 0
1895 1 2.492570003313927 7.906844018523753 -8.610159610496206 0 4 0.0298415518297304 1 0.206595 0.659732 -0.722546 0 0 0
1896 1 1.848351927259901 7.778922635537865 -8.887274502417357 0 4 0.0298415518297304 1 0.158426 0.652682 -0.740883 0 0 0
1875 1 5.027747336910463 7.578527615711209 -7.746829429466787 0 4 0.0298415518297304 1 0.421521 0.634573 -0.647794 0 0 0
1876 1 4.452551263255395 8.103352022611611 -7.567008598743931 0 4 0.0298415518297304 1 0.372974 0.677324 -0.634131 0 0 0
1877 1 3.7838070843487692 8.061162762905834 -7.967511654140036 0 4 0.0298415518297304 1 0.317751 0.675536 -0.665346 0 0 0
1893 1 3.6863335632185215 7.521794481100211 -8.521952334138087 0 4 0.0298415518297304 1 0.307492 0.628735 -0.714242 0 0 0
1874 1 5.696441317200801 7.5599552786647415 -7.2872611811923225 0 4 0.0298415518297304 1 0.477065 0.632533 -0.610173 0 0 0
3694 2 14.083740320173414 7.501343154523946 -8.831543916032572 0 1 1.90985931710274 0 0 0 1 0 0 0
942 1 0.6851437658954603 9.376631494888152 -7.375600354702212 0 4 0.0298415518297304 1 0.056516 0.783847 -0.618377 0 0 0
961 1 2.02877540751461 9.255835233925785 -7.28208785979175 0 4 0.0298415518297304 1 0.167433 0.774346 -0.610208 0 0 0
3781 2 5.185112843006069 9.670168402966473 -7.7749733425356915 0 1 1.90985931710274 0 0 0 1 0 0 0
3665 2 9.942692116954776 9.057141658921024 -7.2227145143160145 0 1 1.90985931710274 0 0 0 1 0 0 0
3702 2 11.962895593874302 9.222776245394352 -7.4083376571336546 0 1 1.90985931710274 0 0 0 1 0 0 0
3779 2 8.831190024505114 12.453667857477742 -8.282861371594992 0 1 1.90985931710274 0 0 0 1 0 0 0
3789 2 9.523268963705496 11.411955206703066 -8.673034620973601 0 1 1.90985931710274 0 0 0 1 0 0 0
3825 2 13.445343206260619 12.170205622205357 -8.051045594590207 0 1 1.90985931710274 0 0 0 1 0 0 0
3756 2 5.144325370976665 12.981382004812522 -7.629233115968541 0 1 1.90985931710274 0 0 0 1 0 0 0
3752 2 10.033493567380456 13.999136963301394 -8.073669793469065 0 1 1.90985931710274 0 0 0 1 0 0 0
4661 2 1.90695908930938 0.7068940227412561 -6.268425787697669 0 1 1.90985931710274 0 0 0 1 0 0 0
4698 2 3.106661118248052 1.5806403950259327 -6.606038799146091 0 1 1.90985931710274 0 0 0 1 0 0 0
4654 2 5.972702703311768 1.1394685609041648 -6.931874883705667 0 1 1.90985931710274 0 0 0 1 0 0 0
4620 2 7.4441020005753735 0.17180567033229543 -6.48903672513021 0 1 1.90985931710274 0 0 0 1 0 0 0
4656 2 8.643817494739658 1.2718620894548796 -6.128594531839231 0 1 1.90985931710274 0 0 0 1 0 0 0
1068 1 10.49556439859258 1.324251409088832 -5.575087225059108 0 4 0.0298415518297304 1 0.87971 0.115671 -0.461227 0 0 0
1088 1 10.631296536123939 0.7031792711430755 -5.432734791968485 0 4 0.0298415518297304 1 0.885665 0.053217 -0.461265 0 0 0
1089 1 10.38410240725975 0.3007226119801671 -5.931148609750038 0 4 0.0298415518297304 1 0.871899 0.031001 -0.488703 0 0 0
930 1 4.422370927131481 11.08496819773124 -0.7106141284784225 0 4 0.0298415518297304 1 0.374801 0.925344 -0.057112 0 0 0
1897 1 10.16733844680462 1.5271061926927691 -6.106168118875939 0 4 0.0298415518297304 1 0.84874 0.134812 -0.511338 0 0 0
1916 1 10.08337967517057 0.4865794786618666 -6.417728021582561 0 4 0.0298415518297304 1 0.840898 0.050161 -0.538863 0 0 0
1917 1 9.928117389224152 1.1377675643454386 -6.570502549743725 0 4 0.0298415518297304 1 0.832448 0.086106 -0.547371 0 0 0
1918 1 9.551761345313452 1.14665875491715 -7.102193318178118 0 4 0.0298415518297304 1 0.796392 0.102459 -0.596039 0 0 0
4693 2 2.749544457008234 2.832992937388374 -5.785499313606422 0 1 1.90985931710274 0 0 0 1 0 0 0
4702 2 5.17014102467553 2.8899938079345433 -5.785404565586273 0 1 1.90985931710274 0 0 0 1 0 0 0
4682 2 6.079155034322951 3.3980387248789414 -6.146754770669774 0 1 1.90985931710274 0 0 0 1 0 0 0
1880 1 10.165746059644487 2.63849077709189 -5.710312428807246 0 4 0.0298415518297304 1 0.849516 0.225565 -0.47691 0 0 0
1881 1 9.931604703079781 3.309267907455417 -5.7687017515614585 0 4 0.0298415518297304 1 0.831166 0.273726 -0.483981 0 0 0
1882 1 9.515722686147727 3.4268197334280326 -6.3671283268970695 0 4 0.0298415518297304 1 0.795275 0.289976 -0.532402 0 0 0
1898 1 9.979208801255677 2.184302998367814 -6.211528291683313 0 4 0.0298415518297304 1 0.835883 0.177101 -0.519552 0 0 0
1899 1 9.581412179409126 2.2559092717178135 -6.783319053141226 0 4 0.0298415518297304 1 0.799826 0.193441 -0.568207 0 0 0
1900 1 9.327338261728201 2.9195443775880694 -6.8797784902812955 0 4 0.0298415518297304 1 0.781589 0.241321 -0.575225 0 0 0
4616 2 0.6976170503075299 5.2365445186410895 -6.083315199219444 0 1 1.90985931710274 0 0 0 1 0 0 0
4658 2 6.038370381116792 4.607541429943357 -6.168750941969894 0 1 1.90985931710274 0 0 0 1 0 0 0
1868 1 8.963339986921262 5.315532000828298 -5.844040723021723 0 4 0.0298415518297304 1 0.749777 0.444447 -0.490205 0 0 0
1884 1 8.709186563023858 4.233482399091309 -6.999619942319504 0 4 0.0298415518297304 1 0.727926 0.356132 -0.585913 0 0 0
1885 1 8.321548324326256 4.917931978313914 -7.021482536804528 0 4 0.0298415518297304 1 0.69676 0.411251 -0.587705 0 0 0
1867 1 9.336112728622068 4.629649181325049 -5.846719577457926 0 4 0.0298415518297304 1 0.781003 0.389231 -0.488399 0 0 0
1883 1 9.207096031147115 4.109775397540957 -6.413209013816228 0 4 0.0298415518297304 1 0.770758 0.342421 -0.53729 0 0 0
3833 2 12.376332154383359 5.35693555595411 -5.727330837416462 0 1 1.90985931710274 0 0 0 1 0 0 0
3656 2 13.089687313226795 4.489163402743058 -5.80681609741635 0 1 1.90985931710274 0 0 0 1 0 0 0
4678 2 1.8987827125163612 6.791997262475668 -5.501803571438262 0 1 1.90985931710274 0 0 0 1 0 0 0
4635 2 5.262861706241345 5.713252798322802 -6.435888588645828 0 1 1.90985931710274 0 0 0 1 0 0 0
4648 2 3.811355280637967 6.17431768230464 -6.613655505920781 0 1 1.90985931710274 0 0 0 1 0 0 0
4676 2 4.03901266307372 5.599464280031956 -5.47327550294014 0 1 1.90985931710274 0 0 0 1 0 0 0
1872 1 6.896660049020172 6.896660049020172 -6.896660049020172 0 4 0.0298415518297304 1 0.57735 0.57735 -0.57735 0 0 0
1856 1 8.09681196872362 6.7008265761372 -5.791491375548912 0 4 0.0298415518297304 1 0.67562 0.556751 -0.483286 0 0 0
1869 1 8.450912740693703 5.46289520267755 -6.439296458190344 0 4 0.0298415518297304 1 0.70702 0.458125 -0.538743 0 0 0
1870 1 8.005714568112634 6.142079176136471 -6.4230465949167215 0 4 0.0298415518297304 1 0.669396 0.513666 -0.536709 0 0 0
1871 1 7.413383296015549 6.256104902255907 -6.971342485334068 0 4 0.0298415518297304 1 0.620434 0.523931 -0.583573 0 0 0
4666 2 7.591177015890612 5.752157854888766 -5.444438440926371 0 1 1.90985931710274 0 0 0 1 0 0 0
3696 2 11.64467587500381 6.13681035418855 -5.948871394910904 0 1 1.90985931710274 0 0 0 1 0 0 0
4685 2 0.2736920986198115 7.768125503160405 -7.17297038310099 0 1 1.90985931710274 0 0 0 1 0 0 0
4644 2 2.0141195646900805 7.93465374617125 -6.68941609982658 0 1 1.90985931710274 0 0 0 1 0 0 0
1861 1 5.182674844411291 8.591918993333321 -6.484890297575802 0 4 0.0298415518297304 1 0.434791 0.718335 -0.543095 0 0 0
1862 1 4.532261116183702 8.599454995390728 -6.947090881314812 0 4 0.0298415518297304 1 0.379189 0.720381 -0.580747 0 0 0
1847 1 6.4734231276250185 8.47503338590496 -5.474119003050511 0 4 0.0298415518297304 1 0.538743 0.70702 -0.458125 0 0 0
1858 1 6.971342485334068 7.413383296015549 -6.256104902255907 0 4 0.0298415518297304 1 0.583573 0.620434 -0.523931 0 0 0
1859 1 6.407584207931539 7.9994657362479495 -6.136607830526459 0 4 0.0298415518297304 1 0.536709 0.669396 -0.513666 0 0 0
1860 1 5.774066719283829 8.070493389834603 -6.651223165669366 0 4 0.0298415518297304 1 0.483286 0.67562 -0.556751 0 0 0
1857 1 7.5599552786647415 7.2872611811923225 -5.696441317200801 0 4 0.0298415518297304 1 0.632533 0.610173 -0.477065 0 0 0
3819 2 13.24989642229092 8.73434985688567 -6.036433993455697 0 1 1.90985931710274 0 0 0 1 0 0 0
921 1 0.7122045543855867 10.64038312370757 -5.383451567067813 0 4 0.0298415518297304 1 0.059223 0.890774 -0.450572 0 0 0
922 1 0.7040841837917592 10.25069844397294 -6.095336996791155 0 4 0.0298415518297304 1 0.059226 0.858483 -0.50941 0 0 0
923 1 0 10.060931286493508 -6.4430651044093965 0 4 0.0298415518297304 1 0 0.841873 -0.539676 0 0 0
924 1 0 9.61605526409717 -7.092140394247476 0 4 0.0298415518297304 1 0 0.806015 -0.591895 0 0 0
940 1 1.3963315588536618 9.992199987587664 -6.399635919207783 0 4 0.0298415518297304 1 0.115646 0.836362 -0.53584 0 0 0
941 1 1.3686009819231013 9.553842441772057 -7.044985182758772 0 4 0.0298415518297304 1 0.115657 0.800437 -0.588153 0 0 0
939 1 2.0830139269438743 10.113173319118141 -6.011561039835598 0 4 0.0298415518297304 1 0.175251 0.846422 -0.502849 0 0 0
958 1 3.383586720413358 9.85282733924287 -5.854617017001387 0 4 0.0298415518297304 1 0.284461 0.823738 -0.490447 0 0 0
959 1 2.737132063013731 9.79413632702012 -6.274706368145702 0 4 0.0298415518297304 1 0.226809 0.820451 -0.524802 0 0 0
960 1 2.6877540399909075 9.37289470523265 -6.909457866036755 0 4 0.0298415518297304 1 0.226831 0.784369 -0.577333 0 0 0
1864 1 3.2975402454766938 8.996025895892759 -7.142375312258343 0 4 0.0298415518297304 1 0.275807 0.7541 -0.59604 0 0 0
1849 1 5.229067623256141 9.030104738562834 -5.819635519704458 0 4 0.0298415518297304 1 0.436819 0.755998 -0.4875 0 0 0
1850 1 4.621672847602975 9.471464327594123 -5.632089492713752 0 4 0.0298415518297304 1 0.388906 0.791512 -0.471446 0 0 0
1851 1 3.9982103829107847 9.472968743546604 -6.089382005172075 0 4 0.0298415518297304 1 0.333291 0.793559 -0.509098 0 0 0
1863 1 3.9404487203291834 9.050444772702892 -6.734332239905998 0 4 0.0298415518297304 1 0.33127 0.755891 -0.564703 0 0 0
3788 2 7.748389618832787 10.32084572261738 -6.958075969730248 0 1 1.90985931710274 0 0 0 1 0 0 0
3815 2 7.567399703173722 10.739297240784824 -5.811440129462921 0 1 1.90985931710274 0 0 0 1 0 0 0
3701 2 12.750195050511268 10.160409942881126 -5.499389996924318 0 1 1.90985931710274 0 0 0 1 0 0 0
3784 2 13.957673820995728 10.184014481339894 -6.725628085887924 0 1 1.90985931710274 0 0 0 1 0 0 0
3800 2 13.951085824316905 9.547669874646305 -5.837902183283888 0 1 1.90985931710274 0 0 0 1 0 0 0
3764 2 2.773935328490298 10.954409936445112 -6.750208166973917 0 1 1.90985931710274 0 0 0 1 0 0 0
3812 2 4.68148816505178 12.072936025270701 -6.898803275345087 0 1 1.90985931710274 0 0 0 1 0 0 0
3826 2 4.01950349485078 11.005392682830218 -5.652504205514161 0 1 1.90985931710274 0 0 0 1 0 0 0
3790 2 5.861521266925836 12.433325222496132 -5.768399507501577 0 1 1.90985931710274 0 0 0 1 0 0 0
3760 2 11.104069699791063 11.586256388410641 -6.711669982394814 0 1 1.90985931710274 0 0 0 1 0 0 0
3775 2 1.4847315886639691 12.633124675319111 -5.766993911673085 0 1 1.90985931710274 0 0 0 1 0 0 0
3747 2 1.860514459226815 14.175150225060326 -6.031461411137494 0 1 1.90985931710274 0 0 0 1 0 0 0
3794 2 5.785178370446417 14.214848082735475 -6.861996363288898 0 1 1.90985931710274 0 0 0 1 0 0 0
3796 2 6.083625321660412 14.193953146554994 -5.722793850239331 0 1 1.90985931710274 0 0 0 1 0 0 0
3771 2 9.82850195021963 12.836307341301977 -6.306112737721838 0 1 1.90985931710274 0 0 0 1 0 0 0
3654 2 11.380815467070272 13.275139050068395 -7.0427415005282334 0 1 1.90985931710274 0 0 0 1 0 0 0
3683 2 12.284177886169866 13.208590856955867 -6.175557142708763 0 1 1.90985931710274 0 0 0 1 0 0 0
3805 2 10.832704771599303 13.064275496498704 -5.5429341399350935 0 1 1.90985931710274 0 0 0 1 0 0 0
3799 2 14.32824671497965 12.66387866298293 -5.5044152459222175 0 1 1.90985931710274 0 0 0 1 0 0 0
4621 2 1.0417726467040556 1.4057771550871259 -3.6704184506807156 0 1 1.90985931710274 0 0 0 1 0 0 0
4650 2 1.6194666324310987 0.17192726944992565 -4.44532035509192 0 1 1.90985931710274 0 0 0 1 0 0 0
4649 2 2.772153929582288 0.14915048949860044 -4.573412997027681 0 1 1.90985931710274 0 0 0 1 0 0 0
4646 2 5.865916146888409 0.19616475351149631 -3.684751732274883 0 1 1.90985931710274 0 0 0 1 0 0 0
4659 2 7.349972477170014 1.216591462773354 -3.601345399084366 0 1 1.90985931710274 0 0 0 1 0 0 0
4700 2 7.532673793875534 1.3885619997837955 -4.6697274028832805 0 1 1.90985931710274 0 0 0 1 0 0 0
1067 1 10.689822936524607 1.745118796613131 -5.061730274197689 0 4 0.0298415518297304 1 0.892995 0.141803 -0.427143 0 0 0
1066 1 10.975640721862607 1.3942285429139425 -4.527409841300541 0 4 0.0298415518297304 1 0.919379 0.119553 -0.374767 0 0 0
1085 1 11.308090336798315 0.3522053557303874 -3.8619611313205353 0 4 0.0298415518297304 1 0.947429 0.030774 -0.318484 0 0 0
1086 1 11.08496819773124 0.7106141284784225 -4.422370927131481 0 4 0.0298415518297304 1 0.925344 0.057112 -0.374801 0 0 0
1087 1 10.876011960372498 0.3282260859712711 -4.959509308734032 0 4 0.0298415518297304 1 0.912063 0.03097 -0.408879 0 0 0
4638 2 1.542627654580721 2.5805257692871226 -4.369614485994083 0 1 1.90985931710274 0 0 0 1 0 0 0
4679 2 0.7857928571228471 2.025406432545882 -4.927855306672587 0 1 1.90985931710274 0 0 0 1 0 0 0
4627 2 3.351501041837169 2.7818201572973162 -4.813606304032112 0 1 1.90985931710274 0 0 0 1 0 0 0
4633 2 5.561995420308294 2.738946176144483 -4.751511207235965 0 1 1.90985931710274 0 0 0 1 0 0 0
1032 1 10.426911840880612 3.566604096775424 -4.627224043334814 0 4 0.0298415518297304 1 0.871859 0.301445 -0.385995 0 0 0
1048 1 10.65540007802271 2.861937509150159 -4.597576101275517 0 4 0.0298415518297304 1 0.891718 0.236303 -0.386006 0 0 0
1049 1 10.517951734564901 2.4208158069392542 -5.140432586494049 0 4 0.0298415518297304 1 0.88029 0.206546 -0.427117 0 0 0
4697 2 9.136274051866145 2.5072297142894637 -3.7626279369876645 0 1 1.90985931710274 0 0 0 1 0 0 0
1047 1 10.967922118238022 2.5293110254501143 -4.017420313103844 0 4 0.0298415518297304 1 0.917967 0.214148 -0.333881 0 0 0
1065 1 11.13171558938183 1.8043773161599217 -3.960234221833683 0 4 0.0298415518297304 1 0.930733 0.149145 -0.333904 0 0 0
4631 2 0.8085703868267533 4.458187397243233 -5.016288533020136 0 1 1.90985931710274 0 0 0 1 0 0 0
4692 2 4.063138939295985 4.490962747616134 -4.265268815596717 0 1 1.90985931710274 0 0 0 1 0 0 0
1017 1 10.206998193417988 4.725745922084348 -4.03736240898212 0 4 0.0298415518297304 1 0.85314 0.397289 -0.338104 0 0 0
1031 1 10.502245767290724 4.018942358833174 -4.045510343949046 0 4 0.0298415518297304 1 0.879824 0.334064 -0.338099 0 0 0
1852 1 9.830129370841252 4.958664267611715 -4.6471478823731145 0 4 0.0298415518297304 1 0.822871 0.415996 -0.38708 0 0 0
1865 1 10.059100048941238 3.7939239923523522 -5.222355621366762 0 4 0.0298415518297304 1 0.841358 0.320296 -0.435348 0 0 0
1866 1 9.765930954750743 4.474010090314408 -5.236891991858055 0 4 0.0298415518297304 1 0.816671 0.373095 -0.440282 0 0 0
1843 1 8.599454995390728 6.947090881314812 -4.532261116183702 0 4 0.0298415518297304 1 0.720381 0.580747 -0.379189 0 0 0
1855 1 8.591918993333321 6.484890297575802 -5.182674844411291 0 4 0.0298415518297304 1 0.718335 0.543095 -0.434791 0 0 0
1841 1 9.472968743546604 6.089382005172075 -3.9982103829107847 0 4 0.0298415518297304 1 0.793559 0.509098 -0.333291 0 0 0
1842 1 9.050444772702892 6.734332239905998 -3.9404487203291834 0 4 0.0298415518297304 1 0.755891 0.564703 -0.33127 0 0 0
1853 1 9.471464327594123 5.632089492713752 -4.621672847602975 0 4 0.0298415518297304 1 0.791512 0.471446 -0.388906 0 0 0
1854 1 9.030104738562834 5.819635519704458 -5.229067623256141 0 4 0.0298415518297304 1 0.755998 0.4875 -0.436819 0 0 0
1836 1 6.999619942319504 8.709186563023858 -4.233482399091309 0 4 0.0298415518297304 1 0.585913 0.727926 -0.356132 0 0 0
1846 1 7.021482536804528 8.321548324326256 -4.917931978313914 0 4 0.0298415518297304 1 0.587705 0.69676 -0.411251 0 0 0
1848 1 5.844588223867107 8.966168197637842 -5.315827990433624 0 4 0.0298415518297304 1 0.490205 0.749777 -0.444447 0 0 0
4629 2 5.602584792817886 7.857985931293674 -5.1892093780741195 0 1 1.90985931710274 0 0 0 1 0 0 0
1834 1 8.061162762905834 7.967511654140036 -3.7838070843487692 0 4 0.0298415518297304 1 0.675536 0.665346 -0.317751 0 0 0
1835 1 7.521794481100211 8.521952334138087 -3.6863335632185215 0 4 0.0298415518297304 1 0.628735 0.714242 -0.307492 0 0 0
1844 1 8.103352022611611 7.567008598743931 -4.452551263255395 0 4 0.0298415518297304 1 0.677324 0.634131 -0.372974 0 0 0
1845 1 7.578527615711209 7.746829429466787 -5.027747336910463 0 4 0.0298415518297304 1 0.634573 0.647794 -0.421521 0 0 0
3816 2 13.521927289436638 7.7696615615517945 -5.275834998955656 0 1 1.90985931710274 0 0 0 1 0 0 0
920 1 1.4192693658356634 10.76190507047654 -4.98783925556015 0 4 0.0298415518297304 1 0.118869 0.900842 -0.417556 0 0 0
937 1 2.7798204017072834 10.54382301778774 -4.884105722525149 0 4 0.0298415518297304 1 0.232881 0.882039 -0.409603 0 0 0
938 1 2.1070288296765565 10.492772653721886 -5.310097654165997 0 4 0.0298415518297304 1 0.17524 0.878746 -0.443955 0 0 0
957 1 3.4159862229906763 10.212053028830212 -5.170564507495139 0 4 0.0298415518297304 1 0.284445 0.856072 -0.431545 0 0 0
4687 2 2.0538712535133095 9.971448743434708 -3.942258676800749 0 1 1.90985931710274 0 0 0 1 0 0 0
955 1 4.045510343949046 10.502245767290724 -4.018942358833174 0 4 0.0298415518297304 1 0.338099 0.879824 -0.334064 0 0 0
956 1 4.03736240898212 10.206998193417988 -4.725745922084348 0 4 0.0298415518297304 1 0.338104 0.85314 -0.397289 0 0 0
1831 1 5.222355621366762 10.059100048941238 -3.7939239923523522 0 4 0.0298415518297304 1 0.435348 0.841358 -0.320296 0 0 0
1839 1 5.236891991858055 9.765930954750743 -4.474010090314408 0 4 0.0298415518297304 1 0.440282 0.816671 -0.373095 0 0 0
1840 1 4.6471478823731145 9.830129370841252 -4.958664267611715 0 4 0.0298415518297304 1 0.38708 0.822871 -0.415996 0 0 0
1837 1 6.413209013816228 9.207096031147115 -4.109775397540957 0 4 0.0298415518297304 1 0.53729 0.770758 -0.342421 0 0 0
1838 1 5.846719577457926 9.336112728622068 -4.629649181325049 0 4 0.0298415518297304 1 0.488399 0.781003 -0.389231 0 0 0
3693 2 9.380866790428689 9.118804734938871 -4.0907798824108905 0 1 1.90985931710274 0 0 0 1 0 0 0
903 1 0.7152375895268429 11.279869072120212 -3.86648581940601 0 4 0.0298415518297304 1 0.059642 0.944241 -0.323807 0 0 0
904 1 0 11.159030532552128 -4.262370524096592 0 4 0.0298415518297304 1 0 0.934172 -0.356822 0 0 0
905 1 6.912004533151225e-19 10.837827437084997 -5.0237641903669115 0 4 0.0298415518297304 1 0 0.90738 -0.420311 0 0 0
919 1 1.423347517251903 11.07989365716363 -4.2327990080513676 0 4 0.0298415518297304 1 0.118867 0.927636 -0.354065 0 0 0
918 1 2.115633286578001 11.123083633229703 -3.8114019686846525 0 4 0.0298415518297304 1 0.176449 0.930931 -0.319741 0 0 0
935 1 3.4315134233143305 10.828792332517375 -3.7071227937142512 0 4 0.0298415518297304 1 0.286305 0.905904 -0.312038 0 0 0
936 1 2.787820095153561 10.852187900093165 -4.148160133050597 0 4 0.0298415518297304 1 0.232877 0.908815 -0.346156 0 0 0
3674 2 10.61223514681579 11.237996532934426 -4.8918849711003265 0 1 1.90985931710274 0 0 0 1 0 0 0
3675 2 13.357532744516904 11.792293776402703 -4.252725471212813 0 1 1.90985931710274 0 0 0 1 0 0 0
3707 2 0.3150561790437525 14.147905188367117 -4.721289113828501 0 1 1.90985931710274 0 0 0 1 0 0 0
3766 2 1.4437610296586776 12.867195473354217 -3.7889693357237633 0 1 1.90985931710274 0 0 0 1 0 0 0
3777 2 3.470797691014946 13.073784888241503 -4.473047325053438 0 1 1.90985931710274 0 0 0 1 0 0 0
3736 2 8.264006265119146 13.9816990702868 -4.9116450359558375 0 1 1.90985931710274 0 0 0 1 0 0 0
3773 2 7.215738230948622 12.790297553520931 -4.6630779737408155 0 1 1.90985931710274 0 0 0 1 0 0 0
3661 2 10.251963399899722 13.247158887585796 -4.635724551879795 0 1 1.90985931710274 0 0 0 1 0 0 0
3719 2 13.187555140406568 13.391376813214114 -5.109048310388543 0 1 1.90985931710274 0 0 0 1 0 0 0
4695 2 0.647787437499729 0.04644938493788871 -3.1003689508519563 0 1 1.90985931710274 0 0 0 1 0 0 0
4665 2 3.0411755829572016 1.1738367617081344 -3.3273959713961805 0 1 1.90985931710274 0 0 0 1 0 0 0
4671 2 4.162578572368943 1.5424158048395338 -3.2721200619655555 0 1 1.90985931710274 0 0 0 1 0 0 0
4643 2 6.651443907442321 0.058180383097317545 -2.7829992833811836 0 1 1.90985931710274 0 0 0 1 0 0 0
4674 2 6.3882406237174685 1.1525208195169352 -2.820766378884036 0 1 1.90985931710274 0 0 0 1 0 0 0
4630 2 10.092462543194546 0.5547874707215161 -3.5423995834798134 0 1 1.90985931710274 0 0 0 1 0 0 0
4653 2 10.49948674336759 0.9832117790989461 -2.2060266840296823 0 1 1.90985931710274 0 0 0 1 0 0 0
1062 1 11.674634439008784 1.4926796990507116 -2.0629124085374824 0 4 0.0298415518297304 1 0.977384 0.124901 -0.170648 0 0 0
1064 1 11.379342313562363 1.4521994712227135 -3.3517287379160643 0 4 0.0298415518297304 1 0.9529 0.122693 -0.277359 0 0 0
1082 1 11.756097880475448 0.7363147481133524 -2.0167350080379154 0 4 0.0298415518297304 1 0.983303 0.063153 -0.170666 0 0 0
1083 1 11.648741412035173 0.3678117563873662 -2.6502621255199252 0 4 0.0298415518297304 1 0.97535 0.030501 -0.218543 0 0 0
1084 1 11.472097285570149 0.7237953884855253 -3.276131940429869 0 4 0.0298415518297304 1 0.958848 0.060552 -0.277386 0 0 0
3673 2 13.852776374068357 0.33799096688770014 -2.2024315184201164 0 1 1.90985931710274 0 0 0 1 0 0 0
3820 2 13.149240351608329 0.8587894811723817 -2.975471935773637 0 1 1.90985931710274 0 0 0 1 0 0 0
4639 2 0.618202223144656 3.478884928479085 -3.42916720924884 0 1 1.90985931710274 0 0 0 1 0 0 0
4686 2 2.9417011563649655 3.5376090259722215 -2.5040084848337063 0 1 1.90985931710274 0 0 0 1 0 0 0
4684 2 3.5919756484307204 2.3678511751312907 -2.375091568388253 0 1 1.90985931710274 0 0 0 1 0 0 0
4683 2 7.375987082056184 3.408114118337119 -2.4253231080478983 0 1 1.90985931710274 0 0 0 1 0 0 0
1044 1 11.360997099847129 3.039448746477639 -2.103550570471817 0 4 0.0298415518297304 1 0.950927 0.254167 -0.176454 0 0 0
1045 1 11.325622741883521 2.616436136241011 -2.7661375647652378 0 4 0.0298415518297304 1 0.948027 0.220102 -0.229781 0 0 0
1046 1 11.06193314522361 2.963422670948167 -3.412019013526081 0 4 0.0298415518297304 1 0.925869 0.246557 -0.286314 0 0 0
1063 1 11.48537574342067 1.8548371467004798 -2.726875306230269 0 4 0.0298415518297304 1 0.960798 0.155112 -0.229798 0 0 0
4622 2 1.2550237751687223 4.29782072447407 -3.042693607103404 0 1 1.90985931710274 0 0 0 1 0 0 0
4670 2 4.4573754742101315 5.255299049706434 -1.804425583980711 0 1 1.90985931710274 0 0 0 1 0 0 0
4691 2 4.212511504779748 3.6499808332389847 -3.359705752405169 0 1 1.90985931710274 0 0 0 1 0 0 0
4641 2 5.708231650218817 4.843987227669221 -2.542176563395005 0 1 1.90985931710274 0 0 0 1 0 0 0
4696 2 8.439100747010553 4.728715006350935 -2.5985822598280635 0 1 1.90985931710274 0 0 0 1 0 0 0
1014 1 10.492772653721886 5.310097654165997 -2.1070288296765565 0 4 0.0298415518297304 1 0.878746 0.443955 -0.17524 0 0 0
1015 1 10.54382301778774 4.884105722525149 -2.7798204017072834 0 4 0.0298415518297304 1 0.882039 0.409603 -0.232881 0 0 0
1016 1 10.215155116265121 5.172463522025751 -3.4183554655301926 0 4 0.0298415518297304 1 0.856072 0.431545 -0.284445 0 0 0
1028 1 11.123083633229703 3.8114019686846525 -2.115633286578001 0 4 0.0298415518297304 1 0.930931 0.319741 -0.176449 0 0 0
1029 1 10.852187900093165 4.148160133050597 -2.787820095153561 0 4 0.0298415518297304 1 0.908815 0.346156 -0.232877 0 0 0
1030 1 10.828792332517375 3.7071227937142512 -3.4315134233143305 0 4 0.0298415518297304 1 0.905904 0.312038 -0.286305 0 0 0
3724 2 14.22700813080917 4.511540509716648 -2.829001192306327 0 1 1.90985931710274 0 0 0 1 0 0 0
4657 2 4.191368550085805 7.064011292158412 -2.0194046935859777 0 1 1.90985931710274 0 0 0 1 0 0 0
4689 2 7.001856122589455 5.712092360947434 -2.021781556499784 0 1 1.90985931710274 0 0 0 1 0 0 0
4703 2 7.909796215757158 6.04647423057385 -2.6965287452819258 0 1 1.90985931710274 0 0 0 1 0 0 0
993 1 9.37289470523265 6.909457866036755 -2.6877540399909075 0 4 0.0298415518297304 1 0.784369 0.577333 -0.226831 0 0 0
1002 1 10.113173319118141 6.011561039835598 -2.0830139269438743 0 4 0.0298415518297304 1 0.846422 0.502849 -0.175251 0 0 0
1003 1 9.79413632702012 6.274706368145702 -2.737132063013731 0 4 0.0298415518297304 1 0.820451 0.524802 -0.226809 0 0 0
1004 1 9.85282733924287 5.854617017001387 -3.383586720413358 0 4 0.0298415518297304 1 0.823738 0.490447 -0.284461 0 0 0
1832 1 8.996025895892759 7.142375312258343 -3.2975402454766938 0 4 0.0298415518297304 1 0.7541 0.59604 -0.275807 0 0 0
3684 2 11.749280405067635 6.629047971685944 -3.237647874329486 0 1 1.90985931710274 0 0 0 1 0 0 0
4667 2 1.1517055218243168 7.3941033012851385 -3.041103300646027 0 1 1.90985931710274 0 0 0 1 0 0 0
4640 2 3.5012107725607287 7.607574428134409 -2.8685743449961194 0 1 1.90985931710274 0 0 0 1 0 0 0
984 1 8.788959806380333 7.8548174342616175 -1.976962086269973 0 4 0.0298415518297304 1 0.736792 0.655055 -0.167452 0 0 0
1820 1 7.778922635537865 8.887274502417357 -1.848351927259901 0 4 0.0298415518297304 1 0.652682 0.740883 -0.158426 0 0 0
1825 1 8.421148108100308 8.08213718829916 -2.572094274093865 0 4 0.0298415518297304 1 0.706291 0.673906 -0.216805 0 0 0
1826 1 7.906844018523753 8.610159610496206 -2.492570003313927 0 4 0.0298415518297304 1 0.659732 0.722546 -0.206595 0 0 0
1827 1 7.444239992366906 8.850031126127387 -3.015399555322699 0 4 0.0298415518297304 1 0.623858 0.738752 -0.255043 0 0 0
1833 1 8.519520450007567 7.737155463213315 -3.2201579666754445 0 4 0.0298415518297304 1 0.711194 0.649239 -0.269616 0 0 0
992 1 9.255835233925785 7.28208785979175 -2.02877540751461 0 4 0.0298415518297304 1 0.774346 0.610208 -0.167433 0 0 0
3700 2 10.804549641526922 8.33897823076709 -3.320536100288106 0 1 1.90985931710274 0 0 0 1 0 0 0
3746 2 12.222651996633495 7.665257557168421 -3.193851617555369 0 1 1.90985931710274 0 0 0 1 0 0 0
3822 2 11.235519835252576 7.50664586418505 -2.7598770918456923 0 1 1.90985931710274 0 0 0 1 0 0 0
4663 2 2.1040871259663674 9.589697171506602 -2.9055369046505253 0 1 1.90985931710274 0 0 0 1 0 0 0
4673 2 3.3154573304931674 10.229387576583527 -2.1980135682079425 0 1 1.90985931710274 0 0 0 1 0 0 0
952 1 5.140432586494049 10.517951734564901 -2.4208158069392542 0 4 0.0298415518297304 1 0.427117 0.88029 -0.206546 0 0 0
953 1 4.597576101275517 10.65540007802271 -2.861937509150159 0 4 0.0298415518297304 1 0.386006 0.891718 -0.236303 0 0 0
954 1 4.627224043334814 10.426911840880612 -3.566604096775424 0 4 0.0298415518297304 1 0.385995 0.871859 -0.301445 0 0 0
1822 1 6.783319053141226 9.581412179409126 -2.2559092717178135 0 4 0.0298415518297304 1 0.568207 0.799826 -0.193441 0 0 0
1823 1 6.211528291683313 9.979208801255677 -2.184302998367814 0 4 0.0298415518297304 1 0.519552 0.835883 -0.177101 0 0 0
1824 1 5.710312428807246 10.165746059644487 -2.63849077709189 0 4 0.0298415518297304 1 0.47691 0.849516 -0.225565 0 0 0
1828 1 6.8797784902812955 9.327338261728201 -2.9195443775880694 0 4 0.0298415518297304 1 0.575225 0.781589 -0.241321 0 0 0
1829 1 6.3671283268970695 9.515722686147727 -3.4268197334280326 0 4 0.0298415518297304 1 0.532402 0.795275 -0.289976 0 0 0
1830 1 5.7687017515614585 9.931604703079781 -3.309267907455417 0 4 0.0298415518297304 1 0.483981 0.831166 -0.273726 0 0 0
3770 2 7.244769431514596 12.79908746581222 -0.43649209404211753 0 1 1.90985931710274 0 0 0 1 0 0 0
888 1 1.382400906630245e-19 11.639062436059561 -2.691412527142975 0 4 0.0298415518297304 1 0 0.974307 -0.225222 0 0 0
900 1 1.3914885773027972 11.715167821109105 -1.8888478978032397 0 4 0.0298415518297304 1 0.117231 0.980288 -0.159038 0 0 0
901 1 1.4115491063592356 11.558231437056955 -2.672170851459992 0 4 0.0298415518297304 1 0.117222 0.967535 -0.22391 0 0 0
902 1 0.7111428724090038 11.52006018579294 -3.0804279528325313 0 4 0.0298415518297304 1 0.059644 0.964238 -0.258241 0 0 0
915 1 2.726875306230269 11.48537574342067 -1.8548371467004798 0 4 0.0298415518297304 1 0.229798 0.960798 -0.155112 0 0 0
916 1 2.7661375647652378 11.325622741883521 -2.616436136241011 0 4 0.0298415518297304 1 0.229781 0.948027 -0.220102 0 0 0
917 1 2.103550570471817 11.360997099847129 -3.039448746477639 0 4 0.0298415518297304 1 0.176454 0.950927 -0.254167 0 0 0
934 1 3.4121069578807517 11.062746617667395 -2.964171546982531 0 4 0.0298415518297304 1 0.286314 0.925869 -0.246557 0 0 0
932 1 3.960234221833683 11.13171558938183 -1.8043773161599217 0 4 0.0298415518297304 1 0.333904 0.930733 -0.149145 0 0 0
933 1 4.03105094764306 10.982288137401788 -2.5358554937980244 0 4 0.0298415518297304 1 0.333881 0.917967 -0.214148 0 0 0
3768 2 10.719489167207614 12.382589675235687 -3.185385530290513 0 1 1.90985931710274 0 0 0 1 0 0 0
3829 2 9.686735602474053 12.360102781388742 -2.2709251994319484 0 1 1.90985931710274 0 0 0 1 0 0 0
3714 2 12.761228612391529 11.698195783596733 -3.338303618298729 0 1 1.90985931710274 0 0 0 1 0 0 0
3785 2 6.7290941048627015 13.574260427442491 -2.4012019740573276 0 1 1.90985931710274 0 0 0 1 0 0 0
3814 2 8.468925499297868 13.839028373581922 -2.720937223336603 0 1 1.90985931710274 0 0 0 1 0 0 0
3664 2 12.531754298998164 12.56673126213708 -2.298423262085267 0 1 1.90985931710274 0 0 0 1 0 0 0
3705 2 11.611733769776047 12.976168209064708 -3.416753032973056 0 1 1.90985931710274 0 0 0 1 0 0 0
4634 2 0.8752687836591839 1.3319769599253561 -0.31624253453662554 0 1 1.90985931710274 0 0 0 1 0 0 0
4618 2 5.261179811576405 1.363227164669917 -1.2807673927042789 0 1 1.90985931710274 0 0 0 1 0 0 0
4681 2 6.551072767139025 0.5434978718411075 -0.7629530392887901 0 1 1.90985931710274 0 0 0 1 0 0 0
4651 2 9.120481914985103 0.1821431545796255 -0.16998498026490694 0 1 1.90985931710274 0 0 0 1 0 0 0
1060 1 11.83119651802187 1.5137182198694838 -0.6968056081181138 0 4 0.0298415518297304 1 0.99035 0.126041 -0.05763 0 0 0
1080 1 11.906795768543468 0.7436907815813953 -0.6812230974745015 0 4 0.0298415518297304 1 0.996248 0.064561 -0.057636 0 0 0
1081 1 11.86812127662825 0.37686877902933724 -1.3496076122842269 0 4 0.0298415518297304 1 0.993329 0.030269 -0.111273 0 0 0
4632 2 5.247031980330991 2.7564074229984517 -1.409027665004528 0 1 1.90985931710274 0 0 0 1 0 0 0
1042 1 11.52006018579294 3.0804279528325313 -0.7111428724090038 0 4 0.0298415518297304 1 0.964238 0.258241 -0.059644 0 0 0
1043 1 11.558231437056955 2.672170851459992 -1.4115491063592356 0 4 0.0298415518297304 1 0.967535 0.22391 -0.117222 0 0 0
1061 1 11.715167821109105 1.8888478978032397 -1.3914885773027972 0 4 0.0298415518297304 1 0.980288 0.159038 -0.117231 0 0 0
4690 2 0.8350724319762458 4.977840451081303 -1.586573196458478 0 1 1.90985931710274 0 0 0 1 0 0 0
4694 2 0.3303803086284205 3.823751117855336 -0.747048205373888 0 1 1.90985931710274 0 0 0 1 0 0 0
4701 2 1.7227937421340809 5.191281821168886 -0.9877850946523307 0 1 1.90985931710274 0 0 0 1 0 0 0
4664 2 5.7537917366907045 5.209864560711143 -0.05938612778268215 0 1 1.90985931710274 0 0 0 1 0 0 0
4668 2 5.374319770033394 4.130134600350858 -0.6715655378588123 0 1 1.90985931710274 0 0 0 1 0 0 0
1013 1 10.76190507047654 4.98783925556015 -1.4192693658356634 0 4 0.0298415518297304 1 0.900842 0.417556 -0.118869 0 0 0
1026 1 11.279869072120212 3.86648581940601 -0.7152375895268429 0 4 0.0298415518297304 1 0.944241 0.323807 -0.059642 0 0 0
1027 1 11.07989365716363 4.2327990080513676 -1.423347517251903 0 4 0.0298415518297304 1 0.927636 0.354065 -0.118867 0 0 0
4645 2 2.748346118753828 6.610099895597774 -1.2008646882433318 0 1 1.90985931710274 0 0 0 1 0 0 0
4636 2 3.65511697423366 6.902476641819389 -0.592302142736748 0 1 1.90985931710274 0 0 0 1 0 0 0
4652 2 6.329129261004221 6.704477299631642 -1.4799862304516864 0 1 1.90985931710274 0 0 0 1 0 0 0
4660 2 7.414285204334368 6.811695646016495 -1.3571602612629796 0 1 1.90985931710274 0 0 0 1 0 0 0
991 1 9.553842441772057 7.044985182758772 -1.3686009819231013 0 4 0.0298415518297304 1 0.800437 0.588153 -0.115657 0 0 0
1000 1 10.25069844397294 6.095336996791155 -0.7040841837917592 0 4 0.0298415518297304 1 0.858483 0.50941 -0.059226 0 0 0
1001 1 9.992199987587664 6.399635919207783 -1.3963315588536618 0 4 0.0298415518297304 1 0.836362 0.53584 -0.115646 0 0 0
1012 1 10.64038312370757 5.383451567067813 -0.7122045543855867 0 4 0.0298415518297304 1 0.890774 0.450572 -0.059223 0 0 0
3811 2 12.13687291349253 5.747999068945203 -1.2620522380043404 0 1 1.90985931710274 0 0 0 1 0 0 0
4688 2 1.9376165926957978 8.107790426805026 -0.14949908448660096 0 1 1.90985931710274 0 0 0 1 0 0 0
976 1 7.9566467609051275 8.9006657194245 -0.6393586009192921 0 4 0.0298415518297304 1 0.661356 0.748244 -0.052342 0 0 0
977 1 8.131128066779423 8.669599745290057 -1.2784715515496379 0 4 0.0298415518297304 1 0.683456 0.721864 -0.108633 0 0 0
982 1 8.896439356475284 7.952522696613374 -0.6656915704953396 0 4 0.0298415518297304 1 0.74655 0.662924 -0.056523 0 0 0
983 1 8.630639292972145 8.162830137834208 -1.321444919037123 0 4 0.0298415518297304 1 0.720284 0.685123 -0.10862 0 0 0
990 1 9.376631494888152 7.375600354702212 -0.6851437658954603 0 4 0.0298415518297304 1 0.783847 0.618377 -0.056516 0 0 0
3742 2 13.496308344150309 7.708458134214505 -0.682454256843247 0 1 1.90985931710274 0 0 0 1 0 0 0
4655 2 0.021962234039293094 10.355597498417229 -1.687950101637366 0 1 1.90985931710274 0 0 0 1 0 0 0
4628 2 2.7627986828676736 10.338564956981422 -0.9429380132344019 0 1 1.90985931710274 0 0 0 1 0 0 0
951 1 5.061730274197689 10.689822936524607 -1.745118796613131 0 4 0.0298415518297304 1 0.427143 0.892995 -0.141803 0 0 0
4669 2 4.658262718458072 9.18871512478734 -1.0660436991609874 0 1 1.90985931710274 0 0 0 1 0 0 0
948 1 5.931148609750038 10.38410240725975 -0.3007226119801671 0 4 0.0298415518297304 1 0.488703 0.871899 -0.031001 0 0 0
949 1 5.432734791968485 10.631296536123939 -0.7031792711430755 0 4 0.0298415518297304 1 0.461265 0.885665 -0.053217 0 0 0
950 1 5.575087225059108 10.49556439859258 -1.324251409088832 0 4 0.0298415518297304 1 0.461227 0.87971 -0.115671 0 0 0
1816 1 6.417728021582561 10.08337967517057 -0.48657947866186657 0 4 0.0298415518297304 1 0.538863 0.840898 -0.050161 0 0 0
1817 1 7.102193318178118 9.551761345313452 -1.14665875491715 0 4 0.0298415518297304 1 0.596039 0.796392 -0.102459 0 0 0
1818 1 6.570502549743725 9.928117389224152 -1.1377675643454386 0 4 0.0298415518297304 1 0.547371 0.832448 -0.086106 0 0 0
1819 1 6.106168118875939 10.16733844680462 -1.5271061926927691 0 4 0.0298415518297304 1 0.511338 0.84874 -0.134812 0 0 0
972 1 7.430419130501573 9.348906162508925 -0.6155775977841709 0 4 0.0298415518297304 1 0.627009 0.777251 -0.052348 0 0 0
1821 1 7.246032847391109 9.33984966043232 -1.7891570029506303 0 4 0.0298415518297304 1 0.604243 0.783541 -0.144752 0 0 0
3720 2 8.805421017129197 9.870370890379201 -0.999765396774869 0 1 1.90985931710274 0 0 0 1 0 0 0
3753 2 9.848794252654978 9.475906372226296 -0.8122079926481636 0 1 1.90985931710274 0 0 0 1 0 0 0
3755 2 11.836613253422636 10.676436274222985 -0.37522713429829757 0 1 1.90985931710274 0 0 0 1 0 0 0
3706 2 13.807265969078331 10.374152299552284 -0.7683514247809029 0 1 1.90985931710274 0 0 0 1 0 0 0
3725 2 4.532982014043304 13.125234025820584 -0.8002120334830298 0 1 1.90985931710274 0 0 0 1 0 0 0
884 1 1.3496076122842269 11.86812127662825 -0.3768687790293372 0 4 0.0298415518297304 1 0.111273 0.993329 -0.030269 0 0 0
885 1 0.6812230974745015 11.906795768543468 -0.7436907815813955 0 4 0.0298415518297304 1 0.057636 0.996248 -0.064561 0 0 0
886 1 0.6968056081181138 11.83119651802187 -1.5137182198694838 0 4 0.0298415518297304 1 0.05763 0.99035 -0.126041 0 0 0
897 1 2.6502621255199252 11.648741412035173 -0.3678117563873662 0 4 0.0298415518297304 1 0.218543 0.97535 -0.030501 0 0 0
898 1 2.0167350080379154 11.756097880475448 -0.7363147481133524 0 4 0.0298415518297304 1 0.170666 0.983303 -0.063153 0 0 0
899 1 2.0629124085374824 11.674634439008784 -1.4926796990507116 0 4 0.0298415518297304 1 0.170648 0.977384 -0.124901 0 0 0
913 1 3.276131940429869 11.472097285570149 -0.7237953884855253 0 4 0.0298415518297304 1 0.277386 0.958848 -0.060552 0 0 0
914 1 3.3517287379160643 11.379342313562363 -1.4521994712227135 0 4 0.0298415518297304 1 0.277359 0.9529 -0.122693 0 0 0
912 1 3.8619611313205353 11.308090336798315 -0.3522053557303874 0 4 0.0298415518297304 1 0.318484 0.947429 -0.030774 0 0 0
929 1 4.959509308734032 10.876011960372498 -0.32822608597127106 0 4 0.0298415518297304 1 0.408879 0.912063 -0.03097 0 0 0
1041 1 11.639062436059561 2.691412527142975 -5.52960362652098e-19 0 4 0.0298415518297304 1 0.974307 0.225222 0 0 0 0
1059 1 11.794987974137706 1.9008536977816826 -1.382400906630245e-18 0 4 0.0298415518297304 1 0.98705 0.160411 0 0 0 0
1025 1 11.159030532552128 4.262370524096592 -5.52960362652098e-19 0 4 0.0298415518297304 1 0.934172 0.356822 0 0 0 0
989 1 9.59688775514488 7.083061529388979 -0.0008519849321535474 0 4 0.0298415518297304 1 0.806015 0.591895 0 0 0 0
999 1 10.060931286493508 6.4430651044093965 -9.676806346411715e-19 0 4 0.0298415518297304 1 0.841873 0.539676 0 0 0 0
981 1 8.684155977676964 8.21217122543628 -5.52960362652098e-19 0 4 0.0298415518297304 1 0.724369 0.689412 0 0 0 0
4751 2 1.7575730920124766 1.3221274536721577 1.5661518679563429 0 1 1.90985931710274 0 0 0 1 0 0 0
4716 2 3.4367329128301307 0.2191959360131932 0.7190845737398863 0 1 1.90985931710274 0 0 0 1 0 0 0
4774 2 1.8884397820363397 0.38141068477021633 0.45847493303742937 0 1 1.90985931710274 0 0 0 1 0 0 0
4745 2 6.097922095534521 0.954929648658668 0.8077670062486124 0 1 1.90985931710274 0 0 0 1 0 0 0
1058 1 11.83119651802187 1.5137182198694838 0.6968056081181138 0 4 0.0298415518297304 1 0.99035 0.126041 0.05763 0 0 0
1077 1 11.86812127662825 0.3768687790293372 1.3496076122842269 0 4 0.0298415518297304 1 0.993329 0.030269 0.111273 0 0 0
1078 1 11.906795768543468 0.7436907815813953 0.6812230974745015 0 4 0.0298415518297304 1 0.996248 0.064561 0.057636 0 0 0
1079 1 11.94399904357446 0.37985787396102 1.105920725304196e-18 0 4 0.0298415518297304 1 0.999545 0.030178 0 0 0 0
4707 2 1.1016229906456019 2.7722317806385472 1.4575931920602105 0 1 1.90985931710274 0 0 0 1 0 0 0
4730 2 2.7879451643266275 2.4590748376336897 0.09601210945560368 0 1 1.90985931710274 0 0 0 1 0 0 0
4755 2 2.497673536114764 3.049731480865116 1.467344900012261 0 1 1.90985931710274 0 0 0 1 0 0 0
4720 2 5.081304385341577 3.026804085987235 1.6864390532813018 0 1 1.90985931710274 0 0 0 1 0 0 0
4731 2 5.2854032067129175 1.8870032240047756 0.15475784825997962 0 1 1.90985931710274 0 0 0 1 0 0 0
1039 1 11.558231437056955 2.672170851459992 1.4115491063592356 0 4 0.0298415518297304 1 0.967535 0.22391 0.117222 0 0 0
1040 1 11.52006018579294 3.0804279528325313 0.7111428724090038 0 4 0.0298415518297304 1 0.964238 0.258241 0.059644 0 0 0
3912 2 5.074254193655724 12.039958771788973 12.874377457257845 0 1 1.90985931710274 0 0 0 1 0 0 0
1057 1 11.715167821109105 1.8888478978032397 1.3914885773027972 0 4 0.0298415518297304 1 0.980288 0.159038 0.117231 0 0 0
3922 2 3.2436264212189396 12.251755426721006 13.605100899946146 0 1 1.90985931710274 0 0 0 1 0 0 0
3975 2 13.120279183581497 2.0270364541989547 0.20310772181049153 0 1 1.90985931710274 0 0 0 1 0 0 0
4024 2 13.128841703960395 2.4318464623713023 1.685637074465772 0 1 1.90985931710274 0 0 0 1 0 0 0
4734 2 3.301803177293806 4.6250407770044895 0.9318391144718774 0 1 1.90985931710274 0 0 0 1 0 0 0
4743 2 5.466921357059773 3.9151124535207154 1.159356456896558 0 1 1.90985931710274 0 0 0 1 0 0 0
4772 2 6.0164278229603925 3.870348846263604 0.17333678711649142 0 1 1.90985931710274 0 0 0 1 0 0 0
4704 2 8.066247658615499 4.592294350693546 0.666946106426499 0 1 1.90985931710274 0 0 0 1 0 0 0
1009 1 10.76190507047654 4.98783925556015 1.4192693658356634 0 4 0.0298415518297304 1 0.900842 0.417556 0.118869 0 0 0
1011 1 10.837827437084997 5.0237641903669115 1.105920725304196e-18 0 4 0.0298415518297304 1 0.90738 0.420311 0 0 0 0
1023 1 11.07989365716363 4.2327990080513676 1.423347517251903 0 4 0.0298415518297304 1 0.927636 0.354065 0.118867 0 0 0
1024 1 11.279869072120212 3.86648581940601 0.7152375895268429 0 4 0.0298415518297304 1 0.944241 0.323807 0.059642 0 0 0
3867 2 1.3360938058848841 11.473087507262962 14.232242568605278 0 1 1.90985931710274 0 0 0 1 0 0 0
4771 2 1.494648969478634 7.108330027388874 1.4006603248051253 0 1 1.90985931710274 0 0 0 1 0 0 0
4754 2 3.1038633601386576 6.702081153737732 0.3494920712803352 0 1 1.90985931710274 0 0 0 1 0 0 0
4750 2 4.867332186681363 7.135301553673873 0.2771205967675545 0 1 1.90985931710274 0 0 0 1 0 0 0
4723 2 7.286519044403626 6.526219291736684 0.15492821844704885 0 1 1.90985931710274 0 0 0 1 0 0 0
4769 2 7.558356444629826 7.040006893491032 1.1374929037986057 0 1 1.90985931710274 0 0 0 1 0 0 0
987 1 9.553842441772057 7.044985182758772 1.3686009819231013 0 4 0.0298415518297304 1 0.800437 0.588153 0.115657 0 0 0
3974 2 10.04256191105747 9.761887409225423 12.64539182885507 0 1 1.90985931710274 0 0 0 1 0 0 0
997 1 9.992199987587664 6.399635919207783 1.3963315588536618 0 4 0.0298415518297304 1 0.836362 0.53584 0.115646 0 0 0
998 1 10.25069844397294 6.095336996791155 0.7040841837917592 0 4 0.0298415518297304 1 0.858483 0.50941 0.059226 0 0 0
3896 2 5.560802212110167 9.640714935592461 13.820292502497866 0 1 1.90985931710274 0 0 0 1 0 0 0
1010 1 10.64038312370757 5.383451567067813 0.7122045543855867 0 4 0.0298415518297304 1 0.890774 0.450572 0.059223 0 0 0
3951 2 13.883860209645528 6.1443235123417725 1.1090599281694775 0 1 1.90985931710274 0 0 0 1 0 0 0
4726 2 1.2710023061705182 8.929230819395775 0.12176798137228635 0 1 1.90985931710274 0 0 0 1 0 0 0
4739 2 2.4026557873499232 8.564153990155006 1.7517085351906925 0 1 1.90985931710274 0 0 0 1 0 0 0
4728 2 4.518724412003468 7.891042542278559 1.7819980757209901 0 1 1.90985931710274 0 0 0 1 0 0 0
973 1 8.131128066779423 8.669599745290057 1.2784715515496379 0 4 0.0298415518297304 1 0.683456 0.721864 0.108633 0 0 0
974 1 7.9566467609051275 8.9006657194245 0.6393586009192921 0 4 0.0298415518297304 1 0.661356 0.748244 0.052342 0 0 0
975 1 8.177547707543587 8.719731403206659 2.211841450608392e-18 0 4 0.0298415518297304 1 0.68776 0.725938 0 0 0 0
979 1 8.630639292972145 8.162830137834208 1.321444919037123 0 4 0.0298415518297304 1 0.720284 0.685123 0.10862 0 0 0
980 1 8.896439356475284 7.952522696613374 0.6656915704953396 0 4 0.0298415518297304 1 0.74655 0.662924 0.056523 0 0 0
3878 2 1.9064353550197506 7.282075712633738 13.13312659629367 0 1 1.90985931710274 0 0 0 1 0 0 0
988 1 9.376631494888152 7.375600354702212 0.6851437658954604 0 4 0.0298415518297304 1 0.783847 0.618377 0.056516 0 0 0
4014 2 10.585075048563228 7.548519105884876 0.042972915265235834 0 1 1.90985931710274 0 0 0 1 0 0 0
4766 2 1.2486468487907008 10.291681625302918 0.36898046612070523 0 1 1.90985931710274 0 0 0 1 0 0 0
4768 2 0.6025084753103833 9.224450541609102 1.5996568241725306 0 1 1.90985931710274 0 0 0 1 0 0 0
4711 2 2.170133363248647 9.78681581354606 1.4161844999396993 0 1 1.90985931710274 0 0 0 1 0 0 0
4737 2 3.122007239821613 9.66529598831891 0.8531874446018796 0 1 1.90985931710274 0 0 0 1 0 0 0
325 1 5.061730274197689 10.689822936524607 1.745118796613131 0 4 0.0298415518297304 1 0.427143 0.892995 0.141803 0 0 0
324 1 5.575087225059108 10.49556439859258 1.324251409088832 0 4 0.0298415518297304 1 0.461227 0.87971 0.115671 0 0 0
343 1 5.931148609750038 10.38410240725975 0.3007226119801671 0 4 0.0298415518297304 1 0.488703 0.871899 0.031001 0 0 0
344 1 5.432734791968485 10.631296536123939 0.7031792711430755 0 4 0.0298415518297304 1 0.461265 0.885665 0.053217 0 0 0
463 1 6.106168118875939 10.16733844680462 1.5271061926927691 0 4 0.0298415518297304 1 0.511338 0.84874 0.134812 0 0 0
482 1 7.102193318178118 9.551761345313452 1.14665875491715 0 4 0.0298415518297304 1 0.596039 0.796392 0.102459 0 0 0
483 1 6.570502549743725 9.928117389224152 1.1377675643454386 0 4 0.0298415518297304 1 0.547371 0.832448 0.086106 0 0 0
484 1 6.417728021582561 10.08337967517057 0.4865794786618666 0 4 0.0298415518297304 1 0.538863 0.840898 0.050161 0 0 0
969 1 6.718450883615759 9.897522950485259 0 0 4 0.0298415518297304 1 0.569865 0.821739 0 0 0 0
481 1 7.246032847391109 9.33984966043232 1.7891570029506303 0 4 0.0298415518297304 1 0.604243 0.783541 0.144752 0 0 0
970 1 7.430419130501573 9.348906162508925 0.6155775977841709 0 4 0.0298415518297304 1 0.627009 0.777251 0.052348 0 0 0
971 1 7.2736816536149265 9.493528896893935 2.211841450608392e-18 0 4 0.0298415518297304 1 0.600588 0.799559 0 0 0 0
3847 2 8.590273706148986 10.227359246025072 0.37488194337827885 0 1 1.90985931710274 0 0 0 1 0 0 0
3879 2 9.63359563348436 8.970557971624979 1.3210471010109437 0 1 1.90985931710274 0 0 0 1 0 0 0
3936 2 12.471854706467797 10.372569604262695 1.3323828431148286 0 1 1.90985931710274 0 0 0 1 0 0 0
3991 2 11.698217970062496 9.455522840380228 1.0149002704771881 0 1 1.90985931710274 0 0 0 1 0 0 0
3907 2 14.345140514708406 9.58703070418075 1.2833291658640178 0 1 1.90985931710274 0 0 0 1 0 0 0
332 1 0.6968056081181138 11.83119651802187 1.5137182198694838 0 4 0.0298415518297304 1 0.05763 0.99035 0.126041 0 0 0
351 1 1.3496076122842269 11.86812127662825 0.3768687790293372 0 4 0.0298415518297304 1 0.111273 0.993329 0.030269 0 0 0
352 1 0.6812230974745015 11.906795768543468 0.7436907815813955 0 4 0.0298415518297304 1 0.057636 0.996248 0.064561 0 0 0
353 1 0 11.94399904357446 0.37985787396102 0 4 0.0298415518297304 1 0 0.999545 0.030178 0 0 0
328 1 3.3517287379160643 11.379342313562363 1.4521994712227135 0 4 0.0298415518297304 1 0.277359 0.9529 0.122693 0 0 0
330 1 2.0629124085374824 11.674634439008784 1.4926796990507116 0 4 0.0298415518297304 1 0.170648 0.977384 0.124901 0 0 0
348 1 3.276131940429869 11.472097285570149 0.7237953884855253 0 4 0.0298415518297304 1 0.277386 0.958848 0.060552 0 0 0
349 1 2.6502621255199252 11.648741412035173 0.3678117563873662 0 4 0.0298415518297304 1 0.218543 0.97535 0.030501 0 0 0
350 1 2.0167350080379154 11.756097880475448 0.7363147481133524 0 4 0.0298415518297304 1 0.170666 0.983303 0.063153 0 0 0
326 1 4.527409841300541 10.975640721862607 1.3942285429139425 0 4 0.0298415518297304 1 0.374767 0.919379 0.119553 0 0 0
345 1 4.959509308734032 10.876011960372498 0.32822608597127106 0 4 0.0298415518297304 1 0.408879 0.912063 0.03097 0 0 0
346 1 4.422370927131481 11.08496819773124 0.7106141284784225 0 4 0.0298415518297304 1 0.374801 0.925344 0.057112 0 0 0
347 1 3.8619611313205353 11.308090336798315 0.3522053557303874 0 4 0.0298415518297304 1 0.318484 0.947429 0.030774 0 0 0
4015 2 8.484515082906563 12.210006410602217 0.7556429914499319 0 1 1.90985931710274 0 0 0 1 0 0 0
3994 2 9.258039339569612 11.236606146462718 0.4409835988638573 0 1 1.90985931710274 0 0 0 1 0 0 0
3964 2 13.088364326391511 10.954817662145787 0.10243768424592403 0 1 1.90985931710274 0 0 0 1 0 0 0
3978 2 1.1970227764057828 13.332037158143413 1.690702147881743 0 1 1.90985931710274 0 0 0 1 0 0 0
3947 2 2.9636237399200898 13.226106836988931 1.2045792729551579 0 1 1.90985931710274 0 0 0 1 0 0 0
3968 2 5.9845802127487335 14.206259667955239 0.20525332368089444 0 1 1.90985931710274 0 0 0 1 0 0 0
3981 2 6.119449584968001 13.569372557160206 1.5516441915498067 0 1 1.90985931710274 0 0 0 1 0 0 0
3971 2 8.650272680732991 14.091835079323813 0.04449019528411924 0 1 1.90985931710274 0 0 0 1 0 0 0
4023 2 11.421846208618264 14.052556247183352 0.010320410618737341 0 1 1.90985931710274 0 0 0 1 0 0 0
4046 2 13.92358539230309 13.680306438030167 0.4462699730048332 0 1 1.90985931710274 0 0 0 1 0 0 0
4706 2 0.4478613401522313 0.8486332034679481 2.0208106842591373 0 1 1.90985931710274 0 0 0 1 0 0 0
4735 2 8.569830379080436 1.484465204870574 3.372844259741786 0 1 1.90985931710274 0 0 0 1 0 0 0
1054 1 11.379342313562363 1.4521994712227135 3.3517287379160643 0 4 0.0298415518297304 1 0.9529 0.122693 0.277359 0 0 0
1056 1 11.674634439008784 1.4926796990507116 2.0629124085374824 0 4 0.0298415518297304 1 0.977384 0.124901 0.170648 0 0 0
1074 1 11.472097285570149 0.7237953884855253 3.276131940429869 0 4 0.0298415518297304 1 0.958848 0.060552 0.277386 0 0 0
1075 1 11.648741412035173 0.3678117563873662 2.6502621255199252 0 4 0.0298415518297304 1 0.97535 0.030501 0.218543 0 0 0
1076 1 11.756097880475448 0.7363147481133524 2.0167350080379154 0 4 0.0298415518297304 1 0.983303 0.063153 0.170666 0 0 0
4710 2 7.852683756473148 2.860491044208418 1.9412000108757308 0 1 1.90985931710274 0 0 0 1 0 0 0
4725 2 7.724600470029127 2.7467157795308683 3.1265665752721663 0 1 1.90985931710274 0 0 0 1 0 0 0
4714 2 9.241450042135487 2.3987423233910463 3.000483469169289 0 1 1.90985931710274 0 0 0 1 0 0 0
4733 2 10.303216408085213 2.3861663813584317 2.5379037553403117 0 1 1.90985931710274 0 0 0 1 0 0 0
4764 2 9.797731115333049 3.3373853827118722 2.8334687112269776 0 1 1.90985931710274 0 0 0 1 0 0 0
1036 1 11.06193314522361 2.963422670948167 3.412019013526081 0 4 0.0298415518297304 1 0.925869 0.246557 0.286314 0 0 0
1037 1 11.343115576746849 2.6203838586097254 2.769999442966829 0 4 0.0298415518297304 1 0.948027 0.220102 0.229781 0 0 0
1038 1 11.360997099847129 3.039448746477639 2.103550570471817 0 4 0.0298415518297304 1 0.950927 0.254167 0.176454 0 0 0
1055 1 11.48537574342067 1.8548371467004798 2.726875306230269 0 4 0.0298415518297304 1 0.960798 0.155112 0.229798 0 0 0
1006 1 10.215155116265121 5.172463522025751 3.4183554655301926 0 4 0.0298415518297304 1 0.856072 0.431545 0.284445 0 0 0
1007 1 10.54382301778774 4.884105722525149 2.7798204017072834 0 4 0.0298415518297304 1 0.882039 0.409603 0.232881 0 0 0
1008 1 10.492772653721886 5.310097654165997 2.1070288296765565 0 4 0.0298415518297304 1 0.878746 0.443955 0.17524 0 0 0
1020 1 10.828792332517375 3.7071227937142512 3.4315134233143305 0 4 0.0298415518297304 1 0.905904 0.312038 0.286305 0 0 0
1021 1 10.852187900093165 4.148160133050597 2.787820095153561 0 4 0.0298415518297304 1 0.908815 0.346156 0.232877 0 0 0
1022 1 11.123083633229703 3.8114019686846525 2.115633286578001 0 4 0.0298415518297304 1 0.930931 0.319741 0.176449 0 0 0
4002 2 12.550093228191058 5.0770802070848315 2.1345784747615486 0 1 1.90985931710274 0 0 0 1 0 0 0
3995 2 14.085291781485141 4.875659420790841 3.584515231665824 0 1 1.90985931710274 0 0 0 1 0 0 0
4744 2 3.4270911319060193 5.592829944439863 2.61133620076674 0 1 1.90985931710274 0 0 0 1 0 0 0
4760 2 2.310012651725872 6.153543556735034 2.999286045706837 0 1 1.90985931710274 0 0 0 1 0 0 0
4738 2 5.718233985112075 5.530183778616937 2.0906592148954957 0 1 1.90985931710274 0 0 0 1 0 0 0
4780 2 8.043532947896868 5.507399302659909 1.8332198050813258 0 1 1.90985931710274 0 0 0 1 0 0 0
476 1 8.996025895892759 7.142375312258343 3.2975402454766938 0 4 0.0298415518297304 1 0.7541 0.59604 0.275807 0 0 0
985 1 9.37289470523265 6.909457866036755 2.6877540399909075 0 4 0.0298415518297304 1 0.784369 0.577333 0.226831 0 0 0
994 1 9.85282733924287 5.854617017001387 3.383586720413358 0 4 0.0298415518297304 1 0.823738 0.490447 0.284461 0 0 0
995 1 9.784439712220523 6.2666232577218235 2.730451967886338 0 4 0.0298415518297304 1 0.820451 0.524802 0.226809 0 0 0
996 1 10.113173319118141 6.011561039835598 2.0830139269438743 0 4 0.0298415518297304 1 0.846422 0.502849 0.175251 0 0 0
3862 2 10.527749610647641 6.886838328496361 3.238998239293584 0 1 1.90985931710274 0 0 0 1 0 0 0
4060 2 14.088797885713229 6.400565182214686 2.5987054822555553 0 1 1.90985931710274 0 0 0 1 0 0 0
4746 2 0.5725647761247199 8.229836328159394 3.505593374941027 0 1 1.90985931710274 0 0 0 1 0 0 0
4753 2 5.788139299725401 8.467484484773614 3.422635590102619 0 1 1.90985931710274 0 0 0 1 0 0 0
459 1 7.444239992366906 8.850031126127387 3.015399555322699 0 4 0.0298415518297304 1 0.623858 0.738752 0.255043 0 0 0
477 1 8.519520450007567 7.737155463213315 3.2201579666754445 0 4 0.0298415518297304 1 0.711194 0.649239 0.269616 0 0 0
478 1 8.421148108100308 8.08213718829916 2.572094274093865 0 4 0.0298415518297304 1 0.706291 0.673906 0.216805 0 0 0
479 1 7.906844018523753 8.610159610496206 2.492570003313927 0 4 0.0298415518297304 1 0.659732 0.722546 0.206595 0 0 0
480 1 7.778922635537865 8.887274502417357 1.848351927259901 0 4 0.0298415518297304 1 0.652682 0.740883 0.158426 0 0 0
978 1 8.788959806380333 7.8548174342616175 1.976962086269973 0 4 0.0298415518297304 1 0.736792 0.655055 0.167452 0 0 0
986 1 9.255835233925785 7.28208785979175 2.02877540751461 0 4 0.0298415518297304 1 0.774346 0.610208 0.167433 0 0 0
3888 2 9.891426694506047 8.47200656307186 2.8869715487632615 0 1 1.90985931710274 0 0 0 1 0 0 0
3989 2 12.43414416215945 7.9955194138442085 2.1726804795797054 0 1 1.90985931710274 0 0 0 1 0 0 0
4013 2 11.320703438049518 7.510557298276568 2.5251001342309234 0 1 1.90985931710274 0 0 0 1 0 0 0
3990 2 13.580006249789191 8.065552206918502 2.468979679276364 0 1 1.90985931710274 0 0 0 1 0 0 0
4781 2 0.09024237722509376 9.896220022157966 2.932500408913935 0 1 1.90985931710274 0 0 0 1 0 0 0
292 1 4.635369187277603 10.463351438461956 3.589140735961019 0 4 0.0298415518297304 1 0.385995 0.871859 0.301445 0 0 0
307 1 5.140432586494049 10.517951734564901 2.4208158069392542 0 4 0.0298415518297304 1 0.427117 0.88029 0.206546 0 0 0
308 1 4.597890351353941 10.65738024099542 2.8615716765722206 0 4 0.0298415518297304 1 0.386006 0.891718 0.236303 0 0 0
4762 2 4.429250146028316 9.537615851879087 3.026005357168255 0 1 1.90985931710274 0 0 0 1 0 0 0
442 1 6.3671283268970695 9.515722686147727 3.4268197334280326 0 4 0.0298415518297304 1 0.532402 0.795275 0.289976 0 0 0
443 1 5.7687017515614585 9.931604703079781 3.309267907455417 0 4 0.0298415518297304 1 0.483981 0.831166 0.273726 0 0 0
444 1 5.710312428807246 10.165746059644487 2.63849077709189 0 4 0.0298415518297304 1 0.47691 0.849516 0.225565 0 0 0
460 1 6.8797784902812955 9.327338261728201 2.9195443775880694 0 4 0.0298415518297304 1 0.575225 0.781589 0.241321 0 0 0
461 1 6.783319053141226 9.581412179409126 2.2559092717178135 0 4 0.0298415518297304 1 0.568207 0.799826 0.193441 0 0 0
462 1 6.211528291683313 9.979208801255677 2.184302998367814 0 4 0.0298415518297304 1 0.519552 0.835883 0.177101 0 0 0
3876 2 11.05097740371494 8.997950237030237 2.4853477671869815 0 1 1.90985931710274 0 0 0 1 0 0 0
3939 2 11.520686004578367 10.589554948635593 3.166127718427754 0 1 1.90985931710274 0 0 0 1 0 0 0
3963 2 12.794559274097361 9.561471754327284 2.2304689786396796 0 1 1.90985931710274 0 0 0 1 0 0 0
3993 2 14.140244711149316 10.034540286540823 2.890251891607539 0 1 1.90985931710274 0 0 0 1 0 0 0
313 1 1.4115491063592356 11.558231437056955 2.672170851459992 0 4 0.0298415518297304 1 0.117222 0.967535 0.22391 0 0 0
314 1 0.7111428724090038 11.52006018579294 3.0804279528325313 0 4 0.0298415518297304 1 0.059644 0.964238 0.258241 0 0 0
315 1 0 11.639062436059561 2.691412527142975 0 4 0.0298415518297304 1 0 0.974307 0.225222 0 0 0
331 1 1.3914885773027972 11.715167821109105 1.8888478978032397 0 4 0.0298415518297304 1 0.117231 0.980288 0.159038 0 0 0
4066 2 13.556443521330946 13.862091009168646 13.383593097438409 0 1 1.90985931710274 0 0 0 1 0 0 0
310 1 3.4006436604853976 11.04538019414761 2.9557783160684834 0 4 0.0298415518297304 1 0.286314 0.925869 0.246557 0 0 0
311 1 2.7661375647652378 11.325622741883521 2.616436136241011 0 4 0.0298415518297304 1 0.229781 0.948027 0.220102 0 0 0
312 1 2.103550570471817 11.360997099847129 3.039448746477639 0 4 0.0298415518297304 1 0.176454 0.950927 0.254167 0 0 0
329 1 2.726875306230269 11.48537574342067 1.8548371467004798 0 4 0.0298415518297304 1 0.229798 0.960798 0.155112 0 0 0
309 1 4.017420313103844 10.967922118238022 2.5293110254501143 0 4 0.0298415518297304 1 0.333881 0.917967 0.214148 0 0 0
327 1 3.960234221833683 11.13171558938183 1.8043773161599217 0 4 0.0298415518297304 1 0.333904 0.930733 0.149145 0 0 0
4045 2 3.982856654414636 11.877483823113504 3.3703451742711263 0 1 1.90985931710274 0 0 0 1 0 0 0
4058 2 4.015092838871481 12.175100232924137 2.3140302709353793 0 1 1.90985931710274 0 0 0 1 0 0 0
4000 2 14.126650580038044 11.166730699396682 2.7891987600158945 0 1 1.90985931710274 0 0 0 1 0 0 0
3917 2 1.3979879750025987 13.823625713281672 2.8435363994454668 0 1 1.90985931710274 0 0 0 1 0 0 0
4008 2 2.1615962797777377 13.293014273672524 2.2700551081047156 0 1 1.90985931710274 0 0 0 1 0 0 0
3996 2 8.320651624694074 13.461888233252468 3.2315342742323967 0 1 1.90985931710274 0 0 0 1 0 0 0
3902 2 9.312863136716006 14.225156785888048 2.0970804204035414 0 1 1.90985931710274 0 0 0 1 0 0 0
4032 2 10.617524153859476 14.027055916168946 1.9426670514486215 0 1 1.90985931710274 0 0 0 1 0 0 0
4017 2 12.934787431964674 12.886413030248553 3.4884753874074743 0 1 1.90985931710274 0 0 0 1 0 0 0
4757 2 2.868749101933494 0.07658167351569589 4.813028809491955 0 1 1.90985931710274 0 0 0 1 0 0 0
4724 2 6.907641676440321 0.8100439324631576 5.306490908318146 0 1 1.90985931710274 0 0 0 1 0 0 0
4759 2 5.97271349553974 1.3208535364094853 4.073002434236834 0 1 1.90985931710274 0 0 0 1 0 0 0
1051 1 10.689822936524607 1.745118796613131 5.061730274197689 0 4 0.0298415518297304 1 0.892995 0.141803 0.427143 0 0 0
1052 1 10.975640721862607 1.3942285429139425 4.527409841300541 0 4 0.0298415518297304 1 0.919379 0.119553 0.374767 0 0 0
1071 1 10.876011960372498 0.3282260859712711 4.959509308734032 0 4 0.0298415518297304 1 0.912063 0.03097 0.408879 0 0 0
1072 1 11.08496819773124 0.7106141284784225 4.422370927131481 0 4 0.0298415518297304 1 0.925344 0.057112 0.374801 0 0 0
1073 1 11.308090336798315 0.3522053557303874 3.8619611313205353 0 4 0.0298415518297304 1 0.947429 0.030774 0.318484 0 0 0
3914 2 14.281439344786731 0.9019458305681542 4.825942358976535 0 1 1.90985931710274 0 0 0 1 0 0 0
4709 2 3.0655061096116185 3.498172242493654 4.374155590815647 0 1 1.90985931710274 0 0 0 1 0 0 0
4782 2 3.1506711000889607 1.8732851452873749 4.45859095724774 0 1 1.90985931710274 0 0 0 1 0 0 0
4727 2 4.324921803212522 3.4412045928567814 3.621988143893141 0 1 1.90985931710274 0 0 0 1 0 0 0
4777 2 4.191200217946616 2.1730550786100915 4.707298087488056 0 1 1.90985931710274 0 0 0 1 0 0 0
1018 1 10.426911840880612 3.566604096775424 4.627224043334814 0 4 0.0298415518297304 1 0.871859 0.301445 0.385995 0 0 0
1033 1 10.517951734564901 2.4208158069392542 5.140432586494049 0 4 0.0298415518297304 1 0.88029 0.206546 0.427117 0 0 0
1034 1 10.65540007802271 2.861937509150159 4.597576101275517 0 4 0.0298415518297304 1 0.891718 0.236303 0.386006 0 0 0
1035 1 10.967922118238022 2.5293110254501143 4.017420313103844 0 4 0.0298415518297304 1 0.917967 0.214148 0.333881 0 0 0
1053 1 11.13171558938183 1.8043773161599217 3.960234221833683 0 4 0.0298415518297304 1 0.930733 0.149145 0.333904 0 0 0
3988 2 14.183439640414864 3.3874256936288374 5.115332112554033 0 1 1.90985931710274 0 0 0 1 0 0 0
4722 2 6.916412360846085 4.713468740137905 4.2507794977653255 0 1 1.90985931710274 0 0 0 1 0 0 0
470 1 10.059100048941238 3.7939239923523522 5.222355621366762 0 4 0.0298415518297304 1 0.841358 0.320296 0.435348 0 0 0
471 1 9.765930954750743 4.474010090314408 5.236891991858055 0 4 0.0298415518297304 1 0.816671 0.373095 0.440282 0 0 0
472 1 9.830129370841252 4.958664267611715 4.6471478823731145 0 4 0.0298415518297304 1 0.822871 0.415996 0.38708 0 0 0
1005 1 10.183936710058665 4.714298619077543 4.035430834481727 0 4 0.0298415518297304 1 0.85314 0.397289 0.338104 0 0 0
1019 1 10.502245767290724 4.018942358833174 4.045510343949046 0 4 0.0298415518297304 1 0.879824 0.334064 0.338099 0 0 0
4021 2 11.157489072653428 5.203060568968802 4.120332597742644 0 1 1.90985931710274 0 0 0 1 0 0 0
4775 2 1.241305516460363 6.493799149337644 5.373888917732842 0 1 1.90985931710274 0 0 0 1 0 0 0
4748 2 6.19495588594426 5.406541065189533 4.856860640464905 0 1 1.90985931710274 0 0 0 1 0 0 0
454 1 8.591918993333321 6.484890297575802 5.182674844411291 0 4 0.0298415518297304 1 0.718335 0.543095 0.434791 0 0 0
455 1 8.599454995390728 6.947090881314812 4.532261116183702 0 4 0.0298415518297304 1 0.720381 0.580747 0.379189 0 0 0
4778 2 7.314923018986317 5.5602601030355 5.314305717630418 0 1 1.90985931710274 0 0 0 1 0 0 0
453 1 9.030104738562834 5.819635519704458 5.229067623256141 0 4 0.0298415518297304 1 0.755998 0.4875 0.436819 0 0 0
473 1 9.471464327594123 5.632089492713752 4.621672847602975 0 4 0.0298415518297304 1 0.791512 0.471446 0.388906 0 0 0
474 1 9.472968743546604 6.089382005172075 3.9982103829107847 0 4 0.0298415518297304 1 0.793559 0.509098 0.333291 0 0 0
475 1 9.050444772702892 6.734332239905998 3.9404487203291834 0 4 0.0298415518297304 1 0.755891 0.564703 0.33127 0 0 0
4055 2 11.974723247740696 7.1024967779140145 3.8134004008424025 0 1 1.90985931710274 0 0 0 1 0 0 0
4062 2 13.03177931780567 7.06668035985461 4.569836076435964 0 1 1.90985931710274 0 0 0 1 0 0 0
424 1 5.844040723021723 8.963339986921262 5.315532000828298 0 4 0.0298415518297304 1 0.490205 0.749777 0.444447 0 0 0
439 1 7.021482536804528 8.321548324326256 4.917931978313914 0 4 0.0298415518297304 1 0.587705 0.69676 0.411251 0 0 0
440 1 6.999619942319504 8.709186563023858 4.233482399091309 0 4 0.0298415518297304 1 0.585913 0.727926 0.356132 0 0 0
438 1 7.578527615711209 7.746829429466787 5.027747336910463 0 4 0.0298415518297304 1 0.634573 0.647794 0.421521 0 0 0
456 1 8.103352022611611 7.567008598743931 4.452551263255395 0 4 0.0298415518297304 1 0.677324 0.634131 0.372974 0 0 0
457 1 8.061162762905834 7.967511654140036 3.7838070843487692 0 4 0.0298415518297304 1 0.675536 0.665346 0.317751 0 0 0
458 1 7.521794481100211 8.521952334138087 3.6863335632185215 0 4 0.0298415518297304 1 0.628735 0.714242 0.307492 0 0 0
4035 2 10.540347119608748 8.461871264224756 4.749567825453413 0 1 1.90985931710274 0 0 0 1 0 0 0
283 1 1.4192693658356634 10.76190507047654 4.98783925556015 0 4 0.0298415518297304 1 0.118869 0.900842 0.417556 0 0 0
280 1 3.4183554655301926 10.215155116265121 5.172463522025751 0 4 0.0298415518297304 1 0.284445 0.856072 0.431545 0 0 0
281 1 2.7798204017072834 10.54382301778774 4.884105722525149 0 4 0.0298415518297304 1 0.232881 0.882039 0.409603 0 0 0
282 1 2.1070288296765565 10.492772653721886 5.310097654165997 0 4 0.0298415518297304 1 0.17524 0.878746 0.443955 0 0 0
279 1 4.03736240898212 10.206998193417988 4.725745922084348 0 4 0.0298415518297304 1 0.338104 0.85314 0.397289 0 0 0
293 1 4.045510343949046 10.502245767290724 4.018942358833174 0 4 0.0298415518297304 1 0.338099 0.879824 0.334064 0 0 0
412 1 4.6471478823731145 9.830129370841252 4.958664267611715 0 4 0.0298415518297304 1 0.38708 0.822871 0.415996 0 0 0
426 1 5.236891991858055 9.765930954750743 4.474010090314408 0 4 0.0298415518297304 1 0.440282 0.816671 0.373095 0 0 0
427 1 5.208015724024479 10.039000096255819 3.78108937973862 0 4 0.0298415518297304 1 0.435348 0.841358 0.320296 0 0 0
425 1 5.846719577457926 9.336112728622068 4.629649181325049 0 4 0.0298415518297304 1 0.488399 0.781003 0.389231 0 0 0
441 1 6.413209013816228 9.207096031147115 4.109775397540957 0 4 0.0298415518297304 1 0.53729 0.770758 0.342421 0 0 0
3956 2 11.078377113418734 10.287367228611243 4.390755269177829 0 1 1.90985931710274 0 0 0 1 0 0 0
3952 2 12.960206744419489 9.592387458350563 5.211014497891712 0 1 1.90985931710274 0 0 0 1 0 0 0
285 1 0 10.837827437084997 5.0237641903669115 0 4 0.0298415518297304 1 0 0.90738 0.420311 0 0 0
297 1 1.423347517251903 11.07989365716363 4.2327990080513676 0 4 0.0298415518297304 1 0.118867 0.927636 0.354065 0 0 0
298 1 0.7152375895268429 11.279869072120212 3.86648581940601 0 4 0.0298415518297304 1 0.059642 0.944241 0.323807 0 0 0
299 1 0 11.159030532552128 4.262370524096592 0 4 0.0298415518297304 1 0 0.934172 0.356822 0 0 0
294 1 3.4315134233143305 10.828792332517375 3.7071227937142512 0 4 0.0298415518297304 1 0.286305 0.905904 0.312038 0 0 0
295 1 2.787820095153561 10.852187900093165 4.148160133050597 0 4 0.0298415518297304 1 0.232877 0.908815 0.346156 0 0 0
296 1 2.115633286578001 11.123083633229703 3.8114019686846525 0 4 0.0298415518297304 1 0.176449 0.930931 0.319741 0 0 0
3908 2 2.085789972245296 11.836289526673964 5.235560809305193 0 1 1.90985931710274 0 0 0 1 0 0 0
3873 2 5.108400081721873 11.908019499528356 5.355266573097113 0 1 1.90985931710274 0 0 0 1 0 0 0
3864 2 6.93216449157814 11.148063953768672 4.769238990053546 0 1 1.90985931710274 0 0 0 1 0 0 0
3941 2 6.804171392518173 12.550098052951865 5.158169961970282 0 1 1.90985931710274 0 0 0 1 0 0 0
3948 2 5.766472610180219 10.830012619848212 4.290011617684653 0 1 1.90985931710274 0 0 0 1 0 0 0
3855 2 10.747146511828559 11.306882302610523 4.827485975040082 0 1 1.90985931710274 0 0 0 1 0 0 0
3887 2 9.893506926390854 12.396319861718693 4.640820905336346 0 1 1.90985931710274 0 0 0 1 0 0 0
3934 2 11.361959927616331 12.082121447663278 3.97512087672221 0 1 1.90985931710274 0 0 0 1 0 0 0
3903 2 2.38298113790181 12.737854715690409 3.664060608683384 0 1 1.90985931710274 0 0 0 1 0 0 0
4009 2 11.611348566044748 13.197243514042066 4.017308505029833 0 1 1.90985931710274 0 0 0 1 0 0 0
3870 2 12.735062849806626 14.143358699983162 4.969162616983619 0 1 1.90985931710274 0 0 0 1 0 0 0
4712 2 3.100976409617468 1.708054440823373 6.177386918432102 0 1 1.90985931710274 0 0 0 1 0 0 0
4770 2 2.012311794111284 1.469031628347933 7.074081643704112 0 1 1.90985931710274 0 0 0 1 0 0 0
4708 2 4.811444082828785 0.6094821034028914 6.842327892385317 0 1 1.90985931710274 0 0 0 1 0 0 0
445 1 9.551761345313452 1.14665875491715 7.102193318178118 0 4 0.0298415518297304 1 0.796392 0.102459 0.596039 0 0 0
464 1 10.08337967517057 0.4865794786618666 6.417728021582561 0 4 0.0298415518297304 1 0.840898 0.050161 0.538863 0 0 0
465 1 9.928117389224152 1.1377675643454386 6.570502549743725 0 4 0.0298415518297304 1 0.832448 0.086106 0.547371 0 0 0
466 1 10.16733844680462 1.5271061926927691 6.106168118875939 0 4 0.0298415518297304 1 0.84874 0.134812 0.511338 0 0 0
605 1 9.897522950485259 0 6.718450883615759 0 4 0.0298415518297304 1 0.821739 0 0.569865 0 0 0
1050 1 10.49556439859258 1.324251409088832 5.575087225059108 0 4 0.0298415518297304 1 0.87971 0.115671 0.461227 0 0 0
1069 1 10.38410240725975 0.3007226119801671 5.931148609750038 0 4 0.0298415518297304 1 0.871899 0.031001 0.488703 0 0 0
1070 1 10.631296536123939 0.7031792711430755 5.432734791968485 0 4 0.0298415518297304 1 0.885665 0.053217 0.461265 0 0 0
4715 2 1.2909139915076544 3.148209269149852 6.2706506015957295 0 1 1.90985931710274 0 0 0 1 0 0 0
4719 2 4.600922842762358 2.180544307004812 6.67867182988843 0 1 1.90985931710274 0 0 0 1 0 0 0
447 1 9.581412179409126 2.2559092717178135 6.783319053141226 0 4 0.0298415518297304 1 0.799826 0.193441 0.568207 0 0 0
448 1 9.327338261728201 2.9195443775880694 6.8797784902812955 0 4 0.0298415518297304 1 0.781589 0.241321 0.575225 0 0 0
449 1 9.515722686147727 3.4268197334280326 6.3671283268970695 0 4 0.0298415518297304 1 0.795275 0.289976 0.532402 0 0 0
467 1 9.979208801255677 2.184302998367814 6.211528291683313 0 4 0.0298415518297304 1 0.835883 0.177101 0.519552 0 0 0
468 1 10.165746059644487 2.63849077709189 5.710312428807246 0 4 0.0298415518297304 1 0.849516 0.225565 0.47691 0 0 0
469 1 9.931604703079781 3.309267907455417 5.7687017515614585 0 4 0.0298415518297304 1 0.831166 0.273726 0.483981 0 0 0
4057 2 11.228237084290695 3.2876256737022036 5.518747912926679 0 1 1.90985931710274 0 0 0 1 0 0 0
3940 2 13.837573245370356 3.1288529395657125 6.227147280915306 0 1 1.90985931710274 0 0 0 1 0 0 0
4705 2 1.4376127129023377 5.203085749596621 5.5970254703978455 0 1 1.90985931710274 0 0 0 1 0 0 0
4721 2 0.9480631075341073 4.9897003257341765 6.8649066143490245 0 1 1.90985931710274 0 0 0 1 0 0 0
4729 2 3.2661766851258687 3.7900369104739102 6.64014033502302 0 1 1.90985931710274 0 0 0 1 0 0 0
4741 2 2.3867614528591155 4.5214322031625755 5.565732553378499 0 1 1.90985931710274 0 0 0 1 0 0 0
4749 2 4.0303766420615545 3.95932712853352 5.709053262868359 0 1 1.90985931710274 0 0 0 1 0 0 0
4761 2 5.44205414429511 3.7857311679132444 6.0262591179106515 0 1 1.90985931710274 0 0 0 1 0 0 0
4765 2 6.759819449587656 3.7899892197410203 5.838602187330771 0 1 1.90985931710274 0 0 0 1 0 0 0
4767 2 6.446828109924077 5.211703493987425 6.929987446659716 0 1 1.90985931710274 0 0 0 1 0 0 0
432 1 8.709186563023858 4.233482399091309 6.999619942319504 0 4 0.0298415518297304 1 0.727926 0.356132 0.585913 0 0 0
433 1 8.321548324326256 4.917931978313914 7.021482536804528 0 4 0.0298415518297304 1 0.69676 0.411251 0.587705 0 0 0
452 1 8.963339986921262 5.315532000828298 5.844040723021723 0 4 0.0298415518297304 1 0.749777 0.444447 0.490205 0 0 0
450 1 9.207096031147115 4.109775397540957 6.413209013816228 0 4 0.0298415518297304 1 0.770758 0.342421 0.53729 0 0 0
451 1 9.336112728622068 4.629649181325049 5.846719577457926 0 4 0.0298415518297304 1 0.781003 0.389231 0.488399 0 0 0
3859 2 11.419560408019697 4.336199587063435 6.428793775133149 0 1 1.90985931710274 0 0 0 1 0 0 0
4758 2 4.1115971900463855 5.731131109624322 7.033953455973528 0 1 1.90985931710274 0 0 0 1 0 0 0
420 1 6.896660049020172 6.896660049020172 6.896660049020172 0 4 0.0298415518297304 1 0.57735 0.57735 0.57735 0 0 0
419 1 7.413383296015549 6.256104902255907 6.971342485334068 0 4 0.0298415518297304 1 0.620434 0.523931 0.583573 0 0 0
434 1 8.450912740693703 5.46289520267755 6.439296458190344 0 4 0.0298415518297304 1 0.70702 0.458125 0.538743 0 0 0
435 1 7.9994657362479495 6.136607830526459 6.407584207931539 0 4 0.0298415518297304 1 0.669396 0.513666 0.536709 0 0 0
436 1 8.070493389834603 6.651223165669366 5.774066719283829 0 4 0.0298415518297304 1 0.67562 0.556751 0.483286 0 0 0
4776 2 0.8002082812477251 7.421746930551691 7.131391782301076 0 1 1.90985931710274 0 0 0 1 0 0 0
4713 2 3.568079205455522 7.33916009096075 6.31390277735543 0 1 1.90985931710274 0 0 0 1 0 0 0
397 1 4.532261116183702 8.599454995390728 6.947090881314812 0 4 0.0298415518297304 1 0.379189 0.720381 0.580747 0 0 0
409 1 5.182674844411291 8.591918993333321 6.484890297575802 0 4 0.0298415518297304 1 0.434791 0.718335 0.543095 0 0 0
408 1 5.774066719283829 8.070493389834603 6.651223165669366 0 4 0.0298415518297304 1 0.483286 0.67562 0.556751 0 0 0
421 1 6.971342485334068 7.413383296015549 6.256104902255907 0 4 0.0298415518297304 1 0.583573 0.620434 0.523931 0 0 0
422 1 6.407584207931539 7.9994657362479495 6.136607830526459 0 4 0.0298415518297304 1 0.536709 0.669396 0.513666 0 0 0
423 1 6.439296458190344 8.450912740693703 5.46289520267755 0 4 0.0298415518297304 1 0.538743 0.70702 0.458125 0 0 0
437 1 7.5599552786647415 7.2872611811923225 5.696441317200801 0 4 0.0298415518297304 1 0.632533 0.610173 0.477065 0 0 0
3892 2 9.66937914694236 7.661094660219854 6.910270315094868 0 1 1.90985931710274 0 0 0 1 0 0 0
3967 2 11.482998933159108 8.509340920412766 6.926441304228541 0 1 1.90985931710274 0 0 0 1 0 0 0
3999 2 11.930859736709925 7.605147387139321 5.891669660907888 0 1 1.90985931710274 0 0 0 1 0 0 0
4012 2 10.908656839396059 7.816463910793917 6.265600776184283 0 1 1.90985931710274 0 0 0 1 0 0 0
3987 2 13.38705735588786 8.397114407235504 7.022644407113239 0 1 1.90985931710274 0 0 0 1 0 0 0
261 1 1.3686009819231013 9.553842441772057 7.044985182758772 0 4 0.0298415518297304 1 0.115657 0.800437 0.588153 0 0 0
263 1 2.211841450608392e-18 9.61605526409717 7.092140394247476 0 4 0.0298415518297304 1 0 0.806015 0.591895 0 0 0
271 1 1.3963315588536618 9.992199987587664 6.399635919207783 0 4 0.0298415518297304 1 0.115646 0.836362 0.53584 0 0 0
272 1 0.7040841837917592 10.25069844397294 6.095336996791155 0 4 0.0298415518297304 1 0.059226 0.858483 0.50941 0 0 0
3884 2 12.157846816970546 13.843266823977457 12.717546589108812 0 1 1.90985931710274 0 0 0 1 0 0 0
284 1 0.7122045543855867 10.64038312370757 5.383451567067813 0 4 0.0298415518297304 1 0.059223 0.890774 0.450572 0 0 0
259 1 2.6877540399909075 9.37289470523265 6.909457866036755 0 4 0.0298415518297304 1 0.226831 0.784369 0.577333 0 0 0
268 1 3.383586720413358 9.85282733924287 5.854617017001387 0 4 0.0298415518297304 1 0.284461 0.823738 0.490447 0 0 0
269 1 2.737132063013731 9.79413632702012 6.274706368145702 0 4 0.0298415518297304 1 0.226809 0.820451 0.524802 0 0 0
270 1 2.0830139269438743 10.113173319118141 6.011561039835598 0 4 0.0298415518297304 1 0.175251 0.846422 0.502849 0 0 0
388 1 3.2975402454766938 8.996025895892759 7.142375312258343 0 4 0.0298415518297304 1 0.275807 0.7541 0.59604 0 0 0
398 1 3.9404487203291834 9.050444772702892 6.734332239905998 0 4 0.0298415518297304 1 0.33127 0.755891 0.564703 0 0 0
399 1 3.9982103829107847 9.472968743546604 6.089382005172075 0 4 0.0298415518297304 1 0.333291 0.793559 0.509098 0 0 0
410 1 5.229067623256141 9.030104738562834 5.819635519704458 0 4 0.0298415518297304 1 0.436819 0.755998 0.4875 0 0 0
411 1 4.621672847602975 9.471464327594123 5.632089492713752 0 4 0.0298415518297304 1 0.388906 0.791512 0.471446 0 0 0
3863 2 8.665343268841172 9.07336341357381 7.106469935026217 0 1 1.90985931710274 0 0 0 1 0 0 0
3869 2 8.916449241452169 10.350627086616436 5.658710762409553 0 1 1.90985931710274 0 0 0 1 0 0 0
3851 2 10.707884635612908 10.122366353755044 6.879921571262366 0 1 1.90985931710274 0 0 0 1 0 0 0
4019 2 9.89481314623857 9.421237224032666 7.1456743067979 0 1 1.90985931710274 0 0 0 1 0 0 0
4025 2 11.621437715586959 10.559015869985016 6.515524838156123 0 1 1.90985931710274 0 0 0 1 0 0 0
3935 2 13.86191664953017 10.453130653572606 6.3705205947693795 0 1 1.90985931710274 0 0 0 1 0 0 0
4041 2 0.9945590388193573 11.517057436961709 7.006407015424044 0 1 1.90985931710274 0 0 0 1 0 0 0
3926 2 2.6646505268072342 11.0747640491886 6.9647847127601406 0 1 1.90985931710274 0 0 0 1 0 0 0
3960 2 2.637412172608224 12.497249026394334 6.658494609550887 0 1 1.90985931710274 0 0 0 1 0 0 0
3890 2 6.103942843828845 11.25742023140962 5.850181301485621 0 1 1.90985931710274 0 0 0 1 0 0 0
3915 2 9.58428163298978 12.481877659222535 6.621772553148512 0 1 1.90985931710274 0 0 0 1 0 0 0
4026 2 10.016234061474512 10.929561202074447 6.133523265227526 0 1 1.90985931710274 0 0 0 1 0 0 0
4018 2 12.297763423593606 11.931966337752803 6.0144606113117245 0 1 1.90985931710274 0 0 0 1 0 0 0
3930 2 1.759697674089777 13.111988426876424 6.189758512067327 0 1 1.90985931710274 0 0 0 1 0 0 0
3943 2 0.31838096047441233 12.625318693472758 6.54333919662457 0 1 1.90985931710274 0 0 0 1 0 0 0
4030 2 2.8611535987998753 13.076085029472607 5.484332346124889 0 1 1.90985931710274 0 0 0 1 0 0 0
3886 2 4.707189679236356 13.521874925412144 6.889579401880921 0 1 1.90985931710274 0 0 0 1 0 0 0
3913 2 6.704705542829019 13.767780216759784 6.257185147190426 0 1 1.90985931710274 0 0 0 1 0 0 0
3909 2 8.609240054721633 13.28274570647797 5.99795677521408 0 1 1.90985931710274 0 0 0 1 0 0 0
4011 2 7.357617650918767 13.721996656592685 7.162189328550685 0 1 1.90985931710274 0 0 0 1 0 0 0
3920 2 10.603643759889378 12.685076450097649 5.4194137918977265 0 1 1.90985931710274 0 0 0 1 0 0 0
4063 2 10.41313479332 14.116302092239831 6.233176608389705 0 1 1.90985931710274 0 0 0 1 0 0 0
3897 2 13.86672471877708 12.70738629164822 6.414747847848375 0 1 1.90985931710274 0 0 0 1 0 0 0
4773 2 0.9990450355936815 0.8101572230131264 7.210565181630976 0 1 1.90985931710274 0 0 0 1 0 0 0
4736 2 6.166229937658361 0.9610882240833423 8.644632168732826 0 1 1.90985931710274 0 0 0 1 0 0 0
563 1 7.952522696613374 0.6656915704953396 8.896439356475284 0 4 0.0298415518297304 1 0.662924 0.056523 0.74655 0 0 0
564 1 8.162830137834208 1.321444919037123 8.630639292972145 0 4 0.0298415518297304 1 0.685123 0.10862 0.720284 0 0 0
565 1 8.669599745290057 1.2784715515496379 8.131128066779423 0 4 0.0298415518297304 1 0.721864 0.108633 0.683456 0 0 0
581 1 8.21217122543628 0 8.684155977676964 0 4 0.0298415518297304 1 0.689412 0 0.724369 0 0 0
582 1 8.719731403206659 0 8.177547707543587 0 4 0.0298415518297304 1 0.725938 0 0.68776 0 0 0
583 1 8.9006657194245 0.6393586009192921 7.9566467609051275 0 4 0.0298415518297304 1 0.748244 0.052342 0.661356 0 0 0
446 1 9.33984966043232 1.7891570029506303 7.246032847391109 0 4 0.0298415518297304 1 0.783541 0.144752 0.604243 0 0 0
584 1 9.348906162508925 0.6155775977841709 7.430419130501573 0 4 0.0298415518297304 1 0.777251 0.052348 0.627009 0 0 0
604 1 9.493528896893935 2.211841450608392e-18 7.2736816536149265 0 4 0.0298415518297304 1 0.799559 0 0.600588 0 0 0
4003 2 12.790597891539926 0.3847031115383768 7.959045625466077 0 1 1.90985931710274 0 0 0 1 0 0 0
4742 2 1.2425292816048188 3.1440419321794817 7.982952140525299 0 1 1.90985931710274 0 0 0 1 0 0 0
4783 2 2.2272808242879503 2.899243807590958 7.484288181217252 0 1 1.90985931710274 0 0 0 1 0 0 0
4779 2 5.09093567160689 2.986756105809018 7.940271852531471 0 1 1.90985931710274 0 0 0 1 0 0 0
4732 2 6.117533229120702 2.9057304228123364 8.307894686603007 0 1 1.90985931710274 0 0 0 1 0 0 0
413 1 8.09642684925152 2.5810108036152326 8.449107905036714 0 4 0.0298415518297304 1 0.673906 0.216805 0.706291 0 0 0
414 1 7.737155463213315 3.2201579666754445 8.519520450007567 0 4 0.0298415518297304 1 0.649239 0.269616 0.711194 0 0 0
428 1 8.887274502417357 1.848351927259901 7.778922635537865 0 4 0.0298415518297304 1 0.740883 0.158426 0.652682 0 0 0
429 1 8.621010282839453 2.494617070411712 7.910756581967348 0 4 0.0298415518297304 1 0.722546 0.206595 0.659732 0 0 0
430 1 8.850031126127387 3.015399555322699 7.444239992366906 0 4 0.0298415518297304 1 0.738752 0.255043 0.623858 0 0 0
548 1 7.8548174342616175 1.976962086269973 8.788959806380333 0 4 0.0298415518297304 1 0.655055 0.167452 0.736792 0 0 0
4717 2 7.601241061207847 2.280631822931051 7.511764019897173 0 1 1.90985931710274 0 0 0 1 0 0 0
4033 2 12.225438668661097 1.8157581870714221 8.18492810943208 0 1 1.90985931710274 0 0 0 1 0 0 0
4747 2 0.8555204766213134 4.268272574419491 8.040736268428748 0 1 1.90985931710274 0 0 0 1 0 0 0
402 1 6.947090881314812 4.532261116183702 8.599454995390728 0 4 0.0298415518297304 1 0.580747 0.379189 0.720381 0 0 0
403 1 6.484890297575802 5.182674844411291 8.591918993333321 0 4 0.0298415518297304 1 0.543095 0.434791 0.718335 0 0 0
415 1 7.967511654140036 3.7838070843487692 8.061162762905834 0 4 0.0298415518297304 1 0.665346 0.317751 0.675536 0 0 0
416 1 7.567008598743931 4.452551263255395 8.103352022611611 0 4 0.0298415518297304 1 0.634131 0.372974 0.677324 0 0 0
417 1 7.746829429466787 5.027747336910463 7.578527615711209 0 4 0.0298415518297304 1 0.647794 0.421521 0.634573 0 0 0
431 1 8.521952334138087 3.6863335632185215 7.521794481100211 0 4 0.0298415518297304 1 0.714242 0.307492 0.628735 0 0 0
3883 2 12.47593757566902 4.812047091581174 8.314746461665187 0 1 1.90985931710274 0 0 0 1 0 0 0
3910 2 13.768335236759016 3.925317019672544 8.512206427308657 0 1 1.90985931710274 0 0 0 1 0 0 0
3937 2 12.569509871053016 3.778585965693026 7.952227145807207 0 1 1.90985931710274 0 0 0 1 0 0 0
384 1 4.233482399091309 6.999619942319504 8.709186563023858 0 4 0.0298415518297304 1 0.356132 0.585913 0.727926 0 0 0
392 1 5.315532000828298 5.844040723021723 8.963339986921262 0 4 0.0298415518297304 1 0.444447 0.490205 0.749777 0 0 0
394 1 4.917931978313914 7.021482536804528 8.321548324326256 0 4 0.0298415518297304 1 0.411251 0.587705 0.69676 0 0 0
393 1 5.46289520267755 6.439296458190344 8.450912740693703 0 4 0.0298415518297304 1 0.458125 0.538743 0.70702 0 0 0
404 1 6.651223165669366 5.774066719283829 8.070493389834603 0 4 0.0298415518297304 1 0.556751 0.483286 0.67562 0 0 0
405 1 6.136607830526459 6.407584207931539 7.9994657362479495 0 4 0.0298415518297304 1 0.513666 0.536709 0.669396 0 0 0
406 1 6.256104902255907 6.971342485334068 7.413383296015549 0 4 0.0298415518297304 1 0.523931 0.583573 0.620434 0 0 0
418 1 7.2872611811923225 5.696441317200801 7.5599552786647415 0 4 0.0298415518297304 1 0.610173 0.477065 0.632533 0 0 0
3877 2 11.14815311160619 6.267714765235889 8.46707931953379 0 1 1.90985931710274 0 0 0 1 0 0 0
4052 2 13.366401632688335 5.649502592806742 7.971125302918457 0 1 1.90985931710274 0 0 0 1 0 0 0
247 1 1.2784715515496379 8.131128066779423 8.669599745290057 0 4 0.0298415518297304 1 0.108633 0.683456 0.721864 0 0 0
248 1 0.6393586009192922 7.9566467609051275 8.9006657194245 0 4 0.0298415518297304 1 0.052342 0.661356 0.748244 0 0 0
249 1 2.211841450608392e-18 8.177547707543587 8.719731403206659 0 4 0.0298415518297304 1 0 0.68776 0.725938 0 0 0
253 1 1.321444919037123 8.630639292972145 8.162830137834208 0 4 0.0298415518297304 1 0.10862 0.720284 0.685123 0 0 0
254 1 0.6656915704953396 8.896439356475284 7.952522696613374 0 4 0.0298415518297304 1 0.056523 0.74655 0.662924 0 0 0
255 1 0 8.684155977676964 8.21217122543628 0 4 0.0298415518297304 1 0 0.724369 0.689412 0 0 0
252 1 1.976962086269973 8.788959806380333 7.8548174342616175 0 4 0.0298415518297304 1 0.167452 0.736792 0.655055 0 0 0
372 1 1.848351927259901 7.778922635537865 8.887274502417357 0 4 0.0298415518297304 1 0.158426 0.652682 0.740883 0 0 0
377 1 3.015399555322699 7.444239992366906 8.850031126127387 0 4 0.0298415518297304 1 0.255043 0.623858 0.738752 0 0 0
378 1 2.492570003313927 7.906844018523753 8.610159610496206 0 4 0.0298415518297304 1 0.206595 0.659732 0.722546 0 0 0
379 1 2.572094274093865 8.421148108100308 8.08213718829916 0 4 0.0298415518297304 1 0.216805 0.706291 0.673906 0 0 0
387 1 3.2201579666754445 8.519520450007567 7.737155463213315 0 4 0.0298415518297304 1 0.269616 0.711194 0.649239 0 0 0
385 1 3.6863335632185215 7.521794481100211 8.521952334138087 0 4 0.0298415518297304 1 0.307492 0.628735 0.714242 0 0 0
386 1 3.7838070843487692 8.061162762905834 7.967511654140036 0 4 0.0298415518297304 1 0.317751 0.675536 0.665346 0 0 0
395 1 5.027747336910463 7.578527615711209 7.746829429466787 0 4 0.0298415518297304 1 0.421521 0.634573 0.647794 0 0 0
396 1 4.452551263255395 8.103352022611611 7.567008598743931 0 4 0.0298415518297304 1 0.372974 0.677324 0.634131 0 0 0
407 1 5.696441317200801 7.5599552786647415 7.2872611811923225 0 4 0.0298415518297304 1 0.477065 0.632533 0.610173 0 0 0
3848 2 7.201768410013839 7.6082691025819305 8.805037094472835 0 1 1.90985931710274 0 0 0 1 0 0 0
3955 2 9.556706160323733 8.238412560997409 8.922456683446514 0 1 1.90985931710274 0 0 0 1 0 0 0
4028 2 11.377097567871244 8.19059521199719 8.886904036797882 0 1 1.90985931710274 0 0 0 1 0 0 0
262 1 0.6851437658954603 9.376631494888152 7.375600354702212 0 4 0.0298415518297304 1 0.056516 0.783847 0.618377 0 0 0
260 1 2.02877540751461 9.255835233925785 7.28208785979175 0 4 0.0298415518297304 1 0.167433 0.774346 0.610208 0 0 0
3953 2 6.474425560947692 9.823048847848545 7.289297790523049 0 1 1.90985931710274 0 0 0 1 0 0 0
3852 2 11.006622067846125 9.746264289846748 8.320461454274335 0 1 1.90985931710274 0 0 0 1 0 0 0
3898 2 13.646700148005094 9.647233521567605 8.57379098673299 0 1 1.90985931710274 0 0 0 1 0 0 0
3924 2 2.1473009546953126 12.411987564129232 8.72379831996689 0 1 1.90985931710274 0 0 0 1 0 0 0
3932 2 4.2015660133342525 11.028746108764638 8.470798007267136 0 1 1.90985931710274 0 0 0 1 0 0 0
4040 2 5.161348035923433 12.070371765139123 7.405864693237737 0 1 1.90985931710274 0 0 0 1 0 0 0
3997 2 8.494773018887093 12.408572435377087 8.727917382657294 0 1 1.90985931710274 0 0 0 1 0 0 0
3861 2 2.690410218786253 13.501497140511079 8.813276569717475 0 1 1.90985931710274 0 0 0 1 0 0 0
3858 2 3.8037730116489055 12.676668783122912 8.551475946765462 0 1 1.90985931710274 0 0 0 1 0 0 0
3866 2 8.146843966758688 12.956313758907898 7.3155859242174825 0 1 1.90985931710274 0 0 0 1 0 0 0
3969 2 10.643104527789324 13.439990555142243 8.311480275634262 0 1 1.90985931710274 0 0 0 1 0 0 0
4065 2 13.33656452201245 13.24855765795867 7.207507195117781 0 1 1.90985931710274 0 0 0 1 0 0 0
4718 2 0.8097820009694363 0.9042082933190159 9.36675581270806 0 1 1.90985931710274 0 0 0 1 0 0 0
529 1 4.98783925556015 1.4192693658356634 10.76190507047654 0 4 0.0298415518297304 1 0.417556 0.118869 0.900842 0 0 0
543 1 5.383451567067813 0.7122045543855867 10.64038312370757 0 4 0.0298415518297304 1 0.450572 0.059223 0.890774 0 0 0
544 1 6.095336996791155 0.7040841837917592 10.25069844397294 0 4 0.0298415518297304 1 0.50941 0.059226 0.858483 0 0 0
545 1 6.399635919207783 1.3963315588536618 9.992199987587664 0 4 0.0298415518297304 1 0.53584 0.115646 0.836362 0 0 0
546 1 7.044985182758772 1.3686009819231013 9.553842441772057 0 4 0.0298415518297304 1 0.588153 0.115657 0.800437 0 0 0
560 1 6.4430651044093965 1.105920725304196e-18 10.060931286493508 0 4 0.0298415518297304 1 0.539676 0 0.841873 0 0 0
4020 2 4.2820180310689135 14.234390175223941 13.777184988769653 0 1 1.90985931710274 0 0 0 1 0 0 0
562 1 7.375600354702212 0.6851437658954604 9.376631494888152 0 4 0.0298415518297304 1 0.618377 0.056516 0.783847 0 0 0
3916 2 10.589421365576682 0.9209972472918722 9.311069234514962 0 1 1.90985931710274 0 0 0 1 0 0 0
4036 2 13.465143276173732 0.5368526519356287 10.73900508213872 0 1 1.90985931710274 0 0 0 1 0 0 0
4763 2 0.6519805717905935 3.5867460844732584 10.144881742085055 0 1 1.90985931710274 0 0 0 1 0 0 0
4740 2 2.6712230311260683 1.9515781358246755 9.174290805348559 0 1 1.90985931710274 0 0 0 1 0 0 0
518 1 4.884105722525149 2.7798204017072834 10.54382301778774 0 4 0.0298415518297304 1 0.409603 0.232881 0.882039 0 0 0
519 1 5.172463522025751 3.4183554655301926 10.215155116265121 0 4 0.0298415518297304 1 0.431545 0.284445 0.856072 0 0 0
530 1 5.310097654165997 2.1070288296765565 10.492772653721886 0 4 0.0298415518297304 1 0.443955 0.17524 0.878746 0 0 0
400 1 7.142375312258343 3.2975402454766938 8.996025895892759 0 4 0.0298415518297304 1 0.59604 0.275807 0.7541 0 0 0
520 1 5.854617017001387 3.383586720413358 9.85282733924287 0 4 0.0298415518297304 1 0.490447 0.284461 0.823738 0 0 0
531 1 6.011561039835598 2.0830139269438743 10.113173319118141 0 4 0.0298415518297304 1 0.502849 0.175251 0.846422 0 0 0
532 1 6.274706368145702 2.737132063013731 9.79413632702012 0 4 0.0298415518297304 1 0.524802 0.226809 0.820451 0 0 0
533 1 6.909457866036755 2.6877540399909075 9.37289470523265 0 4 0.0298415518297304 1 0.577333 0.226831 0.784369 0 0 0
547 1 7.28208785979175 2.02877540751461 9.255835233925785 0 4 0.0298415518297304 1 0.610208 0.167433 0.774346 0 0 0
3944 2 8.93303872039539 2.1590596853166044 9.13331511619389 0 1 1.90985931710274 0 0 0 1 0 0 0
3856 2 9.920119453471132 2.7926084893127356 9.082189879108336 0 1 1.90985931710274 0 0 0 1 0 0 0
3918 2 9.677591745195352 2.1847634982791835 10.620889578219812 0 1 1.90985931710274 0 0 0 1 0 0 0
3980 2 11.964186050327855 2.2103838602542805 10.705903293695217 0 1 1.90985931710274 0 0 0 1 0 0 0
492 1 1.745118796613131 5.061730274197689 10.689822936524607 0 4 0.0298415518297304 1 0.141803 0.427143 0.892995 0 0 0
493 1 2.4208158069392542 5.140432586494049 10.517951734564901 0 4 0.0298415518297304 1 0.206546 0.427117 0.88029 0 0 0
499 1 2.8710611793622913 4.631216610942642 10.702952625090816 0 4 0.0298415518297304 1 0.236303 0.386006 0.891718 0 0 0
500 1 3.566604096775424 4.627224043334814 10.426911840880612 0 4 0.0298415518297304 1 0.301445 0.385995 0.871859 0 0 0
4752 2 3.1139615425770106 4.690982091805402 8.998928973387489 0 1 1.90985931710274 0 0 0 1 0 0 0
4756 2 2.6849926501498866 4.004201814802469 9.7996088133821 0 1 1.90985931710274 0 0 0 1 0 0 0
373 1 3.7939239923523522 5.222355621366762 10.059100048941238 0 4 0.0298415518297304 1 0.320296 0.435348 0.841358 0 0 0
380 1 4.958664267611715 4.6471478823731145 9.830129370841252 0 4 0.0298415518297304 1 0.415996 0.38708 0.822871 0 0 0
381 1 4.474010090314408 5.236891991858055 9.765930954750743 0 4 0.0298415518297304 1 0.373095 0.440282 0.816671 0 0 0
508 1 4.018942358833174 4.045510343949046 10.502245767290724 0 4 0.0298415518297304 1 0.334064 0.338099 0.879824 0 0 0
509 1 4.725745922084348 4.03736240898212 10.206998193417988 0 4 0.0298415518297304 1 0.397289 0.338104 0.85314 0 0 0
389 1 6.089382005172075 3.9982103829107847 9.472968743546604 0 4 0.0298415518297304 1 0.509098 0.333291 0.793559 0 0 0
390 1 5.632089492713752 4.621672847602975 9.471464327594123 0 4 0.0298415518297304 1 0.471446 0.388906 0.791512 0 0 0
391 1 5.819635519704458 5.229067623256141 9.030104738562834 0 4 0.0298415518297304 1 0.4875 0.436819 0.755998 0 0 0
401 1 6.734332239905998 3.9404487203291834 9.050444772702892 0 4 0.0298415518297304 1 0.564703 0.33127 0.755891 0 0 0
3874 2 8.869990256411493 4.444003507938428 10.120369921192166 0 1 1.90985931710274 0 0 0 1 0 0 0
4064 2 9.85022469399688 4.816240005563186 9.46069350045176 0 1 1.90985931710274 0 0 0 1 0 0 0
4022 2 13.683207112950738 4.060904552179281 9.598207686300855 0 1 1.90985931710274 0 0 0 1 0 0 0
4039 2 12.869448489636271 5.376381316822739 9.796879839735242 0 1 1.90985931710274 0 0 0 1 0 0 0
243 1 0 6.718450883615759 9.897522950485259 0 4 0.0298415518297304 1 0 0.569865 0.821739 0 0 0
364 1 0.4865794786618666 6.417728021582561 10.08337967517057 0 4 0.0298415518297304 1 0.050161 0.538863 0.840898 0 0 0
365 1 1.5271061926927691 6.106168118875939 10.16733844680462 0 4 0.0298415518297304 1 0.134812 0.511338 0.84874 0 0 0
366 1 1.1377675643454386 6.570502549743725 9.928117389224152 0 4 0.0298415518297304 1 0.086106 0.547371 0.832448 0 0 0
367 1 1.14665875491715 7.102193318178118 9.551761345313452 0 4 0.0298415518297304 1 0.102459 0.596039 0.796392 0 0 0
485 1 0.3007226119801671 5.931148609750038 10.38410240725975 0 4 0.0298415518297304 1 0.031001 0.488703 0.871899 0 0 0
487 1 0.7031792711430755 5.432734791968485 10.631296536123939 0 4 0.0298415518297304 1 0.053217 0.461265 0.885665 0 0 0
488 1 1.324251409088832 5.575087225059108 10.49556439859258 0 4 0.0298415518297304 1 0.115671 0.461227 0.87971 0 0 0
368 1 2.63849077709189 5.710312428807246 10.165746059644487 0 4 0.0298415518297304 1 0.225565 0.47691 0.849516 0 0 0
369 1 2.184302998367814 6.211528291683313 9.979208801255677 0 4 0.0298415518297304 1 0.177101 0.519552 0.835883 0 0 0
370 1 2.2559092717178135 6.783319053141226 9.581412179409126 0 4 0.0298415518297304 1 0.193441 0.568207 0.799826 0 0 0
374 1 3.309267907455417 5.7687017515614585 9.931604703079781 0 4 0.0298415518297304 1 0.273726 0.483981 0.831166 0 0 0
375 1 3.4268197334280326 6.3671283268970695 9.515722686147727 0 4 0.0298415518297304 1 0.289976 0.532402 0.795275 0 0 0
376 1 2.9195443775880694 6.8797784902812955 9.327338261728201 0 4 0.0298415518297304 1 0.241321 0.575225 0.781589 0 0 0
382 1 4.629649181325049 5.846719577457926 9.336112728622068 0 4 0.0298415518297304 1 0.389231 0.488399 0.781003 0 0 0
383 1 4.109775397540957 6.413209013816228 9.207096031147115 0 4 0.0298415518297304 1 0.342421 0.53729 0.770758 0 0 0
3986 2 8.048689373867836 6.066284596720047 9.759329073863038 0 1 1.90985931710274 0 0 0 1 0 0 0
4048 2 9.1672083525196 5.798188796938744 9.944980149506405 0 1 1.90985931710274 0 0 0 1 0 0 0
3860 2 11.60848404692611 6.987119271767203 9.272895492431285 0 1 1.90985931710274 0 0 0 1 0 0 0
3959 2 14.29034886035908 7.138704055058751 9.626133372409297 0 1 1.90985931710274 0 0 0 1 0 0 0
244 1 0.6155775977841709 7.430419130501573 9.348906162508925 0 4 0.0298415518297304 1 0.052348 0.627009 0.777251 0 0 0
245 1 4.423682901216784e-18 7.2736816536149265 9.493528896893935 0 4 0.0298415518297304 1 0 0.600588 0.799559 0 0 0
371 1 1.7891570029506303 7.246032847391109 9.33984966043232 0 4 0.0298415518297304 1 0.144752 0.604243 0.783541 0 0 0
4042 2 3.718148676584148 8.643169349786008 9.510527853404136 0 1 1.90985931710274 0 0 0 1 0 0 0
3923 2 5.692156111244492 7.321459686158347 10.182967263358107 0 1 1.90985931710274 0 0 0 1 0 0 0
3962 2 8.169232500626707 8.198505441920492 10.569228780106105 0 1 1.90985931710274 0 0 0 1 0 0 0
3895 2 10.600841000870654 7.411489048413499 9.213627784567514 0 1 1.90985931710274 0 0 0 1 0 0 0
3857 2 11.947406173760095 7.201938385936126 10.46505442843547 0 1 1.90985931710274 0 0 0 1 0 0 0
3950 2 3.156411331776601 10.183541169324359 10.152910834533087 0 1 1.90985931710274 0 0 0 1 0 0 0
3911 2 7.020873292217393 9.619988297764563 9.880818529004872 0 1 1.90985931710274 0 0 0 1 0 0 0
3931 2 8.680764687894476 9.951307442402785 10.349446463637433 0 1 1.90985931710274 0 0 0 1 0 0 0
4004 2 10.65138570179772 9.11621211430194 9.737233072690158 0 1 1.90985931710274 0 0 0 1 0 0 0
3998 2 11.995360500526276 9.539676345108182 9.02924823318129 0 1 1.90985931710274 0 0 0 1 0 0 0
3929 2 2.458023877062301 11.133035786133624 10.500671547788071 0 1 1.90985931710274 0 0 0 1 0 0 0
3894 2 6.032272839677338 12.145608457011067 9.060808985004003 0 1 1.90985931710274 0 0 0 1 0 0 0
3976 2 13.554559739583008 10.90246517163675 9.948043698874082 0 1 1.90985931710274 0 0 0 1 0 0 0
3854 2 2.804787856213478 12.873151379953343 10.208670875845856 0 1 1.90985931710274 0 0 0 1 0 0 0
3872 2 10.014716493773323 14.124894848243832 10.359240434046166 0 1 1.90985931710274 0 0 0 1 0 0 0
3906 2 11.150240709427 12.652877339618426 10.504000966869702 0 1 1.90985931710274 0 0 0 1 0 0 0
3965 2 11.696776823364898 13.935264293848759 9.059946716048342 0 1 1.90985931710274 0 0 0 1 0 0 0
4047 2 12.598415399532568 13.597181943852972 9.726502336880506 0 1 1.90985931710274 0 0 0 1 0 0 0
501 1 0.3768687790293372 1.3496076122842269 11.86812127662825 0 4 0.0298415518297304 1 0.030269 0.111273 0.993329 0 0 0
510 1 0.37985787396102 0 11.94399904357446 0 4 0.0298415518297304 1 0.030178 0 0.999545 0 0 0
511 1 0.7436907815813953 0.6812230974745015 11.906795768543468 0 4 0.0298415518297304 1 0.064561 0.057636 0.996248 0 0 0
512 1 1.5137182198694838 0.6968056081181138 11.83119651802187 0 4 0.0298415518297304 1 0.126041 0.05763 0.99035 0 0 0
513 1 1.8888478978032397 1.3914885773027972 11.715167821109105 0 4 0.0298415518297304 1 0.159038 0.117231 0.980288 0 0 0
514 1 2.672170851459992 1.4115491063592356 11.558231437056955 0 4 0.0298415518297304 1 0.22391 0.117222 0.967535 0 0 0
524 1 1.9008536977816826 0 11.794987974137706 0 4 0.0298415518297304 1 0.160411 -0 0.98705 0 0 0
4010 2 3.8635638131738137 13.04238001227833 13.025988361893189 0 1 1.90985931710274 0 0 0 1 0 0 0
526 1 3.065644062000655 0.698007390726877 11.495026953762055 0 4 0.0298415518297304 1 0.258241 0.059644 0.964238 0 0 0
4051 2 3.5736710355593138 1.1494809157296415 12.355233268596052 0 1 1.90985931710274 0 0 0 1 0 0 0
527 1 3.86648581940601 0.7152375895268429 11.279869072120212 0 4 0.0298415518297304 1 0.323807 0.059642 0.944241 0 0 0
528 1 4.2327990080513676 1.423347517251903 11.07989365716363 0 4 0.0298415518297304 1 0.354065 0.118867 0.927636 0 0 0
541 1 4.262370524096592 0 11.159030532552128 0 4 0.0298415518297304 1 0.356822 0 0.934172 0 0 0
4016 2 13.172128615927706 12.427625896944027 13.247411938244129 0 1 1.90985931710274 0 0 0 1 0 0 0
3850 2 7.459212968936404 0.6137769141610239 12.055850304308729 0 1 1.90985931710274 0 0 0 1 0 0 0
4029 2 9.583559843427038 0.35076047821559264 11.507087369466012 0 1 1.90985931710274 0 0 0 1 0 0 0
494 1 0.3678117563873662 2.6502621255199252 11.648741412035173 0 4 0.0298415518297304 1 0.030501 0.218543 0.97535 0 0 0
495 1 0.7237953884855253 3.276131940429869 11.472097285570149 0 4 0.0298415518297304 1 0.060552 0.277386 0.958848 0 0 0
496 1 1.4538837703096092 3.3437073590135973 11.374082549757318 0 4 0.0298415518297304 1 0.122693 0.277359 0.9529 0 0 0
502 1 0.7363147481133524 2.0167350080379154 11.756097880475448 0 4 0.0298415518297304 1 0.063153 0.170666 0.983303 0 0 0
503 1 1.4926796990507116 2.0629124085374824 11.674634439008784 0 4 0.0298415518297304 1 0.124901 0.170648 0.977384 0 0 0
504 1 1.8548371467004798 2.726875306230269 11.48537574342067 0 4 0.0298415518297304 1 0.155112 0.229798 0.960798 0 0 0
505 1 2.616436136241011 2.7661375647652378 11.325622741883521 0 4 0.0298415518297304 1 0.220102 0.229781 0.948027 0 0 0
506 1 2.963422670948167 3.412019013526081 11.06193314522361 0 4 0.0298415518297304 1 0.246557 0.286314 0.925869 0 0 0
515 1 3.039448746477639 2.103550570471817 11.360997099847129 0 4 0.0298415518297304 1 0.254167 0.176454 0.950927 0 0 0
507 1 3.7071227937142512 3.4315134233143305 10.828792332517375 0 4 0.0298415518297304 1 0.312038 0.286305 0.905904 0 0 0
516 1 3.8114019686846525 2.115633286578001 11.123083633229703 0 4 0.0298415518297304 1 0.319741 0.176449 0.930931 0 0 0
517 1 4.148160133050597 2.787820095153561 10.852187900093165 0 4 0.0298415518297304 1 0.346156 0.232877 0.908815 0 0 0
3938 2 6.75573750323875 2.1523529336699827 11.217316191426297 0 1 1.90985931710274 0 0 0 1 0 0 0
3966 2 6.608961369786835 3.579962007327717 10.928433156959754 0 1 1.90985931710274 0 0 0 1 0 0 0
3893 2 8.692259754024898 2.2412258964615805 12.448313829765562 0 1 1.90985931710274 0 0 0 1 0 0 0
3881 2 13.19031664103674 2.401729904463542 12.136340318705374 0 1 1.90985931710274 0 0 0 1 0 0 0
486 1 0.3282260859712711 4.959509308734032 10.876011960372498 0 4 0.0298415518297304 1 0.03097 0.408879 0.912063 0 0 0
489 1 0.3522053557303874 3.8619611313205353 11.308090336798315 0 4 0.0298415518297304 1 0.030774 0.318484 0.947429 0 0 0
490 1 0.7057839866904173 4.424199606182665 11.077463583090731 0 4 0.0298415518297304 1 0.057112 0.374801 0.925344 0 0 0
491 1 1.3980673080243498 4.53555052718533 10.947506274766246 0 4 0.0298415518297304 1 0.119553 0.374767 0.919379 0 0 0
4061 2 1.244855512570247 4.241991392540856 12.036222901040771 0 1 1.90985931710274 0 0 0 1 0 0 0
497 1 1.8244768089299515 3.9503625303285927 11.099982087153315 0 4 0.0298415518297304 1 0.149145 0.333904 0.930733 0 0 0
498 1 2.5293110254501143 4.017420313103844 10.967922118238022 0 4 0.0298415518297304 1 0.214148 0.333881 0.917967 0 0 0
4059 2 2.55326743531265 4.630255299714756 12.034988305878462 0 1 1.90985931710274 0 0 0 1 0 0 0
3885 2 4.308809313041445 5.297962287566344 12.058579127542297 0 1 1.90985931710274 0 0 0 1 0 0 0
3889 2 7.409908805073277 4.290420866566583 11.955376384583731 0 1 1.90985931710274 0 0 0 1 0 0 0
3949 2 9.003208638250522 4.760015076494421 11.624412641716654 0 1 1.90985931710274 0 0 0 1 0 0 0
3946 2 1.44165500151888 6.172274527816457 11.664273011231737 0 1 1.90985931710274 0 0 0 1 0 0 0
3954 2 6.182250475907045 7.123468569723867 11.873177349027285 0 1 1.90985931710274 0 0 0 1 0 0 0
3983 2 13.612350831450732 6.360150192411586 12.17022786154603 0 1 1.90985931710274 0 0 0 1 0 0 0
3973 2 1.3922219991677167 7.683530011812826 10.867002538184897 0 1 1.90985931710274 0 0 0 1 0 0 0
3900 2 2.483193105304812 7.391876962239046 12.189831990497444 0 1 1.90985931710274 0 0 0 1 0 0 0
3984 2 3.255300805398532 7.555472333128984 11.18364689884597 0 1 1.90985931710274 0 0 0 1 0 0 0
3871 2 4.230450693532555 8.574968201639953 11.29759096268499 0 1 1.90985931710274 0 0 0 1 0 0 0
3985 2 5.325038992230832 7.919250423634361 11.868992022724465 0 1 1.90985931710274 0 0 0 1 0 0 0
3853 2 7.087368533245938 7.862838264443306 10.885934498642426 0 1 1.90985931710274 0 0 0 1 0 0 0
3904 2 7.9711248555242005 8.748185386376221 11.507760402764696 0 1 1.90985931710274 0 0 0 1 0 0 0
4031 2 10.574463083465902 7.826995811386526 11.204799973358282 0 1 1.90985931710274 0 0 0 1 0 0 0
4034 2 9.247556818324254 7.263435575718129 10.808939094583861 0 1 1.90985931710274 0 0 0 1 0 0 0
3958 2 14.099119332118567 7.666550916728196 12.510291450785056 0 1 1.90985931710274 0 0 0 1 0 0 0
3899 2 0.8390504224312476 9.683295801953347 11.94956342990037 0 1 1.90985931710274 0 0 0 1 0 0 0
3925 2 2.5621042854431497 9.645725443008173 11.928608638355746 0 1 1.90985931710274 0 0 0 1 0 0 0
3875 2 3.7148332907403248 10.323667472615186 11.765982243468207 0 1 1.90985931710274 0 0 0 1 0 0 0
3977 2 8.954033513350252 10.605416877706078 11.447723606049992 0 1 1.90985931710274 0 0 0 1 0 0 0
4043 2 7.528079172269505 10.00429633356377 11.199826206295645 0 1 1.90985931710274 0 0 0 1 0 0 0
4001 2 10.438932506593547 10.494448051470826 11.908762092986523 0 1 1.90985931710274 0 0 0 1 0 0 0
3880 2 12.150742136159737 9.239272436718641 11.533303930207994 0 1 1.90985931710274 0 0 0 1 0 0 0
3992 2 12.012507286120178 10.714761821836879 12.338183612377188 0 1 1.90985931710274 0 0 0 1 0 0 0
3919 2 12.835613898879599 10.7402944693932 10.948981091527953 0 1 1.90985931710274 0 0 0 1 0 0 0
3865 2 1.0201546488359678 11.186064986099579 12.028521375583429 0 1 1.90985931710274 0 0 0 1 0 0 0
3961 2 3.3597003563370347 11.431990956512161 12.348770099867197 0 1 1.90985931710274 0 0 0 1 0 0 0
4044 2 2.1216857649707226 12.413903862893905 12.229937657876336 0 1 1.90985931710274 0 0 0 1 0 0 0
3901 2 4.157250090816186 12.439480347612138 11.577506317149728 0 1 1.90985931710274 0 0 0 1 0 0 0
4053 2 5.067352620573411 10.849595977311749 11.109408678526323 0 1 1.90985931710274 0 0 0 1 0 0 0
4038 2 6.372092892098005 11.98352349116801 11.502718060733079 0 1 1.90985931710274 0 0 0 1 0 0 0
4054 2 4.95138668792646 13.484557980011745 11.127746057380564 0 1 1.90985931710274 0 0 0 1 0 0 0
3927 2 6.3004572226016595 13.44877426607892 12.433839988388785 0 1 1.90985931710274 0 0 0 1 0 0 0
3905 2 10.44842000303631 13.301899031238124 12.195852019177826 0 1 1.90985931710274 0 0 0 1 0 0 0
4007 2 0.6882403478999528 0.7146451545033425 13.983819737697546 0 1 1.90985931710274 0 0 0 1 0 0 0
4027 2 3.0567828945818487 0.39184923717816744 13.25960325344449 0 1 1.90985931710274 0 0 0 1 0 0 0
3945 2 9.69674977273109 0.1202178376587267 14.282523039915343 0 1 1.90985931710274 0 0 0 1 0 0 0
4005 2 11.175139803073906 0.6155342631188319 12.890520238194258 0 1 1.90985931710274 0 0 0 1 0 0 0
3972 2 1.51826814017965 2.2600659993539356 13.381889141609202 0 1 1.90985931710274 0 0 0 1 0 0 0
3933 2 3.173013306983963 2.20199847943144 13.278277804225715 0 1 1.90985931710274 0 0 0 1 0 0 0
3868 2 6.388620679202076 2.0304917541461447 13.304244099457938 0 1 1.90985931710274 0 0 0 1 0 0 0
4006 2 5.567144045166679 2.148136711474059 14.028453579296587 0 1 1.90985931710274 0 0 0 1 0 0 0
4067 2 7.575510647325059 3.554465592254905 12.92659502820913 0 1 1.90985931710274 0 0 0 1 0 0 0
3979 2 10.565579095021368 2.019272024101488 13.211801073706093 0 1 1.90985931710274 0 0 0 1 0 0 0
3942 2 12.826635620442007 3.3478387687651274 12.98194663547684 0 1 1.90985931710274 0 0 0 1 0 0 0
3982 2 0.987256863575178 3.5937741080345678 13.45965773697584 0 1 1.90985931710274 0 0 0 1 0 0 0
3921 2 2.537854569851918 3.8960715011536085 14.078305888691103 0 1 1.90985931710274 0 0 0 1 0 0 0
3891 2 3.716218892546193 4.910383023844938 13.162231761838386 0 1 1.90985931710274 0 0 0 1 0 0 0
4037 2 5.983993382838706 4.343409370142906 12.79924199180793 0 1 1.90985931710274 0 0 0 1 0 0 0
3928 2 4.307170110580964 6.4489805342552184 12.68489522750387 0 1 1.90985931710274 0 0 0 1 0 0 0
4056 2 3.915015806188596 5.713780530632801 13.994158676682666 0 1 1.90985931710274 0 0 0 1 0 0 0
3970 2 5.78605156984638 6.862262408090251 13.048600772852295 0 1 1.90985931710274 0 0 0 1 0 0 0
4050 2 5.391489527373226 5.410728561803898 13.049146238123269 0 1 1.90985931710274 0 0 0 1 0 0 0
3957 2 7.7156871896072285 6.011903728653737 14.215087483353587 0 1 1.90985931710274 0 0 0 1 0 0 0
4049 2 8.374875774906576 6.372172854823516 13.32745701881243 0 1 1.90985931710274 0 0 0 1 0 0 0
3849 2 12.47166159575062 7.126957780606633 13.114156655672167 0 1 1.90985931710274 0 0 0 1 0 0 0
3882 2 13.641424492584802 7.082574872766779 13.399068591234714 0 1 1.90985931710274 0 0 0 1 0 0 0

Velocities

2507 0 0 0 0 0 0
2618 0 0 0 0 0 0
2531 0 0 0 0 0 0
2495 0 0 0 0 0 0
2619 0 0 0 0 0 0
2597 0 0 0 0 0 0
2583 0 0 0 0 0 0
2551 0 0 0 0 0 0
2508 0 0 0 0 0 0
2574 0 0 0 0 0 0
2429 0 0 0 0 0 0
2592 0 0 0 0 0 0
2456 0 0 0 0 0 0
2511 0 0 0 0 0 0
2510 0 0 0 0 0 0
2546 0 0 0 0 0 0
2572 0 0 0 0 0 0
2458 0 0 0 0 0 0
2530 0 0 0 0 0 0
2457 0 0 0 0 0 0
2525 0 0 0 0 0 0
2445 0 0 0 0 0 0
2559 0 0 0 0 0 0
2444 0 0 0 0 0 0
2533 0 0 0 0 0 0
2430 0 0 0 0 0 0
2506 0 0 0 0 0 0
2568 0 0 0 0 0 0
2517 0 0 0 0 0 0
2450 0 0 0 0 0 0
2532 0 0 0 0 0 0
2422 0 0 0 0 0 0
2599 0 0 0 0 0 0
2440 0 0 0 0 0 0
2588 0 0 0 0 0 0
2516 0 0 0 0 0 0
2544 0 0 0 0 0 0
2521 0 0 0 0 0 0
2562 0 0 0 0 0 0
2447 0 0 0 0 0 0
2473 0 0 0 0 0 0
2481 0 0 0 0 0 0
2570 0 0 0 0 0 0
2462 0 0 0 0 0 0
2468 0 0 0 0 0 0
2494 0 0 0 0 0 0
2491 0 0 0 0 0 0
2479 0 0 0 0 0 0
2607 0 0 0 0 0 0
2542 0 0 0 0 0 0
2515 0 0 0 0 0 0
2565 0 0 0 0 0 0
2427 0 0 0 0 0 0
2563 0 0 0 0 0 0
2437 0 0 0 0 0 0
2475 0 0 0 0 0 0
2497 0 0 0 0 0 0
2526 0 0 0 0 0 0
2535 0 0 0 0 0 0
2577 0 0 0 0 0 0
2478 0 0 0 0 0 0
2459 0 0 0 0 0 0
2485 0 0 0 0 0 0
2610 0 0 0 0 0 0
1773 0 0 0 0 0 0
1791 0 0 0 0 0 0
1792 0 0 0 0 0 0
1811 0 0 0 0 0 0
1812 0 0 0 0 0 0
1813 0 0 0 0 0 0
2431 0 0 0 0 0 0
2451 0 0 0 0 0 0
2567 0 0 0 0 0 0
1754 0 0 0 0 0 0
1755 0 0 0 0 0 0
1756 0 0 0 0 0 0
1770 0 0 0 0 0 0
1771 0 0 0 0 0 0
1772 0 0 0 0 0 0
1789 0 0 0 0 0 0
1788 0 0 0 0 0 0
1790 0 0 0 0 0 0
1808 0 0 0 0 0 0
1809 0 0 0 0 0 0
1810 0 0 0 0 0 0
2486 0 0 0 0 0 0
2513 0 0 0 0 0 0
2581 0 0 0 0 0 0
1752 0 0 0 0 0 0
1753 0 0 0 0 0 0
1768 0 0 0 0 0 0
1769 0 0 0 0 0 0
1787 0 0 0 0 0 0
1786 0 0 0 0 0 0
1806 0 0 0 0 0 0
1807 0 0 0 0 0 0
2446 0 0 0 0 0 0
2602 0 0 0 0 0 0
2503 0 0 0 0 0 0
2424 0 0 0 0 0 0
2571 0 0 0 0 0 0
2555 0 0 0 0 0 0
2439 0 0 0 0 0 0
2438 0 0 0 0 0 0
2541 0 0 0 0 0 0
2537 0 0 0 0 0 0
2522 0 0 0 0 0 0
2616 0 0 0 0 0 0
2505 0 0 0 0 0 0
1571 0 0 0 0 0 0
1672 0 0 0 0 0 0
2498 0 0 0 0 0 0
2520 0 0 0 0 0 0
2606 0 0 0 0 0 0
2605 0 0 0 0 0 0
2575 0 0 0 0 0 0
1667 0 0 0 0 0 0
1668 0 0 0 0 0 0
1669 0 0 0 0 0 0
1670 0 0 0 0 0 0
1671 0 0 0 0 0 0
1689 0 0 0 0 0 0
1690 0 0 0 0 0 0
1691 0 0 0 0 0 0
1673 0 0 0 0 0 0
1692 0 0 0 0 0 0
1693 0 0 0 0 0 0
1694 0 0 0 0 0 0
1794 0 0 0 0 0 0
1814 0 0 0 0 0 0
1815 0 0 0 0 0 0
2469 0 0 0 0 0 0
2455 0 0 0 0 0 0
1665 0 0 0 0 0 0
1683 0 0 0 0 0 0
1684 0 0 0 0 0 0
1685 0 0 0 0 0 0
2609 0 0 0 0 0 0
1686 0 0 0 0 0 0
1687 0 0 0 0 0 0
1688 0 0 0 0 0 0
1743 0 0 0 0 0 0
1757 0 0 0 0 0 0
1758 0 0 0 0 0 0
1774 0 0 0 0 0 0
1775 0 0 0 0 0 0
4107 0 0 0 0 0 0
1793 0 0 0 0 0 0
4149 0 0 0 0 0 0
2492 0 0 0 0 0 0
2603 0 0 0 0 0 0
1718 0 0 0 0 0 0
2539 0 0 0 0 0 0
1682 0 0 0 0 0 0
1719 0 0 0 0 0 0
1728 0 0 0 0 0 0
1729 0 0 0 0 0 0
1730 0 0 0 0 0 0
1740 0 0 0 0 0 0
1741 0 0 0 0 0 0
1742 0 0 0 0 0 0
4124 0 0 0 0 0 0
4137 0 0 0 0 0 0
2433 0 0 0 0 0 0
1716 0 0 0 0 0 0
1717 0 0 0 0 0 0
1726 0 0 0 0 0 0
1727 0 0 0 0 0 0
1738 0 0 0 0 0 0
4098 0 0 0 0 0 0
1739 0 0 0 0 0 0
4099 0 0 0 0 0 0
2432 0 0 0 0 0 0
2426 0 0 0 0 0 0
2489 0 0 0 0 0 0
2477 0 0 0 0 0 0
2500 0 0 0 0 0 0
2448 0 0 0 0 0 0
2569 0 0 0 0 0 0
2454 0 0 0 0 0 0
2461 0 0 0 0 0 0
2614 0 0 0 0 0 0
2493 0 0 0 0 0 0
2536 0 0 0 0 0 0
2579 0 0 0 0 0 0
1566 0 0 0 0 0 0
2595 0 0 0 0 0 0
1547 0 0 0 0 0 0
2557 0 0 0 0 0 0
2558 0 0 0 0 0 0
2554 0 0 0 0 0 0
1632 0 0 0 0 0 0
1633 0 0 0 0 0 0
1634 0 0 0 0 0 0
1635 0 0 0 0 0 0
1651 0 0 0 0 0 0
1567 0 0 0 0 0 0
1636 0 0 0 0 0 0
1637 0 0 0 0 0 0
1652 0 0 0 0 0 0
1653 0 0 0 0 0 0
1654 0 0 0 0 0 0
4121 0 0 0 0 0 0
1548 0 0 0 0 0 0
1568 0 0 0 0 0 0
1569 0 0 0 0 0 0
1570 0 0 0 0 0 0
2488 0 0 0 0 0 0
2552 0 0 0 0 0 0
2545 0 0 0 0 0 0
2590 0 0 0 0 0 0
1645 0 0 0 0 0 0
2441 0 0 0 0 0 0
1631 0 0 0 0 0 0
1646 0 0 0 0 0 0
1647 0 0 0 0 0 0
1648 0 0 0 0 0 0
1649 0 0 0 0 0 0
1650 0 0 0 0 0 0
1666 0 0 0 0 0 0
4134 0 0 0 0 0 0
4109 0 0 0 0 0 0
2490 0 0 0 0 0 0
2529 0 0 0 0 0 0
2471 0 0 0 0 0 0
1644 0 0 0 0 0 0
1660 0 0 0 0 0 0
1661 0 0 0 0 0 0
1662 0 0 0 0 0 0
1663 0 0 0 0 0 0
1664 0 0 0 0 0 0
4090 0 0 0 0 0 0
4110 0 0 0 0 0 0
4145 0 0 0 0 0 0
2452 0 0 0 0 0 0
1659 0 0 0 0 0 0
1678 0 0 0 0 0 0
1679 0 0 0 0 0 0
1680 0 0 0 0 0 0
1681 0 0 0 0 0 0
1710 0 0 0 0 0 0
4080 0 0 0 0 0 0
4072 0 0 0 0 0 0
2613 0 0 0 0 0 0
2566 0 0 0 0 0 0
1677 0 0 0 0 0 0
1698 0 0 0 0 0 0
1702 0 0 0 0 0 0
1703 0 0 0 0 0 0
1708 0 0 0 0 0 0
1709 0 0 0 0 0 0
4122 0 0 0 0 0 0
4116 0 0 0 0 0 0
4125 0 0 0 0 0 0
4136 0 0 0 0 0 0
4100 0 0 0 0 0 0
2443 0 0 0 0 0 0
2553 0 0 0 0 0 0
2472 0 0 0 0 0 0
2467 0 0 0 0 0 0
2483 0 0 0 0 0 0
2470 0 0 0 0 0 0
2523 0 0 0 0 0 0
2612 0 0 0 0 0 0
2560 0 0 0 0 0 0
2514 0 0 0 0 0 0
2549 0 0 0 0 0 0
2617 0 0 0 0 0 0
1607 0 0 0 0 0 0
1608 0 0 0 0 0 0
1609 0 0 0 0 0 0
1621 0 0 0 0 0 0
1544 0 0 0 0 0 0
1563 0 0 0 0 0 0
1564 0 0 0 0 0 0
1565 0 0 0 0 0 0
1622 0 0 0 0 0 0
1526 0 0 0 0 0 0
1527 0 0 0 0 0 0
1545 0 0 0 0 0 0
1546 0 0 0 0 0 0
2547 0 0 0 0 0 0
2576 0 0 0 0 0 0
2564 0 0 0 0 0 0
1615 0 0 0 0 0 0
2585 0 0 0 0 0 0
1605 0 0 0 0 0 0
1616 0 0 0 0 0 0
1617 0 0 0 0 0 0
1618 0 0 0 0 0 0
1619 0 0 0 0 0 0
1620 0 0 0 0 0 0
4141 0 0 0 0 0 0
4105 0 0 0 0 0 0
4118 0 0 0 0 0 0
2480 0 0 0 0 0 0
2604 0 0 0 0 0 0
1614 0 0 0 0 0 0
1627 0 0 0 0 0 0
1628 0 0 0 0 0 0
1629 0 0 0 0 0 0
1630 0 0 0 0 0 0
4088 0 0 0 0 0 0
4143 0 0 0 0 0 0
4146 0 0 0 0 0 0
4071 0 0 0 0 0 0
4133 0 0 0 0 0 0
2464 0 0 0 0 0 0
2611 0 0 0 0 0 0
1625 0 0 0 0 0 0
1641 0 0 0 0 0 0
1626 0 0 0 0 0 0
1642 0 0 0 0 0 0
1643 0 0 0 0 0 0
4070 0 0 0 0 0 0
4094 0 0 0 0 0 0
4114 0 0 0 0 0 0
4101 0 0 0 0 0 0
4147 0 0 0 0 0 0
2474 0 0 0 0 0 0
1638 0 0 0 0 0 0
1639 0 0 0 0 0 0
1640 0 0 0 0 0 0
1656 0 0 0 0 0 0
1657 0 0 0 0 0 0
1658 0 0 0 0 0 0
4104 0 0 0 0 0 0
2548 0 0 0 0 0 0
1655 0 0 0 0 0 0
1674 0 0 0 0 0 0
1675 0 0 0 0 0 0
1676 0 0 0 0 0 0
2279 0 0 0 0 0 0
2280 0 0 0 0 0 0
2281 0 0 0 0 0 0
4102 0 0 0 0 0 0
4154 0 0 0 0 0 0
4119 0 0 0 0 0 0
2509 0 0 0 0 0 0
2436 0 0 0 0 0 0
2518 0 0 0 0 0 0
2435 0 0 0 0 0 0
2453 0 0 0 0 0 0
2550 0 0 0 0 0 0
2615 0 0 0 0 0 0
2524 0 0 0 0 0 0
2460 0 0 0 0 0 0
2504 0 0 0 0 0 0
1523 0 0 0 0 0 0
1540 0 0 0 0 0 0
1541 0 0 0 0 0 0
1508 0 0 0 0 0 0
1524 0 0 0 0 0 0
2499 0 0 0 0 0 0
2484 0 0 0 0 0 0
1595 0 0 0 0 0 0
1596 0 0 0 0 0 0
1560 0 0 0 0 0 0
1561 0 0 0 0 0 0
1589 0 0 0 0 0 0
1597 0 0 0 0 0 0
1598 0 0 0 0 0 0
1542 0 0 0 0 0 0
1543 0 0 0 0 0 0
1562 0 0 0 0 0 0
1525 0 0 0 0 0 0
4129 0 0 0 0 0 0
2573 0 0 0 0 0 0
2578 0 0 0 0 0 0
2534 0 0 0 0 0 0
1592 0 0 0 0 0 0
1593 0 0 0 0 0 0
1602 0 0 0 0 0 0
1603 0 0 0 0 0 0
1594 0 0 0 0 0 0
1604 0 0 0 0 0 0
1606 0 0 0 0 0 0
1599 0 0 0 0 0 0
1600 0 0 0 0 0 0
1611 0 0 0 0 0 0
1612 0 0 0 0 0 0
1601 0 0 0 0 0 0
1613 0 0 0 0 0 0
4120 0 0 0 0 0 0
4151 0 0 0 0 0 0
4127 0 0 0 0 0 0
4106 0 0 0 0 0 0
2586 0 0 0 0 0 0
2587 0 0 0 0 0 0
1610 0 0 0 0 0 0
1623 0 0 0 0 0 0
1624 0 0 0 0 0 0
2286 0 0 0 0 0 0
2287 0 0 0 0 0 0
4084 0 0 0 0 0 0
4078 0 0 0 0 0 0
4091 0 0 0 0 0 0
2591 0 0 0 0 0 0
2263 0 0 0 0 0 0
2264 0 0 0 0 0 0
2598 0 0 0 0 0 0
2283 0 0 0 0 0 0
2284 0 0 0 0 0 0
2285 0 0 0 0 0 0
4155 0 0 0 0 0 0
4142 0 0 0 0 0 0
4117 0 0 0 0 0 0
4148 0 0 0 0 0 0
2243 0 0 0 0 0 0
2260 0 0 0 0 0 0
2261 0 0 0 0 0 0
2262 0 0 0 0 0 0
2282 0 0 0 0 0 0
4115 0 0 0 0 0 0
4083 0 0 0 0 0 0
4086 0 0 0 0 0 0
2482 0 0 0 0 0 0
2540 0 0 0 0 0 0
2561 0 0 0 0 0 0
2465 0 0 0 0 0 0
2600 0 0 0 0 0 0
2501 0 0 0 0 0 0
2425 0 0 0 0 0 0
2527 0 0 0 0 0 0
2476 0 0 0 0 0 0
2584 0 0 0 0 0 0
2538 0 0 0 0 0 0
1537 0 0 0 0 0 0
1538 0 0 0 0 0 0
2423 0 0 0 0 0 0
1520 0 0 0 0 0 0
1521 0 0 0 0 0 0
1522 0 0 0 0 0 0
1539 0 0 0 0 0 0
1505 0 0 0 0 0 0
1506 0 0 0 0 0 0
1507 0 0 0 0 0 0
2502 0 0 0 0 0 0
2428 0 0 0 0 0 0
2589 0 0 0 0 0 0
1580 0 0 0 0 0 0
1581 0 0 0 0 0 0
1582 0 0 0 0 0 0
1586 0 0 0 0 0 0
1587 0 0 0 0 0 0
1588 0 0 0 0 0 0
4096 0 0 0 0 0 0
1557 0 0 0 0 0 0
1558 0 0 0 0 0 0
1559 0 0 0 0 0 0
4095 0 0 0 0 0 0
2292 0 0 0 0 0 0
1578 0 0 0 0 0 0
1583 0 0 0 0 0 0
1584 0 0 0 0 0 0
1585 0 0 0 0 0 0
1591 0 0 0 0 0 0
2293 0 0 0 0 0 0
4077 0 0 0 0 0 0
2496 0 0 0 0 0 0
1590 0 0 0 0 0 0
2270 0 0 0 0 0 0
2289 0 0 0 0 0 0
2290 0 0 0 0 0 0
2291 0 0 0 0 0 0
4092 0 0 0 0 0 0
4085 0 0 0 0 0 0
4139 0 0 0 0 0 0
2249 0 0 0 0 0 0
2266 0 0 0 0 0 0
2267 0 0 0 0 0 0
2268 0 0 0 0 0 0
2269 0 0 0 0 0 0
2288 0 0 0 0 0 0
4153 0 0 0 0 0 0
4152 0 0 0 0 0 0
4087 0 0 0 0 0 0
2442 0 0 0 0 0 0
2246 0 0 0 0 0 0
2247 0 0 0 0 0 0
2248 0 0 0 0 0 0
2265 0 0 0 0 0 0
4075 0 0 0 0 0 0
4111 0 0 0 0 0 0
4144 0 0 0 0 0 0
4074 0 0 0 0 0 0
2466 0 0 0 0 0 0
2228 0 0 0 0 0 0
2229 0 0 0 0 0 0
2230 0 0 0 0 0 0
2244 0 0 0 0 0 0
2245 0 0 0 0 0 0
4128 0 0 0 0 0 0
4135 0 0 0 0 0 0
4081 0 0 0 0 0 0
4103 0 0 0 0 0 0
2487 0 0 0 0 0 0
2512 0 0 0 0 0 0
2594 0 0 0 0 0 0
2582 0 0 0 0 0 0
2580 0 0 0 0 0 0
2434 0 0 0 0 0 0
1517 0 0 0 0 0 0
1534 0 0 0 0 0 0
1535 0 0 0 0 0 0
1536 0 0 0 0 0 0
1502 0 0 0 0 0 0
1503 0 0 0 0 0 0
1504 0 0 0 0 0 0
1518 0 0 0 0 0 0
1519 0 0 0 0 0 0
1489 0 0 0 0 0 0
1490 0 0 0 0 0 0
1491 0 0 0 0 0 0
2543 0 0 0 0 0 0
1579 0 0 0 0 0 0
2297 0 0 0 0 0 0
1553 0 0 0 0 0 0
1554 0 0 0 0 0 0
1555 0 0 0 0 0 0
1574 0 0 0 0 0 0
1575 0 0 0 0 0 0
1576 0 0 0 0 0 0
1577 0 0 0 0 0 0
1556 0 0 0 0 0 0
4082 0 0 0 0 0 0
4108 0 0 0 0 0 0
2463 0 0 0 0 0 0
2421 0 0 0 0 0 0
2528 0 0 0 0 0 0
2608 0 0 0 0 0 0
2273 0 0 0 0 0 0
2519 0 0 0 0 0 0
2274 0 0 0 0 0 0
2294 0 0 0 0 0 0
2295 0 0 0 0 0 0
2296 0 0 0 0 0 0
4068 0 0 0 0 0 0
4069 0 0 0 0 0 0
4138 0 0 0 0 0 0
4131 0 0 0 0 0 0
2252 0 0 0 0 0 0
2253 0 0 0 0 0 0
2271 0 0 0 0 0 0
2272 0 0 0 0 0 0
4112 0 0 0 0 0 0
4089 0 0 0 0 0 0
4093 0 0 0 0 0 0
4126 0 0 0 0 0 0
4076 0 0 0 0 0 0
2449 0 0 0 0 0 0
2556 0 0 0 0 0 0
2593 0 0 0 0 0 0
2234 0 0 0 0 0 0
2250 0 0 0 0 0 0
2251 0 0 0 0 0 0
4097 0 0 0 0 0 0
4130 0 0 0 0 0 0
4113 0 0 0 0 0 0
4123 0 0 0 0 0 0
2596 0 0 0 0 0 0
2601 0 0 0 0 0 0
2231 0 0 0 0 0 0
2232 0 0 0 0 0 0
2233 0 0 0 0 0 0
4140 0 0 0 0 0 0
4150 0 0 0 0 0 0
2215 0 0 0 0 0 0
2216 0 0 0 0 0 0
2217 0 0 0 0 0 0
4073 0 0 0 0 0 0
4079 0 0 0 0 0 0
4132 0 0 0 0 0 0
1550 0 0 0 0 0 0
1528 0 0 0 0 0 0
1492 0 0 0 0 0 0
1478 0 0 0 0 0 0
1767 0 0 0 0 0 0
1805 0 0 0 0 0 0
1715 0 0 0 0 0 0
1707 0 0 0 0 0 0
1695 0 0 0 0 0 0
2276 0 0 0 0 0 0
2254 0 0 0 0 0 0
2218 0 0 0 0 0 0
2704 0 0 0 0 0 0
2703 0 0 0 0 0 0
2635 0 0 0 0 0 0
2799 0 0 0 0 0 0
2708 0 0 0 0 0 0
2772 0 0 0 0 0 0
2141 0 0 0 0 0 0
2160 0 0 0 0 0 0
2161 0 0 0 0 0 0
2162 0 0 0 0 0 0
2143 0 0 0 0 0 0
2145 0 0 0 0 0 0
2163 0 0 0 0 0 0
2164 0 0 0 0 0 0
2165 0 0 0 0 0 0
2147 0 0 0 0 0 0
2166 0 0 0 0 0 0
2167 0 0 0 0 0 0
2685 0 0 0 0 0 0
723 0 0 0 0 0 0
2278 0 0 0 0 0 0
2298 0 0 0 0 0 0
705 0 0 0 0 0 0
724 0 0 0 0 0 0
725 0 0 0 0 0 0
726 0 0 0 0 0 0
2139 0 0 0 0 0 0
2158 0 0 0 0 0 0
2159 0 0 0 0 0 0
2299 0 0 0 0 0 0
2140 0 0 0 0 0 0
4189 0 0 0 0 0 0
2256 0 0 0 0 0 0
2257 0 0 0 0 0 0
2258 0 0 0 0 0 0
2259 0 0 0 0 0 0
2275 0 0 0 0 0 0
45 0 0 0 0 0 0
2277 0 0 0 0 0 0
4199 0 0 0 0 0 0
4224 0 0 0 0 0 0
4203 0 0 0 0 0 0
2779 0 0 0 0 0 0
2237 0 0 0 0 0 0
2238 0 0 0 0 0 0
2239 0 0 0 0 0 0
2240 0 0 0 0 0 0
2070 0 0 0 0 0 0
2255 0 0 0 0 0 0
4184 0 0 0 0 0 0
4185 0 0 0 0 0 0
2652 0 0 0 0 0 0
2681 0 0 0 0 0 0
2780 0 0 0 0 0 0
2221 0 0 0 0 0 0
2222 0 0 0 0 0 0
2235 0 0 0 0 0 0
2236 0 0 0 0 0 0
2223 0 0 0 0 0 0
2788 0 0 0 0 0 0
2207 0 0 0 0 0 0
2208 0 0 0 0 0 0
2088 0 0 0 0 0 0
2219 0 0 0 0 0 0
2220 0 0 0 0 0 0
4214 0 0 0 0 0 0
4221 0 0 0 0 0 0
4168 0 0 0 0 0 0
2195 0 0 0 0 0 0
2204 0 0 0 0 0 0
2205 0 0 0 0 0 0
2206 0 0 0 0 0 0
4202 0 0 0 0 0 0
4172 0 0 0 0 0 0
4180 0 0 0 0 0 0
4170 0 0 0 0 0 0
4197 0 0 0 0 0 0
4207 0 0 0 0 0 0
2696 0 0 0 0 0 0
2625 0 0 0 0 0 0
2723 0 0 0 0 0 0
2649 0 0 0 0 0 0
2771 0 0 0 0 0 0
2757 0 0 0 0 0 0
2642 0 0 0 0 0 0
2675 0 0 0 0 0 0
2680 0 0 0 0 0 0
2662 0 0 0 0 0 0
2124 0 0 0 0 0 0
2142 0 0 0 0 0 0
2125 0 0 0 0 0 0
2126 0 0 0 0 0 0
2127 0 0 0 0 0 0
2144 0 0 0 0 0 0
2684 0 0 0 0 0 0
2128 0 0 0 0 0 0
2129 0 0 0 0 0 0
2146 0 0 0 0 0 0
2763 0 0 0 0 0 0
2777 0 0 0 0 0 0
2804 0 0 0 0 0 0
684 0 0 0 0 0 0
685 0 0 0 0 0 0
686 0 0 0 0 0 0
702 0 0 0 0 0 0
703 0 0 0 0 0 0
704 0 0 0 0 0 0
2107 0 0 0 0 0 0
2122 0 0 0 0 0 0
2123 0 0 0 0 0 0
4198 0 0 0 0 0 0
2802 0 0 0 0 0 0
2241 0 0 0 0 0 0
701 0 0 0 0 0 0
719 0 0 0 0 0 0
720 0 0 0 0 0 0
721 0 0 0 0 0 0
722 0 0 0 0 0 0
2242 0 0 0 0 0 0
4193 0 0 0 0 0 0
4164 0 0 0 0 0 0
4169 0 0 0 0 0 0
4233 0 0 0 0 0 0
4222 0 0 0 0 0 0
2784 0 0 0 0 0 0
2820 0 0 0 0 0 0
718 0 0 0 0 0 0
2214 0 0 0 0 0 0
2225 0 0 0 0 0 0
2226 0 0 0 0 0 0
2227 0 0 0 0 0 0
4188 0 0 0 0 0 0
4220 0 0 0 0 0 0
4225 0 0 0 0 0 0
4190 0 0 0 0 0 0
4230 0 0 0 0 0 0
4187 0 0 0 0 0 0
4205 0 0 0 0 0 0
4165 0 0 0 0 0 0
4211 0 0 0 0 0 0
2754 0 0 0 0 0 0
2201 0 0 0 0 0 0
2210 0 0 0 0 0 0
2211 0 0 0 0 0 0
2212 0 0 0 0 0 0
2213 0 0 0 0 0 0
2224 0 0 0 0 0 0
4157 0 0 0 0 0 0
4219 0 0 0 0 0 0
2198 0 0 0 0 0 0
2199 0 0 0 0 0 0
2200 0 0 0 0 0 0
2209 0 0 0 0 0 0
4181 0 0 0 0 0 0
4177 0 0 0 0 0 0
2759 0 0 0 0 0 0
2188 0 0 0 0 0 0
2189 0 0 0 0 0 0
2190 0 0 0 0 0 0
2196 0 0 0 0 0 0
2197 0 0 0 0 0 0
4215 0 0 0 0 0 0
4161 0 0 0 0 0 0
4171 0 0 0 0 0 0
4186 0 0 0 0 0 0
4227 0 0 0 0 0 0
4167 0 0 0 0 0 0
4176 0 0 0 0 0 0
2737 0 0 0 0 0 0
2755 0 0 0 0 0 0
2735 0 0 0 0 0 0
2773 0 0 0 0 0 0
2719 0 0 0 0 0 0
2638 0 0 0 0 0 0
2109 0 0 0 0 0 0
2110 0 0 0 0 0 0
2111 0 0 0 0 0 0
2112 0 0 0 0 0 0
2113 0 0 0 0 0 0
2808 0 0 0 0 0 0
2634 0 0 0 0 0 0
2734 0 0 0 0 0 0
2695 0 0 0 0 0 0
2621 0 0 0 0 0 0
667 0 0 0 0 0 0
683 0 0 0 0 0 0
654 0 0 0 0 0 0
668 0 0 0 0 0 0
669 0 0 0 0 0 0
2094 0 0 0 0 0 0
2108 0 0 0 0 0 0
2095 0 0 0 0 0 0
2096 0 0 0 0 0 0
2097 0 0 0 0 0 0
2098 0 0 0 0 0 0
2706 0 0 0 0 0 0
2782 0 0 0 0 0 0
680 0 0 0 0 0 0
698 0 0 0 0 0 0
699 0 0 0 0 0 0
700 0 0 0 0 0 0
666 0 0 0 0 0 0
681 0 0 0 0 0 0
682 0 0 0 0 0 0
4232 0 0 0 0 0 0
2823 0 0 0 0 0 0
2787 0 0 0 0 0 0
695 0 0 0 0 0 0
715 0 0 0 0 0 0
716 0 0 0 0 0 0
717 0 0 0 0 0 0
696 0 0 0 0 0 0
697 0 0 0 0 0 0
4228 0 0 0 0 0 0
4231 0 0 0 0 0 0
4213 0 0 0 0 0 0
2800 0 0 0 0 0 0
2824 0 0 0 0 0 0
712 0 0 0 0 0 0
713 0 0 0 0 0 0
714 0 0 0 0 0 0
2202 0 0 0 0 0 0
2203 0 0 0 0 0 0
4206 0 0 0 0 0 0
4195 0 0 0 0 0 0
4212 0 0 0 0 0 0
4173 0 0 0 0 0 0
4196 0 0 0 0 0 0
2727 0 0 0 0 0 0
2728 0 0 0 0 0 0
2191 0 0 0 0 0 0
2192 0 0 0 0 0 0
2187 0 0 0 0 0 0
2193 0 0 0 0 0 0
2194 0 0 0 0 0 0
4234 0 0 0 0 0 0
4218 0 0 0 0 0 0
4182 0 0 0 0 0 0
4192 0 0 0 0 0 0
4200 0 0 0 0 0 0
2825 0 0 0 0 0 0
2180 0 0 0 0 0 0
2183 0 0 0 0 0 0
2184 0 0 0 0 0 0
2185 0 0 0 0 0 0
2186 0 0 0 0 0 0
4160 0 0 0 0 0 0
2694 0 0 0 0 0 0
2753 0 0 0 0 0 0
2819 0 0 0 0 0 0
2690 0 0 0 0 0 0
2711 0 0 0 0 0 0
2653 0 0 0 0 0 0
2797 0 0 0 0 0 0
2707 0 0 0 0 0 0
2796 0 0 0 0 0 0
2758 0 0 0 0 0 0
640 0 0 0 0 0 0
641 0 0 0 0 0 0
652 0 0 0 0 0 0
653 0 0 0 0 0 0
630 0 0 0 0 0 0
2074 0 0 0 0 0 0
2083 0 0 0 0 0 0
2084 0 0 0 0 0 0
2085 0 0 0 0 0 0
2076 0 0 0 0 0 0
2086 0 0 0 0 0 0
2087 0 0 0 0 0 0
2099 0 0 0 0 0 0
2785 0 0 0 0 0 0
2731 0 0 0 0 0 0
2798 0 0 0 0 0 0
679 0 0 0 0 0 0
2691 0 0 0 0 0 0
650 0 0 0 0 0 0
663 0 0 0 0 0 0
664 0 0 0 0 0 0
665 0 0 0 0 0 0
639 0 0 0 0 0 0
651 0 0 0 0 0 0
4194 0 0 0 0 0 0
4210 0 0 0 0 0 0
2641 0 0 0 0 0 0
2736 0 0 0 0 0 0
661 0 0 0 0 0 0
676 0 0 0 0 0 0
677 0 0 0 0 0 0
678 0 0 0 0 0 0
662 0 0 0 0 0 0
4191 0 0 0 0 0 0
4166 0 0 0 0 0 0
4204 0 0 0 0 0 0
4235 0 0 0 0 0 0
2656 0 0 0 0 0 0
692 0 0 0 0 0 0
693 0 0 0 0 0 0
674 0 0 0 0 0 0
675 0 0 0 0 0 0
694 0 0 0 0 0 0
4217 0 0 0 0 0 0
2686 0 0 0 0 0 0
689 0 0 0 0 0 0
690 0 0 0 0 0 0
691 0 0 0 0 0 0
709 0 0 0 0 0 0
710 0 0 0 0 0 0
711 0 0 0 0 0 0
4158 0 0 0 0 0 0
4229 0 0 0 0 0 0
4201 0 0 0 0 0 0
2760 0 0 0 0 0 0
687 0 0 0 0 0 0
706 0 0 0 0 0 0
707 0 0 0 0 0 0
708 0 0 0 0 0 0
2179 0 0 0 0 0 0
2181 0 0 0 0 0 0
2182 0 0 0 0 0 0
4162 0 0 0 0 0 0
4226 0 0 0 0 0 0
2636 0 0 0 0 0 0
2786 0 0 0 0 0 0
2666 0 0 0 0 0 0
2682 0 0 0 0 0 0
2640 0 0 0 0 0 0
2697 0 0 0 0 0 0
2769 0 0 0 0 0 0
2761 0 0 0 0 0 0
2674 0 0 0 0 0 0
2762 0 0 0 0 0 0
2770 0 0 0 0 0 0
2676 0 0 0 0 0 0
2075 0 0 0 0 0 0
2721 0 0 0 0 0 0
2077 0 0 0 0 0 0
2814 0 0 0 0 0 0
649 0 0 0 0 0 0
627 0 0 0 0 0 0
628 0 0 0 0 0 0
637 0 0 0 0 0 0
638 0 0 0 0 0 0
614 0 0 0 0 0 0
619 0 0 0 0 0 0
620 0 0 0 0 0 0
621 0 0 0 0 0 0
629 0 0 0 0 0 0
2067 0 0 0 0 0 0
2062 0 0 0 0 0 0
2063 0 0 0 0 0 0
2068 0 0 0 0 0 0
2069 0 0 0 0 0 0
2644 0 0 0 0 0 0
2778 0 0 0 0 0 0
660 0 0 0 0 0 0
2626 0 0 0 0 0 0
635 0 0 0 0 0 0
646 0 0 0 0 0 0
647 0 0 0 0 0 0
648 0 0 0 0 0 0
626 0 0 0 0 0 0
634 0 0 0 0 0 0
636 0 0 0 0 0 0
4208 0 0 0 0 0 0
4209 0 0 0 0 0 0
2767 0 0 0 0 0 0
657 0 0 0 0 0 0
658 0 0 0 0 0 0
659 0 0 0 0 0 0
673 0 0 0 0 0 0
644 0 0 0 0 0 0
645 0 0 0 0 0 0
4223 0 0 0 0 0 0
4183 0 0 0 0 0 0
2623 0 0 0 0 0 0
2692 0 0 0 0 0 0
107 0 0 0 0 0 0
655 0 0 0 0 0 0
656 0 0 0 0 0 0
670 0 0 0 0 0 0
671 0 0 0 0 0 0
672 0 0 0 0 0 0
4174 0 0 0 0 0 0
4178 0 0 0 0 0 0
2670 0 0 0 0 0 0
103 0 0 0 0 0 0
688 0 0 0 0 0 0
86 0 0 0 0 0 0
104 0 0 0 0 0 0
105 0 0 0 0 0 0
106 0 0 0 0 0 0
4163 0 0 0 0 0 0
4175 0 0 0 0 0 0
4179 0 0 0 0 0 0
4216 0 0 0 0 0 0
2752 0 0 0 0 0 0
2776 0 0 0 0 0 0
2650 0 0 0 0 0 0
2667 0 0 0 0 0 0
2739 0 0 0 0 0 0
2726 0 0 0 0 0 0
2756 0 0 0 0 0 0
2775 0 0 0 0 0 0
2766 0 0 0 0 0 0
2679 0 0 0 0 0 0
2729 0 0 0 0 0 0
2633 0 0 0 0 0 0
2716 0 0 0 0 0 0
2809 0 0 0 0 0 0
2750 0 0 0 0 0 0
2693 0 0 0 0 0 0
2806 0 0 0 0 0 0
2669 0 0 0 0 0 0
2715 0 0 0 0 0 0
2791 0 0 0 0 0 0
2768 0 0 0 0 0 0
2821 0 0 0 0 0 0
613 0 0 0 0 0 0
2059 0 0 0 0 0 0
2781 0 0 0 0 0 0
624 0 0 0 0 0 0
625 0 0 0 0 0 0
610 0 0 0 0 0 0
611 0 0 0 0 0 0
612 0 0 0 0 0 0
616 0 0 0 0 0 0
617 0 0 0 0 0 0
618 0 0 0 0 0 0
119 0 0 0 0 0 0
120 0 0 0 0 0 0
121 0 0 0 0 0 0
606 0 0 0 0 0 0
607 0 0 0 0 0 0
608 0 0 0 0 0 0
609 0 0 0 0 0 0
2687 0 0 0 0 0 0
2654 0 0 0 0 0 0
2673 0 0 0 0 0 0
631 0 0 0 0 0 0
632 0 0 0 0 0 0
633 0 0 0 0 0 0
643 0 0 0 0 0 0
113 0 0 0 0 0 0
114 0 0 0 0 0 0
615 0 0 0 0 0 0
622 0 0 0 0 0 0
623 0 0 0 0 0 0
115 0 0 0 0 0 0
116 0 0 0 0 0 0
117 0 0 0 0 0 0
118 0 0 0 0 0 0
2631 0 0 0 0 0 0
2643 0 0 0 0 0 0
2657 0 0 0 0 0 0
108 0 0 0 0 0 0
90 0 0 0 0 0 0
109 0 0 0 0 0 0
110 0 0 0 0 0 0
111 0 0 0 0 0 0
642 0 0 0 0 0 0
91 0 0 0 0 0 0
92 0 0 0 0 0 0
112 0 0 0 0 0 0
4159 0 0 0 0 0 0
4156 0 0 0 0 0 0
2732 0 0 0 0 0 0
2748 0 0 0 0 0 0
87 0 0 0 0 0 0
71 0 0 0 0 0 0
72 0 0 0 0 0 0
88 0 0 0 0 0 0
89 0 0 0 0 0 0
73 0 0 0 0 0 0
2698 0 0 0 0 0 0
2792 0 0 0 0 0 0
2665 0 0 0 0 0 0
2801 0 0 0 0 0 0
2817 0 0 0 0 0 0
2668 0 0 0 0 0 0
2740 0 0 0 0 0 0
2718 0 0 0 0 0 0
2745 0 0 0 0 0 0
2794 0 0 0 0 0 0
2720 0 0 0 0 0 0
2713 0 0 0 0 0 0
2710 0 0 0 0 0 0
2651 0 0 0 0 0 0
2805 0 0 0 0 0 0
2812 0 0 0 0 0 0
2818 0 0 0 0 0 0
2645 0 0 0 0 0 0
2813 0 0 0 0 0 0
2803 0 0 0 0 0 0
2783 0 0 0 0 0 0
2647 0 0 0 0 0 0
2790 0 0 0 0 0 0
2632 0 0 0 0 0 0
2717 0 0 0 0 0 0
2811 0 0 0 0 0 0
2660 0 0 0 0 0 0
2683 0 0 0 0 0 0
96 0 0 0 0 0 0
97 0 0 0 0 0 0
81 0 0 0 0 0 0
98 0 0 0 0 0 0
99 0 0 0 0 0 0
100 0 0 0 0 0 0
2701 0 0 0 0 0 0
2733 0 0 0 0 0 0
2627 0 0 0 0 0 0
2746 0 0 0 0 0 0
75 0 0 0 0 0 0
93 0 0 0 0 0 0
94 0 0 0 0 0 0
2705 0 0 0 0 0 0
76 0 0 0 0 0 0
77 0 0 0 0 0 0
78 0 0 0 0 0 0
95 0 0 0 0 0 0
2699 0 0 0 0 0 0
62 0 0 0 0 0 0
63 0 0 0 0 0 0
64 0 0 0 0 0 0
79 0 0 0 0 0 0
80 0 0 0 0 0 0
2689 0 0 0 0 0 0
2725 0 0 0 0 0 0
2741 0 0 0 0 0 0
2810 0 0 0 0 0 0
2764 0 0 0 0 0 0
58 0 0 0 0 0 0
74 0 0 0 0 0 0
2629 0 0 0 0 0 0
59 0 0 0 0 0 0
60 0 0 0 0 0 0
61 0 0 0 0 0 0
47 0 0 0 0 0 0
48 0 0 0 0 0 0
49 0 0 0 0 0 0
2622 0 0 0 0 0 0
2702 0 0 0 0 0 0
2659 0 0 0 0 0 0
2620 0 0 0 0 0 0
2639 0 0 0 0 0 0
2663 0 0 0 0 0 0
2744 0 0 0 0 0 0
2709 0 0 0 0 0 0
2677 0 0 0 0 0 0
2807 0 0 0 0 0 0
2749 0 0 0 0 0 0
2730 0 0 0 0 0 0
2671 0 0 0 0 0 0
2793 0 0 0 0 0 0
2724 0 0 0 0 0 0
2795 0 0 0 0 0 0
2714 0 0 0 0 0 0
2822 0 0 0 0 0 0
2751 0 0 0 0 0 0
2655 0 0 0 0 0 0
2664 0 0 0 0 0 0
2712 0 0 0 0 0 0
2738 0 0 0 0 0 0
2747 0 0 0 0 0 0
2742 0 0 0 0 0 0
2678 0 0 0 0 0 0
2624 0 0 0 0 0 0
2637 0 0 0 0 0 0
2743 0 0 0 0 0 0
2789 0 0 0 0 0 0
2630 0 0 0 0 0 0
2700 0 0 0 0 0 0
2628 0 0 0 0 0 0
2672 0 0 0 0 0 0
2646 0 0 0 0 0 0
2661 0 0 0 0 0 0
2774 0 0 0 0 0 0
2722 0 0 0 0 0 0
2658 0 0 0 0 0 0
2648 0 0 0 0 0 0
2688 0 0 0 0 0 0
2765 0 0 0 0 0 0
2815 0 0 0 0 0 0
2816 0 0 0 0 0 0
2100 0 0 0 0 0 0
2078 0 0 0 0 0 0
2979 0 0 0 0 0 0
2941 0 0 0 0 0 0
2994 0 0 0 0 0 0
2831 0 0 0 0 0 0
2963 0 0 0 0 0 0
2968 0 0 0 0 0 0
2978 0 0 0 0 0 0
2900 0 0 0 0 0 0
2891 0 0 0 0 0 0
3011 0 0 0 0 0 0
2973 0 0 0 0 0 0
2953 0 0 0 0 0 0
2850 0 0 0 0 0 0
2852 0 0 0 0 0 0
2972 0 0 0 0 0 0
2854 0 0 0 0 0 0
2857 0 0 0 0 0 0
2876 0 0 0 0 0 0
3018 0 0 0 0 0 0
3021 0 0 0 0 0 0
2892 0 0 0 0 0 0
2928 0 0 0 0 0 0
3019 0 0 0 0 0 0
2866 0 0 0 0 0 0
2889 0 0 0 0 0 0
2913 0 0 0 0 0 0
3014 0 0 0 0 0 0
3013 0 0 0 0 0 0
3012 0 0 0 0 0 0
2958 0 0 0 0 0 0
2984 0 0 0 0 0 0
3005 0 0 0 0 0 0
2939 0 0 0 0 0 0
2927 0 0 0 0 0 0
2975 0 0 0 0 0 0
2828 0 0 0 0 0 0
2954 0 0 0 0 0 0
2989 0 0 0 0 0 0
2874 0 0 0 0 0 0
2981 0 0 0 0 0 0
2887 0 0 0 0 0 0
1737 0 0 0 0 0 0
1749 0 0 0 0 0 0
1750 0 0 0 0 0 0
1751 0 0 0 0 0 0
1765 0 0 0 0 0 0
1766 0 0 0 0 0 0
873 0 0 0 0 0 0
1783 0 0 0 0 0 0
1785 0 0 0 0 0 0
1784 0 0 0 0 0 0
1803 0 0 0 0 0 0
1804 0 0 0 0 0 0
887 0 0 0 0 0 0
2896 0 0 0 0 0 0
2902 0 0 0 0 0 0
1746 0 0 0 0 0 0
1747 0 0 0 0 0 0
1748 0 0 0 0 0 0
1762 0 0 0 0 0 0
1763 0 0 0 0 0 0
1764 0 0 0 0 0 0
1781 0 0 0 0 0 0
1780 0 0 0 0 0 0
1782 0 0 0 0 0 0
1800 0 0 0 0 0 0
1801 0 0 0 0 0 0
1802 0 0 0 0 0 0
2843 0 0 0 0 0 0
2833 0 0 0 0 0 0
2990 0 0 0 0 0 0
2845 0 0 0 0 0 0
3002 0 0 0 0 0 0
3004 0 0 0 0 0 0
1761 0 0 0 0 0 0
1779 0 0 0 0 0 0
2870 0 0 0 0 0 0
2908 0 0 0 0 0 0
1778 0 0 0 0 0 0
1797 0 0 0 0 0 0
1798 0 0 0 0 0 0
1799 0 0 0 0 0 0
2879 0 0 0 0 0 0
2856 0 0 0 0 0 0
2950 0 0 0 0 0 0
2839 0 0 0 0 0 0
2959 0 0 0 0 0 0
2835 0 0 0 0 0 0
2886 0 0 0 0 0 0
2931 0 0 0 0 0 0
2915 0 0 0 0 0 0
2916 0 0 0 0 0 0
2974 0 0 0 0 0 0
2929 0 0 0 0 0 0
2864 0 0 0 0 0 0
2917 0 0 0 0 0 0
2977 0 0 0 0 0 0
2976 0 0 0 0 0 0
2863 0 0 0 0 0 0
2853 0 0 0 0 0 0
2838 0 0 0 0 0 0
2832 0 0 0 0 0 0
2918 0 0 0 0 0 0
2960 0 0 0 0 0 0
2949 0 0 0 0 0 0
2991 0 0 0 0 0 0
3017 0 0 0 0 0 0
2956 0 0 0 0 0 0
2841 0 0 0 0 0 0
1714 0 0 0 0 0 0
1713 0 0 0 0 0 0
2961 0 0 0 0 0 0
1723 0 0 0 0 0 0
1724 0 0 0 0 0 0
1725 0 0 0 0 0 0
1736 0 0 0 0 0 0
1735 0 0 0 0 0 0
4263 0 0 0 0 0 0
4274 0 0 0 0 0 0
2951 0 0 0 0 0 0
1712 0 0 0 0 0 0
1711 0 0 0 0 0 0
1720 0 0 0 0 0 0
1721 0 0 0 0 0 0
1722 0 0 0 0 0 0
2412 0 0 0 0 0 0
1732 0 0 0 0 0 0
1733 0 0 0 0 0 0
1734 0 0 0 0 0 0
4320 0 0 0 0 0 0
4321 0 0 0 0 0 0
2986 0 0 0 0 0 0
2858 0 0 0 0 0 0
2389 0 0 0 0 0 0
2409 0 0 0 0 0 0
2410 0 0 0 0 0 0
2411 0 0 0 0 0 0
1731 0 0 0 0 0 0
1745 0 0 0 0 0 0
2406 0 0 0 0 0 0
2407 0 0 0 0 0 0
2408 0 0 0 0 0 0
1744 0 0 0 0 0 0
1759 0 0 0 0 0 0
1760 0 0 0 0 0 0
4326 0 0 0 0 0 0
1777 0 0 0 0 0 0
4236 0 0 0 0 0 0
2842 0 0 0 0 0 0
2942 0 0 0 0 0 0
2849 0 0 0 0 0 0
2386 0 0 0 0 0 0
2387 0 0 0 0 0 0
2383 0 0 0 0 0 0
2384 0 0 0 0 0 0
2385 0 0 0 0 0 0
2403 0 0 0 0 0 0
2404 0 0 0 0 0 0
2405 0 0 0 0 0 0
1776 0 0 0 0 0 0
1795 0 0 0 0 0 0
1796 0 0 0 0 0 0
2381 0 0 0 0 0 0
2400 0 0 0 0 0 0
2401 0 0 0 0 0 0
2402 0 0 0 0 0 0
2894 0 0 0 0 0 0
2898 0 0 0 0 0 0
2934 0 0 0 0 0 0
2873 0 0 0 0 0 0
2940 0 0 0 0 0 0
2862 0 0 0 0 0 0
2985 0 0 0 0 0 0
2992 0 0 0 0 0 0
947 0 0 0 0 0 0
2382 0 0 0 0 0 0
2847 0 0 0 0 0 0
2957 0 0 0 0 0 0
2878 0 0 0 0 0 0
2932 0 0 0 0 0 0
2965 0 0 0 0 0 0
2969 0 0 0 0 0 0
2923 0 0 0 0 0 0
2937 0 0 0 0 0 0
2901 0 0 0 0 0 0
2872 0 0 0 0 0 0
2907 0 0 0 0 0 0
2933 0 0 0 0 0 0
2921 0 0 0 0 0 0
2946 0 0 0 0 0 0
2877 0 0 0 0 0 0
1696 0 0 0 0 0 0
1697 0 0 0 0 0 0
2417 0 0 0 0 0 0
2924 0 0 0 0 0 0
1699 0 0 0 0 0 0
1700 0 0 0 0 0 0
1701 0 0 0 0 0 0
1705 0 0 0 0 0 0
1706 0 0 0 0 0 0
2995 0 0 0 0 0 0
4332 0 0 0 0 0 0
4265 0 0 0 0 0 0
2867 0 0 0 0 0 0
1704 0 0 0 0 0 0
2395 0 0 0 0 0 0
2413 0 0 0 0 0 0
2414 0 0 0 0 0 0
2415 0 0 0 0 0 0
2416 0 0 0 0 0 0
4288 0 0 0 0 0 0
4278 0 0 0 0 0 0
2374 0 0 0 0 0 0
2392 0 0 0 0 0 0
2393 0 0 0 0 0 0
2394 0 0 0 0 0 0
2390 0 0 0 0 0 0
2391 0 0 0 0 0 0
4304 0 0 0 0 0 0
4316 0 0 0 0 0 0
2897 0 0 0 0 0 0
2373 0 0 0 0 0 0
2914 0 0 0 0 0 0
2355 0 0 0 0 0 0
2370 0 0 0 0 0 0
2371 0 0 0 0 0 0
2372 0 0 0 0 0 0
2368 0 0 0 0 0 0
2369 0 0 0 0 0 0
2388 0 0 0 0 0 0
4284 0 0 0 0 0 0
4253 0 0 0 0 0 0
2885 0 0 0 0 0 0
2827 0 0 0 0 0 0
2880 0 0 0 0 0 0
2926 0 0 0 0 0 0
2354 0 0 0 0 0 0
2351 0 0 0 0 0 0
2352 0 0 0 0 0 0
2353 0 0 0 0 0 0
2367 0 0 0 0 0 0
911 0 0 0 0 0 0
2349 0 0 0 0 0 0
2350 0 0 0 0 0 0
2364 0 0 0 0 0 0
2365 0 0 0 0 0 0
2366 0 0 0 0 0 0
926 0 0 0 0 0 0
927 0 0 0 0 0 0
928 0 0 0 0 0 0
946 0 0 0 0 0 0
4324 0 0 0 0 0 0
3003 0 0 0 0 0 0
2997 0 0 0 0 0 0
2947 0 0 0 0 0 0
910 0 0 0 0 0 0
925 0 0 0 0 0 0
2860 0 0 0 0 0 0
2855 0 0 0 0 0 0
2971 0 0 0 0 0 0
2938 0 0 0 0 0 0
2948 0 0 0 0 0 0
2912 0 0 0 0 0 0
3010 0 0 0 0 0 0
2846 0 0 0 0 0 0
2967 0 0 0 0 0 0
845 0 0 0 0 0 0
846 0 0 0 0 0 0
847 0 0 0 0 0 0
2899 0 0 0 0 0 0
2399 0 0 0 0 0 0
2418 0 0 0 0 0 0
2419 0 0 0 0 0 0
2420 0 0 0 0 0 0
4269 0 0 0 0 0 0
4243 0 0 0 0 0 0
4240 0 0 0 0 0 0
4255 0 0 0 0 0 0
4315 0 0 0 0 0 0
2829 0 0 0 0 0 0
2882 0 0 0 0 0 0
2378 0 0 0 0 0 0
2379 0 0 0 0 0 0
2380 0 0 0 0 0 0
2396 0 0 0 0 0 0
2397 0 0 0 0 0 0
2398 0 0 0 0 0 0
4275 0 0 0 0 0 0
4319 0 0 0 0 0 0
4317 0 0 0 0 0 0
2905 0 0 0 0 0 0
2361 0 0 0 0 0 0
2377 0 0 0 0 0 0
2360 0 0 0 0 0 0
2375 0 0 0 0 0 0
2376 0 0 0 0 0 0
4312 0 0 0 0 0 0
2830 0 0 0 0 0 0
2998 0 0 0 0 0 0
3008 0 0 0 0 0 0
2344 0 0 0 0 0 0
2357 0 0 0 0 0 0
2358 0 0 0 0 0 0
2359 0 0 0 0 0 0
2356 0 0 0 0 0 0
4247 0 0 0 0 0 0
4237 0 0 0 0 0 0
4330 0 0 0 0 0 0
3020 0 0 0 0 0 0
2859 0 0 0 0 0 0
2883 0 0 0 0 0 0
2935 0 0 0 0 0 0
2343 0 0 0 0 0 0
2840 0 0 0 0 0 0
2329 0 0 0 0 0 0
2340 0 0 0 0 0 0
2341 0 0 0 0 0 0
2342 0 0 0 0 0 0
2338 0 0 0 0 0 0
2339 0 0 0 0 0 0
4276 0 0 0 0 0 0
4323 0 0 0 0 0 0
2325 0 0 0 0 0 0
2326 0 0 0 0 0 0
2327 0 0 0 0 0 0
2337 0 0 0 0 0 0
883 0 0 0 0 0 0
894 0 0 0 0 0 0
895 0 0 0 0 0 0
896 0 0 0 0 0 0
2336 0 0 0 0 0 0
906 0 0 0 0 0 0
907 0 0 0 0 0 0
908 0 0 0 0 0 0
909 0 0 0 0 0 0
2993 0 0 0 0 0 0
3009 0 0 0 0 0 0
3015 0 0 0 0 0 0
2945 0 0 0 0 0 0
2980 0 0 0 0 0 0
2888 0 0 0 0 0 0
2955 0 0 0 0 0 0
2987 0 0 0 0 0 0
3022 0 0 0 0 0 0
2861 0 0 0 0 0 0
807 0 0 0 0 0 0
824 0 0 0 0 0 0
825 0 0 0 0 0 0
826 0 0 0 0 0 0
844 0 0 0 0 0 0
4259 0 0 0 0 0 0
4280 0 0 0 0 0 0
4307 0 0 0 0 0 0
4241 0 0 0 0 0 0
822 0 0 0 0 0 0
823 0 0 0 0 0 0
841 0 0 0 0 0 0
842 0 0 0 0 0 0
843 0 0 0 0 0 0
4289 0 0 0 0 0 0
4306 0 0 0 0 0 0
4258 0 0 0 0 0 0
3006 0 0 0 0 0 0
839 0 0 0 0 0 0
840 0 0 0 0 0 0
2348 0 0 0 0 0 0
2362 0 0 0 0 0 0
2363 0 0 0 0 0 0
4277 0 0 0 0 0 0
4261 0 0 0 0 0 0
4295 0 0 0 0 0 0
4266 0 0 0 0 0 0
4308 0 0 0 0 0 0
2919 0 0 0 0 0 0
2334 0 0 0 0 0 0
2335 0 0 0 0 0 0
2346 0 0 0 0 0 0
2347 0 0 0 0 0 0
2925 0 0 0 0 0 0
2333 0 0 0 0 0 0
2345 0 0 0 0 0 0
4245 0 0 0 0 0 0
4283 0 0 0 0 0 0
4292 0 0 0 0 0 0
2904 0 0 0 0 0 0
2321 0 0 0 0 0 0
2322 0 0 0 0 0 0
2331 0 0 0 0 0 0
2332 0 0 0 0 0 0
2890 0 0 0 0 0 0
2320 0 0 0 0 0 0
2328 0 0 0 0 0 0
2330 0 0 0 0 0 0
4270 0 0 0 0 0 0
4249 0 0 0 0 0 0
4286 0 0 0 0 0 0
4313 0 0 0 0 0 0
4250 0 0 0 0 0 0
4262 0 0 0 0 0 0
2962 0 0 0 0 0 0
3016 0 0 0 0 0 0
2952 0 0 0 0 0 0
2318 0 0 0 0 0 0
2319 0 0 0 0 0 0
2851 0 0 0 0 0 0
871 0 0 0 0 0 0
872 0 0 0 0 0 0
2309 0 0 0 0 0 0
2316 0 0 0 0 0 0
2317 0 0 0 0 0 0
881 0 0 0 0 0 0
882 0 0 0 0 0 0
893 0 0 0 0 0 0
892 0 0 0 0 0 0
2834 0 0 0 0 0 0
2970 0 0 0 0 0 0
2871 0 0 0 0 0 0
2906 0 0 0 0 0 0
2920 0 0 0 0 0 0
2982 0 0 0 0 0 0
2895 0 0 0 0 0 0
870 0 0 0 0 0 0
879 0 0 0 0 0 0
880 0 0 0 0 0 0
890 0 0 0 0 0 0
891 0 0 0 0 0 0
2837 0 0 0 0 0 0
2988 0 0 0 0 0 0
3000 0 0 0 0 0 0
2922 0 0 0 0 0 0
788 0 0 0 0 0 0
789 0 0 0 0 0 0
790 0 0 0 0 0 0
805 0 0 0 0 0 0
806 0 0 0 0 0 0
4254 0 0 0 0 0 0
4311 0 0 0 0 0 0
4296 0 0 0 0 0 0
4252 0 0 0 0 0 0
4305 0 0 0 0 0 0
802 0 0 0 0 0 0
803 0 0 0 0 0 0
804 0 0 0 0 0 0
821 0 0 0 0 0 0
4329 0 0 0 0 0 0
4310 0 0 0 0 0 0
4297 0 0 0 0 0 0
2911 0 0 0 0 0 0
801 0 0 0 0 0 0
819 0 0 0 0 0 0
820 0 0 0 0 0 0
2964 0 0 0 0 0 0
817 0 0 0 0 0 0
818 0 0 0 0 0 0
838 0 0 0 0 0 0
4322 0 0 0 0 0 0
4328 0 0 0 0 0 0
4271 0 0 0 0 0 0
4290 0 0 0 0 0 0
4294 0 0 0 0 0 0
4256 0 0 0 0 0 0
4293 0 0 0 0 0 0
2910 0 0 0 0 0 0
3023 0 0 0 0 0 0
816 0 0 0 0 0 0
835 0 0 0 0 0 0
836 0 0 0 0 0 0
837 0 0 0 0 0 0
2324 0 0 0 0 0 0
4279 0 0 0 0 0 0
4272 0 0 0 0 0 0
4298 0 0 0 0 0 0
4267 0 0 0 0 0 0
4285 0 0 0 0 0 0
4303 0 0 0 0 0 0
834 0 0 0 0 0 0
2848 0 0 0 0 0 0
2930 0 0 0 0 0 0
833 0 0 0 0 0 0
2308 0 0 0 0 0 0
2313 0 0 0 0 0 0
2314 0 0 0 0 0 0
2315 0 0 0 0 0 0
2323 0 0 0 0 0 0
4242 0 0 0 0 0 0
4282 0 0 0 0 0 0
4309 0 0 0 0 0 0
2836 0 0 0 0 0 0
2844 0 0 0 0 0 0
2903 0 0 0 0 0 0
2304 0 0 0 0 0 0
2305 0 0 0 0 0 0
2306 0 0 0 0 0 0
2310 0 0 0 0 0 0
2311 0 0 0 0 0 0
2312 0 0 0 0 0 0
856 0 0 0 0 0 0
862 0 0 0 0 0 0
863 0 0 0 0 0 0
4302 0 0 0 0 0 0
4327 0 0 0 0 0 0
4318 0 0 0 0 0 0
2983 0 0 0 0 0 0
2944 0 0 0 0 0 0
2826 0 0 0 0 0 0
860 0 0 0 0 0 0
861 0 0 0 0 0 0
867 0 0 0 0 0 0
868 0 0 0 0 0 0
869 0 0 0 0 0 0
878 0 0 0 0 0 0
876 0 0 0 0 0 0
877 0 0 0 0 0 0
889 0 0 0 0 0 0
2875 0 0 0 0 0 0
2869 0 0 0 0 0 0
2909 0 0 0 0 0 0
3007 0 0 0 0 0 0
2936 0 0 0 0 0 0
773 0 0 0 0 0 0
774 0 0 0 0 0 0
775 0 0 0 0 0 0
4281 0 0 0 0 0 0
4331 0 0 0 0 0 0
4260 0 0 0 0 0 0
3001 0 0 0 0 0 0
785 0 0 0 0 0 0
786 0 0 0 0 0 0
787 0 0 0 0 0 0
4299 0 0 0 0 0 0
4314 0 0 0 0 0 0
4246 0 0 0 0 0 0
784 0 0 0 0 0 0
800 0 0 0 0 0 0
799 0 0 0 0 0 0
4300 0 0 0 0 0 0
4264 0 0 0 0 0 0
4238 0 0 0 0 0 0
4257 0 0 0 0 0 0
2966 0 0 0 0 0 0
797 0 0 0 0 0 0
798 0 0 0 0 0 0
814 0 0 0 0 0 0
815 0 0 0 0 0 0
4273 0 0 0 0 0 0
4287 0 0 0 0 0 0
4291 0 0 0 0 0 0
4248 0 0 0 0 0 0
4251 0 0 0 0 0 0
4268 0 0 0 0 0 0
2893 0 0 0 0 0 0
813 0 0 0 0 0 0
812 0 0 0 0 0 0
830 0 0 0 0 0 0
831 0 0 0 0 0 0
832 0 0 0 0 0 0
4239 0 0 0 0 0 0
4325 0 0 0 0 0 0
2996 0 0 0 0 0 0
2865 0 0 0 0 0 0
2868 0 0 0 0 0 0
829 0 0 0 0 0 0
2307 0 0 0 0 0 0
848 0 0 0 0 0 0
850 0 0 0 0 0 0
851 0 0 0 0 0 0
2300 0 0 0 0 0 0
2301 0 0 0 0 0 0
2302 0 0 0 0 0 0
2303 0 0 0 0 0 0
855 0 0 0 0 0 0
4301 0 0 0 0 0 0
4244 0 0 0 0 0 0
2881 0 0 0 0 0 0
2943 0 0 0 0 0 0
2999 0 0 0 0 0 0
2884 0 0 0 0 0 0
849 0 0 0 0 0 0
852 0 0 0 0 0 0
853 0 0 0 0 0 0
854 0 0 0 0 0 0
857 0 0 0 0 0 0
858 0 0 0 0 0 0
859 0 0 0 0 0 0
865 0 0 0 0 0 0
866 0 0 0 0 0 0
864 0 0 0 0 0 0
874 0 0 0 0 0 0
875 0 0 0 0 0 0
772 0 0 0 0 0 0
782 0 0 0 0 0 0
783 0 0 0 0 0 0
795 0 0 0 0 0 0
796 0 0 0 0 0 0
4424 0 0 0 0 0 0
827 0 0 0 0 0 0
751 0 0 0 0 0 0
760 0 0 0 0 0 0
761 0 0 0 0 0 0
762 0 0 0 0 0 0
4383 0 0 0 0 0 0
4430 0 0 0 0 0 0
4349 0 0 0 0 0 0
4408 0 0 0 0 0 0
758 0 0 0 0 0 0
759 0 0 0 0 0 0
770 0 0 0 0 0 0
771 0 0 0 0 0 0
333 0 0 0 0 0 0
4344 0 0 0 0 0 0
4368 0 0 0 0 0 0
4425 0 0 0 0 0 0
4385 0 0 0 0 0 0
4360 0 0 0 0 0 0
4421 0 0 0 0 0 0
768 0 0 0 0 0 0
769 0 0 0 0 0 0
3226 0 0 0 0 0 0
3036 0 0 0 0 0 0
767 0 0 0 0 0 0
778 0 0 0 0 0 0
779 0 0 0 0 0 0
780 0 0 0 0 0 0
781 0 0 0 0 0 0
3199 0 0 0 0 0 0
3105 0 0 0 0 0 0
4333 0 0 0 0 0 0
4387 0 0 0 0 0 0
3100 0 0 0 0 0 0
4395 0 0 0 0 0 0
4416 0 0 0 0 0 0
4413 0 0 0 0 0 0
3026 0 0 0 0 0 0
3080 0 0 0 0 0 0
3085 0 0 0 0 0 0
794 0 0 0 0 0 0
3129 0 0 0 0 0 0
791 0 0 0 0 0 0
792 0 0 0 0 0 0
793 0 0 0 0 0 0
809 0 0 0 0 0 0
810 0 0 0 0 0 0
811 0 0 0 0 0 0
4364 0 0 0 0 0 0
4433 0 0 0 0 0 0
4399 0 0 0 0 0 0
4386 0 0 0 0 0 0
4414 0 0 0 0 0 0
3160 0 0 0 0 0 0
3208 0 0 0 0 0 0
225 0 0 0 0 0 0
808 0 0 0 0 0 0
828 0 0 0 0 0 0
3045 0 0 0 0 0 0
203 0 0 0 0 0 0
222 0 0 0 0 0 0
223 0 0 0 0 0 0
224 0 0 0 0 0 0
342 0 0 0 0 0 0
362 0 0 0 0 0 0
363 0 0 0 0 0 0
3214 0 0 0 0 0 0
341 0 0 0 0 0 0
4409 0 0 0 0 0 0
4380 0 0 0 0 0 0
340 0 0 0 0 0 0
359 0 0 0 0 0 0
360 0 0 0 0 0 0
361 0 0 0 0 0 0
336 0 0 0 0 0 0
338 0 0 0 0 0 0
356 0 0 0 0 0 0
357 0 0 0 0 0 0
358 0 0 0 0 0 0
334 0 0 0 0 0 0
354 0 0 0 0 0 0
355 0 0 0 0 0 0
3091 0 0 0 0 0 0
3115 0 0 0 0 0 0
3084 0 0 0 0 0 0
3110 0 0 0 0 0 0
740 0 0 0 0 0 0
741 0 0 0 0 0 0
742 0 0 0 0 0 0
749 0 0 0 0 0 0
750 0 0 0 0 0 0
4338 0 0 0 0 0 0
4356 0 0 0 0 0 0
4341 0 0 0 0 0 0
4345 0 0 0 0 0 0
4403 0 0 0 0 0 0
4417 0 0 0 0 0 0
746 0 0 0 0 0 0
747 0 0 0 0 0 0
748 0 0 0 0 0 0
757 0 0 0 0 0 0
4384 0 0 0 0 0 0
4394 0 0 0 0 0 0
4348 0 0 0 0 0 0
745 0 0 0 0 0 0
755 0 0 0 0 0 0
756 0 0 0 0 0 0
3064 0 0 0 0 0 0
753 0 0 0 0 0 0
754 0 0 0 0 0 0
766 0 0 0 0 0 0
4353 0 0 0 0 0 0
4362 0 0 0 0 0 0
4426 0 0 0 0 0 0
4427 0 0 0 0 0 0
3113 0 0 0 0 0 0
3172 0 0 0 0 0 0
230 0 0 0 0 0 0
752 0 0 0 0 0 0
763 0 0 0 0 0 0
764 0 0 0 0 0 0
765 0 0 0 0 0 0
4335 0 0 0 0 0 0
4396 0 0 0 0 0 0
4404 0 0 0 0 0 0
3058 0 0 0 0 0 0
3157 0 0 0 0 0 0
777 0 0 0 0 0 0
207 0 0 0 0 0 0
226 0 0 0 0 0 0
227 0 0 0 0 0 0
228 0 0 0 0 0 0
229 0 0 0 0 0 0
776 0 0 0 0 0 0
4381 0 0 0 0 0 0
4346 0 0 0 0 0 0
4379 0 0 0 0 0 0
3158 0 0 0 0 0 0
186 0 0 0 0 0 0
187 0 0 0 0 0 0
188 0 0 0 0 0 0
204 0 0 0 0 0 0
205 0 0 0 0 0 0
206 0 0 0 0 0 0
306 0 0 0 0 0 0
322 0 0 0 0 0 0
323 0 0 0 0 0 0
4391 0 0 0 0 0 0
4392 0 0 0 0 0 0
3035 0 0 0 0 0 0
3228 0 0 0 0 0 0
321 0 0 0 0 0 0
339 0 0 0 0 0 0
318 0 0 0 0 0 0
319 0 0 0 0 0 0
320 0 0 0 0 0 0
337 0 0 0 0 0 0
316 0 0 0 0 0 0
317 0 0 0 0 0 0
335 0 0 0 0 0 0
3069 0 0 0 0 0 0
3175 0 0 0 0 0 0
3212 0 0 0 0 0 0
3057 0 0 0 0 0 0
3196 0 0 0 0 0 0
3024 0 0 0 0 0 0
3025 0 0 0 0 0 0
3154 0 0 0 0 0 0
3104 0 0 0 0 0 0
730 0 0 0 0 0 0
733 0 0 0 0 0 0
734 0 0 0 0 0 0
735 0 0 0 0 0 0
732 0 0 0 0 0 0
4401 0 0 0 0 0 0
4393 0 0 0 0 0 0
4358 0 0 0 0 0 0
3027 0 0 0 0 0 0
738 0 0 0 0 0 0
739 0 0 0 0 0 0
3090 0 0 0 0 0 0
731 0 0 0 0 0 0
736 0 0 0 0 0 0
737 0 0 0 0 0 0
4339 0 0 0 0 0 0
4375 0 0 0 0 0 0
4407 0 0 0 0 0 0
4377 0 0 0 0 0 0
4405 0 0 0 0 0 0
3031 0 0 0 0 0 0
3120 0 0 0 0 0 0
3096 0 0 0 0 0 0
234 0 0 0 0 0 0
235 0 0 0 0 0 0
236 0 0 0 0 0 0
743 0 0 0 0 0 0
744 0 0 0 0 0 0
4429 0 0 0 0 0 0
4355 0 0 0 0 0 0
4369 0 0 0 0 0 0
4357 0 0 0 0 0 0
3092 0 0 0 0 0 0
3093 0 0 0 0 0 0
3219 0 0 0 0 0 0
213 0 0 0 0 0 0
231 0 0 0 0 0 0
232 0 0 0 0 0 0
233 0 0 0 0 0 0
211 0 0 0 0 0 0
212 0 0 0 0 0 0
4389 0 0 0 0 0 0
4400 0 0 0 0 0 0
4418 0 0 0 0 0 0
4422 0 0 0 0 0 0
3151 0 0 0 0 0 0
3126 0 0 0 0 0 0
192 0 0 0 0 0 0
208 0 0 0 0 0 0
209 0 0 0 0 0 0
210 0 0 0 0 0 0
3138 0 0 0 0 0 0
174 0 0 0 0 0 0
190 0 0 0 0 0 0
191 0 0 0 0 0 0
4398 0 0 0 0 0 0
4428 0 0 0 0 0 0
4336 0 0 0 0 0 0
4363 0 0 0 0 0 0
4370 0 0 0 0 0 0
173 0 0 0 0 0 0
189 0 0 0 0 0 0
158 0 0 0 0 0 0
171 0 0 0 0 0 0
172 0 0 0 0 0 0
291 0 0 0 0 0 0
305 0 0 0 0 0 0
288 0 0 0 0 0 0
289 0 0 0 0 0 0
290 0 0 0 0 0 0
287 0 0 0 0 0 0
4365 0 0 0 0 0 0
3142 0 0 0 0 0 0
3169 0 0 0 0 0 0
302 0 0 0 0 0 0
303 0 0 0 0 0 0
304 0 0 0 0 0 0
300 0 0 0 0 0 0
301 0 0 0 0 0 0
3060 0 0 0 0 0 0
3159 0 0 0 0 0 0
3173 0 0 0 0 0 0
3221 0 0 0 0 0 0
3118 0 0 0 0 0 0
3132 0 0 0 0 0 0
3123 0 0 0 0 0 0
3063 0 0 0 0 0 0
3075 0 0 0 0 0 0
3124 0 0 0 0 0 0
101 0 0 0 0 0 0
221 0 0 0 0 0 0
240 0 0 0 0 0 0
241 0 0 0 0 0 0
242 0 0 0 0 0 0
727 0 0 0 0 0 0
728 0 0 0 0 0 0
729 0 0 0 0 0 0
4334 0 0 0 0 0 0
4406 0 0 0 0 0 0
4354 0 0 0 0 0 0
4382 0 0 0 0 0 0
217 0 0 0 0 0 0
218 0 0 0 0 0 0
219 0 0 0 0 0 0
237 0 0 0 0 0 0
238 0 0 0 0 0 0
239 0 0 0 0 0 0
4423 0 0 0 0 0 0
4361 0 0 0 0 0 0
3072 0 0 0 0 0 0
215 0 0 0 0 0 0
216 0 0 0 0 0 0
197 0 0 0 0 0 0
198 0 0 0 0 0 0
214 0 0 0 0 0 0
4359 0 0 0 0 0 0
4378 0 0 0 0 0 0
4432 0 0 0 0 0 0
3156 0 0 0 0 0 0
3227 0 0 0 0 0 0
179 0 0 0 0 0 0
194 0 0 0 0 0 0
195 0 0 0 0 0 0
196 0 0 0 0 0 0
178 0 0 0 0 0 0
4415 0 0 0 0 0 0
4337 0 0 0 0 0 0
4402 0 0 0 0 0 0
3034 0 0 0 0 0 0
3217 0 0 0 0 0 0
193 0 0 0 0 0 0
162 0 0 0 0 0 0
175 0 0 0 0 0 0
176 0 0 0 0 0 0
177 0 0 0 0 0 0
149 0 0 0 0 0 0
161 0 0 0 0 0 0
4431 0 0 0 0 0 0
4342 0 0 0 0 0 0
4371 0 0 0 0 0 0
3150 0 0 0 0 0 0
3201 0 0 0 0 0 0
3059 0 0 0 0 0 0
147 0 0 0 0 0 0
148 0 0 0 0 0 0
159 0 0 0 0 0 0
160 0 0 0 0 0 0
3137 0 0 0 0 0 0
138 0 0 0 0 0 0
267 0 0 0 0 0 0
276 0 0 0 0 0 0
277 0 0 0 0 0 0
278 0 0 0 0 0 0
265 0 0 0 0 0 0
274 0 0 0 0 0 0
275 0 0 0 0 0 0
286 0 0 0 0 0 0
3102 0 0 0 0 0 0
3186 0 0 0 0 0 0
3192 0 0 0 0 0 0
3185 0 0 0 0 0 0
3155 0 0 0 0 0 0
3141 0 0 0 0 0 0
3223 0 0 0 0 0 0
3139 0 0 0 0 0 0
3188 0 0 0 0 0 0
82 0 0 0 0 0 0
102 0 0 0 0 0 0
220 0 0 0 0 0 0
65 0 0 0 0 0 0
66 0 0 0 0 0 0
67 0 0 0 0 0 0
83 0 0 0 0 0 0
84 0 0 0 0 0 0
85 0 0 0 0 0 0
4373 0 0 0 0 0 0
4420 0 0 0 0 0 0
4343 0 0 0 0 0 0
4376 0 0 0 0 0 0
4390 0 0 0 0 0 0
4366 0 0 0 0 0 0
3179 0 0 0 0 0 0
3074 0 0 0 0 0 0
3106 0 0 0 0 0 0
3122 0 0 0 0 0 0
50 0 0 0 0 0 0
184 0 0 0 0 0 0
185 0 0 0 0 0 0
200 0 0 0 0 0 0
201 0 0 0 0 0 0
202 0 0 0 0 0 0
4352 0 0 0 0 0 0
4397 0 0 0 0 0 0
4347 0 0 0 0 0 0
3079 0 0 0 0 0 0
3204 0 0 0 0 0 0
181 0 0 0 0 0 0
182 0 0 0 0 0 0
183 0 0 0 0 0 0
199 0 0 0 0 0 0
167 0 0 0 0 0 0
168 0 0 0 0 0 0
4350 0 0 0 0 0 0
4419 0 0 0 0 0 0
3166 0 0 0 0 0 0
3164 0 0 0 0 0 0
180 0 0 0 0 0 0
153 0 0 0 0 0 0
164 0 0 0 0 0 0
165 0 0 0 0 0 0
166 0 0 0 0 0 0
4351 0 0 0 0 0 0
142 0 0 0 0 0 0
152 0 0 0 0 0 0
154 0 0 0 0 0 0
4412 0 0 0 0 0 0
4367 0 0 0 0 0 0
3038 0 0 0 0 0 0
3066 0 0 0 0 0 0
3068 0 0 0 0 0 0
163 0 0 0 0 0 0
140 0 0 0 0 0 0
141 0 0 0 0 0 0
150 0 0 0 0 0 0
151 0 0 0 0 0 0
126 0 0 0 0 0 0
131 0 0 0 0 0 0
132 0 0 0 0 0 0
133 0 0 0 0 0 0
139 0 0 0 0 0 0
258 0 0 0 0 0 0
250 0 0 0 0 0 0
251 0 0 0 0 0 0
256 0 0 0 0 0 0
257 0 0 0 0 0 0
3053 0 0 0 0 0 0
3098 0 0 0 0 0 0
3144 0 0 0 0 0 0
3184 0 0 0 0 0 0
3061 0 0 0 0 0 0
266 0 0 0 0 0 0
264 0 0 0 0 0 0
3101 0 0 0 0 0 0
3218 0 0 0 0 0 0
3056 0 0 0 0 0 0
3210 0 0 0 0 0 0
3095 0 0 0 0 0 0
3071 0 0 0 0 0 0
3198 0 0 0 0 0 0
3215 0 0 0 0 0 0
3044 0 0 0 0 0 0
3207 0 0 0 0 0 0
3131 0 0 0 0 0 0
3054 0 0 0 0 0 0
68 0 0 0 0 0 0
52 0 0 0 0 0 0
53 0 0 0 0 0 0
54 0 0 0 0 0 0
55 0 0 0 0 0 0
69 0 0 0 0 0 0
70 0 0 0 0 0 0
41 0 0 0 0 0 0
4411 0 0 0 0 0 0
4374 0 0 0 0 0 0
4388 0 0 0 0 0 0
4410 0 0 0 0 0 0
3170 0 0 0 0 0 0
51 0 0 0 0 0 0
26 0 0 0 0 0 0
37 0 0 0 0 0 0
38 0 0 0 0 0 0
39 0 0 0 0 0 0
170 0 0 0 0 0 0
27 0 0 0 0 0 0
28 0 0 0 0 0 0
40 0 0 0 0 0 0
4340 0 0 0 0 0 0
3202 0 0 0 0 0 0
3200 0 0 0 0 0 0
3216 0 0 0 0 0 0
155 0 0 0 0 0 0
156 0 0 0 0 0 0
157 0 0 0 0 0 0
169 0 0 0 0 0 0
17 0 0 0 0 0 0
18 0 0 0 0 0 0
137 0 0 0 0 0 0
145 0 0 0 0 0 0
146 0 0 0 0 0 0
5 0 0 0 0 0 0
10 0 0 0 0 0 0
11 0 0 0 0 0 0
6 0 0 0 0 0 0
4372 0 0 0 0 0 0
3065 0 0 0 0 0 0
3088 0 0 0 0 0 0
3147 0 0 0 0 0 0
3211 0 0 0 0 0 0
143 0 0 0 0 0 0
144 0 0 0 0 0 0
128 0 0 0 0 0 0
129 0 0 0 0 0 0
130 0 0 0 0 0 0
134 0 0 0 0 0 0
135 0 0 0 0 0 0
136 0 0 0 0 0 0
1 0 0 0 0 0 0
2 0 0 0 0 0 0
3 0 0 0 0 0 0
122 0 0 0 0 0 0
123 0 0 0 0 0 0
124 0 0 0 0 0 0
125 0 0 0 0 0 0
3167 0 0 0 0 0 0
3193 0 0 0 0 0 0
3127 0 0 0 0 0 0
3149 0 0 0 0 0 0
127 0 0 0 0 0 0
246 0 0 0 0 0 0
3030 0 0 0 0 0 0
3171 0 0 0 0 0 0
3135 0 0 0 0 0 0
3078 0 0 0 0 0 0
3047 0 0 0 0 0 0
3051 0 0 0 0 0 0
3168 0 0 0 0 0 0
3032 0 0 0 0 0 0
3145 0 0 0 0 0 0
3209 0 0 0 0 0 0
3177 0 0 0 0 0 0
3029 0 0 0 0 0 0
3121 0 0 0 0 0 0
3050 0 0 0 0 0 0
3055 0 0 0 0 0 0
3046 0 0 0 0 0 0
3229 0 0 0 0 0 0
3048 0 0 0 0 0 0
3224 0 0 0 0 0 0
3081 0 0 0 0 0 0
3094 0 0 0 0 0 0
3114 0 0 0 0 0 0
3174 0 0 0 0 0 0
3161 0 0 0 0 0 0
42 0 0 0 0 0 0
43 0 0 0 0 0 0
56 0 0 0 0 0 0
57 0 0 0 0 0 0
32 0 0 0 0 0 0
33 0 0 0 0 0 0
44 0 0 0 0 0 0
273 0 0 0 0 0 0
46 0 0 0 0 0 0
25 0 0 0 0 0 0
34 0 0 0 0 0 0
35 0 0 0 0 0 0
36 0 0 0 0 0 0
3089 0 0 0 0 0 0
19 0 0 0 0 0 0
29 0 0 0 0 0 0
30 0 0 0 0 0 0
3225 0 0 0 0 0 0
20 0 0 0 0 0 0
21 0 0 0 0 0 0
22 0 0 0 0 0 0
31 0 0 0 0 0 0
14 0 0 0 0 0 0
15 0 0 0 0 0 0
16 0 0 0 0 0 0
23 0 0 0 0 0 0
24 0 0 0 0 0 0
3037 0 0 0 0 0 0
3073 0 0 0 0 0 0
3087 0 0 0 0 0 0
3041 0 0 0 0 0 0
12 0 0 0 0 0 0
13 0 0 0 0 0 0
4 0 0 0 0 0 0
7 0 0 0 0 0 0
8 0 0 0 0 0 0
9 0 0 0 0 0 0
3194 0 0 0 0 0 0
3176 0 0 0 0 0 0
3183 0 0 0 0 0 0
3103 0 0 0 0 0 0
3133 0 0 0 0 0 0
3111 0 0 0 0 0 0
3178 0 0 0 0 0 0
3082 0 0 0 0 0 0
3163 0 0 0 0 0 0
3028 0 0 0 0 0 0
3205 0 0 0 0 0 0
3165 0 0 0 0 0 0
3189 0 0 0 0 0 0
3076 0 0 0 0 0 0
3190 0 0 0 0 0 0
3116 0 0 0 0 0 0
3097 0 0 0 0 0 0
3062 0 0 0 0 0 0
3153 0 0 0 0 0 0
3182 0 0 0 0 0 0
3070 0 0 0 0 0 0
3180 0 0 0 0 0 0
3213 0 0 0 0 0 0
3203 0 0 0 0 0 0
3136 0 0 0 0 0 0
3197 0 0 0 0 0 0
3083 0 0 0 0 0 0
3134 0 0 0 0 0 0
3052 0 0 0 0 0 0
3043 0 0 0 0 0 0
3107 0 0 0 0 0 0
3181 0 0 0 0 0 0
3128 0 0 0 0 0 0
3109 0 0 0 0 0 0
3143 0 0 0 0 0 0
3117 0 0 0 0 0 0
3033 0 0 0 0 0 0
3119 0 0 0 0 0 0
3222 0 0 0 0 0 0
3049 0 0 0 0 0 0
3187 0 0 0 0 0 0
3146 0 0 0 0 0 0
3039 0 0 0 0 0 0
3140 0 0 0 0 0 0
3220 0 0 0 0 0 0
3152 0 0 0 0 0 0
3112 0 0 0 0 0 0
3130 0 0 0 0 0 0
3162 0 0 0 0 0 0
3191 0 0 0 0 0 0
3206 0 0 0 0 0 0
3067 0 0 0 0 0 0
3042 0 0 0 0 0 0
3125 0 0 0 0 0 0
3040 0 0 0 0 0 0
3077 0 0 0 0 0 0
3086 0 0 0 0 0 0
3108 0 0 0 0 0 0
3099 0 0 0 0 0 0
3148 0 0 0 0 0 0
3195 0 0 0 0 0 0
3377 0 0 0 0 0 0
3302 0 0 0 0 0 0
3287 0 0 0 0 0 0
3420 0 0 0 0 0 0
3240 0 0 0 0 0 0
3324 0 0 0 0 0 0
3255 0 0 0 0 0 0
3294 0 0 0 0 0 0
3419 0 0 0 0 0 0
3232 0 0 0 0 0 0
3259 0 0 0 0 0 0
3383 0 0 0 0 0 0
3318 0 0 0 0 0 0
3423 0 0 0 0 0 0
3253 0 0 0 0 0 0
3365 0 0 0 0 0 0
3349 0 0 0 0 0 0
3289 0 0 0 0 0 0
3402 0 0 0 0 0 0
3406 0 0 0 0 0 0
3311 0 0 0 0 0 0
3375 0 0 0 0 0 0
3239 0 0 0 0 0 0
3316 0 0 0 0 0 0
3429 0 0 0 0 0 0
3263 0 0 0 0 0 0
3380 0 0 0 0 0 0
3288 0 0 0 0 0 0
3435 0 0 0 0 0 0
3412 0 0 0 0 0 0
3355 0 0 0 0 0 0
3392 0 0 0 0 0 0
3238 0 0 0 0 0 0
3416 0 0 0 0 0 0
3356 0 0 0 0 0 0
3361 0 0 0 0 0 0
3309 0 0 0 0 0 0
3279 0 0 0 0 0 0
3236 0 0 0 0 0 0
3422 0 0 0 0 0 0
3322 0 0 0 0 0 0
3312 0 0 0 0 0 0
3330 0 0 0 0 0 0
3341 0 0 0 0 0 0
3292 0 0 0 0 0 0
3233 0 0 0 0 0 0
3262 0 0 0 0 0 0
3276 0 0 0 0 0 0
3358 0 0 0 0 0 0
3246 0 0 0 0 0 0
3418 0 0 0 0 0 0
3382 0 0 0 0 0 0
3295 0 0 0 0 0 0
3425 0 0 0 0 0 0
3359 0 0 0 0 0 0
3393 0 0 0 0 0 0
3242 0 0 0 0 0 0
3394 0 0 0 0 0 0
3340 0 0 0 0 0 0
3408 0 0 0 0 0 0
3244 0 0 0 0 0 0
3353 0 0 0 0 0 0
3234 0 0 0 0 0 0
1291 0 0 0 0 0 0
1308 0 0 0 0 0 0
1309 0 0 0 0 0 0
1310 0 0 0 0 0 0
3364 0 0 0 0 0 0
1306 0 0 0 0 0 0
1307 0 0 0 0 0 0
3327 0 0 0 0 0 0
3374 0 0 0 0 0 0
3282 0 0 0 0 0 0
1272 0 0 0 0 0 0
1273 0 0 0 0 0 0
1274 0 0 0 0 0 0
1289 0 0 0 0 0 0
1290 0 0 0 0 0 0
1286 0 0 0 0 0 0
1287 0 0 0 0 0 0
1288 0 0 0 0 0 0
1305 0 0 0 0 0 0
1285 0 0 0 0 0 0
1303 0 0 0 0 0 0
1304 0 0 0 0 0 0
3303 0 0 0 0 0 0
3230 0 0 0 0 0 0
1257 0 0 0 0 0 0
1258 0 0 0 0 0 0
1259 0 0 0 0 0 0
1269 0 0 0 0 0 0
1270 0 0 0 0 0 0
1271 0 0 0 0 0 0
1268 0 0 0 0 0 0
1284 0 0 0 0 0 0
3250 0 0 0 0 0 0
3334 0 0 0 0 0 0
3258 0 0 0 0 0 0
3335 0 0 0 0 0 0
3386 0 0 0 0 0 0
3315 0 0 0 0 0 0
3275 0 0 0 0 0 0
3332 0 0 0 0 0 0
3274 0 0 0 0 0 0
3304 0 0 0 0 0 0
3366 0 0 0 0 0 0
3427 0 0 0 0 0 0
3411 0 0 0 0 0 0
3281 0 0 0 0 0 0
3331 0 0 0 0 0 0
3237 0 0 0 0 0 0
3384 0 0 0 0 0 0
3265 0 0 0 0 0 0
3267 0 0 0 0 0 0
3336 0 0 0 0 0 0
3285 0 0 0 0 0 0
3415 0 0 0 0 0 0
1449 0 0 0 0 0 0
1552 0 0 0 0 0 0
1572 0 0 0 0 0 0
3404 0 0 0 0 0 0
3307 0 0 0 0 0 0
3313 0 0 0 0 0 0
3271 0 0 0 0 0 0
1329 0 0 0 0 0 0
1330 0 0 0 0 0 0
1331 0 0 0 0 0 0
1431 0 0 0 0 0 0
1450 0 0 0 0 0 0
1451 0 0 0 0 0 0
1452 0 0 0 0 0 0
1573 0 0 0 0 0 0
1410 0 0 0 0 0 0
1411 0 0 0 0 0 0
1412 0 0 0 0 0 0
1428 0 0 0 0 0 0
1429 0 0 0 0 0 0
1430 0 0 0 0 0 0
1393 0 0 0 0 0 0
1409 0 0 0 0 0 0
3401 0 0 0 0 0 0
3354 0 0 0 0 0 0
3310 0 0 0 0 0 0
3421 0 0 0 0 0 0
3372 0 0 0 0 0 0
1328 0 0 0 0 0 0
4466 0 0 0 0 0 0
1325 0 0 0 0 0 0
1326 0 0 0 0 0 0
1327 0 0 0 0 0 0
1323 0 0 0 0 0 0
1324 0 0 0 0 0 0
1380 0 0 0 0 0 0
1394 0 0 0 0 0 0
1395 0 0 0 0 0 0
1366 0 0 0 0 0 0
1367 0 0 0 0 0 0
1378 0 0 0 0 0 0
1379 0 0 0 0 0 0
3344 0 0 0 0 0 0
3306 0 0 0 0 0 0
4509 0 0 0 0 0 0
4437 0 0 0 0 0 0
1301 0 0 0 0 0 0
1302 0 0 0 0 0 0
1322 0 0 0 0 0 0
4519 0 0 0 0 0 0
4524 0 0 0 0 0 0
1300 0 0 0 0 0 0
1319 0 0 0 0 0 0
1320 0 0 0 0 0 0
1321 0 0 0 0 0 0
1356 0 0 0 0 0 0
1318 0 0 0 0 0 0
3241 0 0 0 0 0 0
3346 0 0 0 0 0 0
3231 0 0 0 0 0 0
3290 0 0 0 0 0 0
3360 0 0 0 0 0 0
4462 0 0 0 0 0 0
1283 0 0 0 0 0 0
1281 0 0 0 0 0 0
1282 0 0 0 0 0 0
1298 0 0 0 0 0 0
1299 0 0 0 0 0 0
1297 0 0 0 0 0 0
3370 0 0 0 0 0 0
3347 0 0 0 0 0 0
3397 0 0 0 0 0 0
3314 0 0 0 0 0 0
3298 0 0 0 0 0 0
3328 0 0 0 0 0 0
3342 0 0 0 0 0 0
3391 0 0 0 0 0 0
3305 0 0 0 0 0 0
3403 0 0 0 0 0 0
3369 0 0 0 0 0 0
3300 0 0 0 0 0 0
3424 0 0 0 0 0 0
1530 0 0 0 0 0 0
1515 0 0 0 0 0 0
3321 0 0 0 0 0 0
3367 0 0 0 0 0 0
1531 0 0 0 0 0 0
1532 0 0 0 0 0 0
1533 0 0 0 0 0 0
1549 0 0 0 0 0 0
3326 0 0 0 0 0 0
1551 0 0 0 0 0 0
1427 0 0 0 0 0 0
1445 0 0 0 0 0 0
1446 0 0 0 0 0 0
1447 0 0 0 0 0 0
1448 0 0 0 0 0 0
1516 0 0 0 0 0 0
1406 0 0 0 0 0 0
1424 0 0 0 0 0 0
1425 0 0 0 0 0 0
1426 0 0 0 0 0 0
1405 0 0 0 0 0 0
4482 0 0 0 0 0 0
1392 0 0 0 0 0 0
1407 0 0 0 0 0 0
1408 0 0 0 0 0 0
1376 0 0 0 0 0 0
1389 0 0 0 0 0 0
1390 0 0 0 0 0 0
1391 0 0 0 0 0 0
1375 0 0 0 0 0 0
3338 0 0 0 0 0 0
3417 0 0 0 0 0 0
3400 0 0 0 0 0 0
3399 0 0 0 0 0 0
4483 0 0 0 0 0 0
4469 0 0 0 0 0 0
4496 0 0 0 0 0 0
1365 0 0 0 0 0 0
1377 0 0 0 0 0 0
1353 0 0 0 0 0 0
1354 0 0 0 0 0 0
1363 0 0 0 0 0 0
1364 0 0 0 0 0 0
3385 0 0 0 0 0 0
3379 0 0 0 0 0 0
3390 0 0 0 0 0 0
4449 0 0 0 0 0 0
4460 0 0 0 0 0 0
1317 0 0 0 0 0 0
1340 0 0 0 0 0 0
1345 0 0 0 0 0 0
1346 0 0 0 0 0 0
1347 0 0 0 0 0 0
1355 0 0 0 0 0 0
3278 0 0 0 0 0 0
3413 0 0 0 0 0 0
3337 0 0 0 0 0 0
4492 0 0 0 0 0 0
4443 0 0 0 0 0 0
4467 0 0 0 0 0 0
1296 0 0 0 0 0 0
1314 0 0 0 0 0 0
1315 0 0 0 0 0 0
1316 0 0 0 0 0 0
1313 0 0 0 0 0 0
1339 0 0 0 0 0 0
3297 0 0 0 0 0 0
3378 0 0 0 0 0 0
3252 0 0 0 0 0 0
3436 0 0 0 0 0 0
3308 0 0 0 0 0 0
3273 0 0 0 0 0 0
3362 0 0 0 0 0 0
3381 0 0 0 0 0 0
3409 0 0 0 0 0 0
3269 0 0 0 0 0 0
3325 0 0 0 0 0 0
3430 0 0 0 0 0 0
1511 0 0 0 0 0 0
1512 0 0 0 0 0 0
1513 0 0 0 0 0 0
1514 0 0 0 0 0 0
1985 0 0 0 0 0 0
1529 0 0 0 0 0 0
1444 0 0 0 0 0 0
1488 0 0 0 0 0 0
1499 0 0 0 0 0 0
1500 0 0 0 0 0 0
1501 0 0 0 0 0 0
1421 0 0 0 0 0 0
1441 0 0 0 0 0 0
1442 0 0 0 0 0 0
1443 0 0 0 0 0 0
3432 0 0 0 0 0 0
3261 0 0 0 0 0 0
3283 0 0 0 0 0 0
4486 0 0 0 0 0 0
4494 0 0 0 0 0 0
1422 0 0 0 0 0 0
1423 0 0 0 0 0 0
1387 0 0 0 0 0 0
1402 0 0 0 0 0 0
1403 0 0 0 0 0 0
1404 0 0 0 0 0 0
1386 0 0 0 0 0 0
4489 0 0 0 0 0 0
4517 0 0 0 0 0 0
4480 0 0 0 0 0 0
1388 0 0 0 0 0 0
1361 0 0 0 0 0 0
1372 0 0 0 0 0 0
1373 0 0 0 0 0 0
1374 0 0 0 0 0 0
3245 0 0 0 0 0 0
3428 0 0 0 0 0 0
3235 0 0 0 0 0 0
3270 0 0 0 0 0 0
4472 0 0 0 0 0 0
1352 0 0 0 0 0 0
1360 0 0 0 0 0 0
1362 0 0 0 0 0 0
1350 0 0 0 0 0 0
1351 0 0 0 0 0 0
3405 0 0 0 0 0 0
3272 0 0 0 0 0 0
4525 0 0 0 0 0 0
4457 0 0 0 0 0 0
4446 0 0 0 0 0 0
4464 0 0 0 0 0 0
1336 0 0 0 0 0 0
1337 0 0 0 0 0 0
1338 0 0 0 0 0 0
1342 0 0 0 0 0 0
1343 0 0 0 0 0 0
1344 0 0 0 0 0 0
3277 0 0 0 0 0 0
3350 0 0 0 0 0 0
4458 0 0 0 0 0 0
4490 0 0 0 0 0 0
4499 0 0 0 0 0 0
1332 0 0 0 0 0 0
1333 0 0 0 0 0 0
1334 0 0 0 0 0 0
1335 0 0 0 0 0 0
2055 0 0 0 0 0 0
2056 0 0 0 0 0 0
2057 0 0 0 0 0 0
4487 0 0 0 0 0 0
3414 0 0 0 0 0 0
3293 0 0 0 0 0 0
3433 0 0 0 0 0 0
3339 0 0 0 0 0 0
3248 0 0 0 0 0 0
3320 0 0 0 0 0 0
3323 0 0 0 0 0 0
3387 0 0 0 0 0 0
3410 0 0 0 0 0 0
1495 0 0 0 0 0 0
1496 0 0 0 0 0 0
1509 0 0 0 0 0 0
1510 0 0 0 0 0 0
1475 0 0 0 0 0 0
1484 0 0 0 0 0 0
1485 0 0 0 0 0 0
3373 0 0 0 0 0 0
3352 0 0 0 0 0 0
3357 0 0 0 0 0 0
1497 0 0 0 0 0 0
4456 0 0 0 0 0 0
1486 0 0 0 0 0 0
1487 0 0 0 0 0 0
1498 0 0 0 0 0 0
1438 0 0 0 0 0 0
1439 0 0 0 0 0 0
1440 0 0 0 0 0 0
1476 0 0 0 0 0 0
1477 0 0 0 0 0 0
1418 0 0 0 0 0 0
1419 0 0 0 0 0 0
4484 0 0 0 0 0 0
4501 0 0 0 0 0 0
4435 0 0 0 0 0 0
4465 0 0 0 0 0 0
1400 0 0 0 0 0 0
1401 0 0 0 0 0 0
1420 0 0 0 0 0 0
4520 0 0 0 0 0 0
1383 0 0 0 0 0 0
1384 0 0 0 0 0 0
1385 0 0 0 0 0 0
1399 0 0 0 0 0 0
3299 0 0 0 0 0 0
3256 0 0 0 0 0 0
4485 0 0 0 0 0 0
1370 0 0 0 0 0 0
1371 0 0 0 0 0 0
4473 0 0 0 0 0 0
1357 0 0 0 0 0 0
1358 0 0 0 0 0 0
1359 0 0 0 0 0 0
1369 0 0 0 0 0 0
3247 0 0 0 0 0 0
4440 0 0 0 0 0 0
4445 0 0 0 0 0 0
4468 0 0 0 0 0 0
4474 0 0 0 0 0 0
4493 0 0 0 0 0 0
4453 0 0 0 0 0 0
4477 0 0 0 0 0 0
4523 0 0 0 0 0 0
1341 0 0 0 0 0 0
1348 0 0 0 0 0 0
1349 0 0 0 0 0 0
2049 0 0 0 0 0 0
2050 0 0 0 0 0 0
4513 0 0 0 0 0 0
3286 0 0 0 0 0 0
4455 0 0 0 0 0 0
2051 0 0 0 0 0 0
2052 0 0 0 0 0 0
2053 0 0 0 0 0 0
4508 0 0 0 0 0 0
2032 0 0 0 0 0 0
2033 0 0 0 0 0 0
3434 0 0 0 0 0 0
4475 0 0 0 0 0 0
4502 0 0 0 0 0 0
2054 0 0 0 0 0 0
2017 0 0 0 0 0 0
2034 0 0 0 0 0 0
2035 0 0 0 0 0 0
2036 0 0 0 0 0 0
3296 0 0 0 0 0 0
3376 0 0 0 0 0 0
3249 0 0 0 0 0 0
3426 0 0 0 0 0 0
1481 0 0 0 0 0 0
1482 0 0 0 0 0 0
1984 0 0 0 0 0 0
1493 0 0 0 0 0 0
1494 0 0 0 0 0 0
1472 0 0 0 0 0 0
1473 0 0 0 0 0 0
1474 0 0 0 0 0 0
1483 0 0 0 0 0 0
1465 0 0 0 0 0 0
1466 0 0 0 0 0 0
3260 0 0 0 0 0 0
3329 0 0 0 0 0 0
3317 0 0 0 0 0 0
3319 0 0 0 0 0 0
3251 0 0 0 0 0 0
3266 0 0 0 0 0 0
1461 0 0 0 0 0 0
1467 0 0 0 0 0 0
1468 0 0 0 0 0 0
1415 0 0 0 0 0 0
1416 0 0 0 0 0 0
1417 0 0 0 0 0 0
1435 0 0 0 0 0 0
1436 0 0 0 0 0 0
1437 0 0 0 0 0 0
3333 0 0 0 0 0 0
4522 0 0 0 0 0 0
4439 0 0 0 0 0 0
4442 0 0 0 0 0 0
1381 0 0 0 0 0 0
1382 0 0 0 0 0 0
1396 0 0 0 0 0 0
1397 0 0 0 0 0 0
1398 0 0 0 0 0 0
2043 0 0 0 0 0 0
2044 0 0 0 0 0 0
3363 0 0 0 0 0 0
3264 0 0 0 0 0 0
3301 0 0 0 0 0 0
4441 0 0 0 0 0 0
4450 0 0 0 0 0 0
4436 0 0 0 0 0 0
4497 0 0 0 0 0 0
1368 0 0 0 0 0 0
2026 0 0 0 0 0 0
2045 0 0 0 0 0 0
2046 0 0 0 0 0 0
2047 0 0 0 0 0 0
3431 0 0 0 0 0 0
4478 0 0 0 0 0 0
4481 0 0 0 0 0 0
2027 0 0 0 0 0 0
2028 0 0 0 0 0 0
2048 0 0 0 0 0 0
2011 0 0 0 0 0 0
2029 0 0 0 0 0 0
2030 0 0 0 0 0 0
3395 0 0 0 0 0 0
3398 0 0 0 0 0 0
4507 0 0 0 0 0 0
4448 0 0 0 0 0 0
4438 0 0 0 0 0 0
4463 0 0 0 0 0 0
4514 0 0 0 0 0 0
2012 0 0 0 0 0 0
2013 0 0 0 0 0 0
2014 0 0 0 0 0 0
2031 0 0 0 0 0 0
3280 0 0 0 0 0 0
4479 0 0 0 0 0 0
4515 0 0 0 0 0 0
4500 0 0 0 0 0 0
4444 0 0 0 0 0 0
4506 0 0 0 0 0 0
1998 0 0 0 0 0 0
1999 0 0 0 0 0 0
2000 0 0 0 0 0 0
2015 0 0 0 0 0 0
2016 0 0 0 0 0 0
3257 0 0 0 0 0 0
3368 0 0 0 0 0 0
3437 0 0 0 0 0 0
3396 0 0 0 0 0 0
3388 0 0 0 0 0 0
3348 0 0 0 0 0 0
3345 0 0 0 0 0 0
1469 0 0 0 0 0 0
1983 0 0 0 0 0 0
1479 0 0 0 0 0 0
1480 0 0 0 0 0 0
1462 0 0 0 0 0 0
1463 0 0 0 0 0 0
1464 0 0 0 0 0 0
1470 0 0 0 0 0 0
1471 0 0 0 0 0 0
1454 0 0 0 0 0 0
1457 0 0 0 0 0 0
1458 0 0 0 0 0 0
1459 0 0 0 0 0 0
3407 0 0 0 0 0 0
3268 0 0 0 0 0 0
3371 0 0 0 0 0 0
3351 0 0 0 0 0 0
4504 0 0 0 0 0 0
1460 0 0 0 0 0 0
4511 0 0 0 0 0 0
1413 0 0 0 0 0 0
1432 0 0 0 0 0 0
1433 0 0 0 0 0 0
1434 0 0 0 0 0 0
1453 0 0 0 0 0 0
1455 0 0 0 0 0 0
1456 0 0 0 0 0 0
1414 0 0 0 0 0 0
2039 0 0 0 0 0 0
3254 0 0 0 0 0 0
4491 0 0 0 0 0 0
4512 0 0 0 0 0 0
2022 0 0 0 0 0 0
2040 0 0 0 0 0 0
2041 0 0 0 0 0 0
2042 0 0 0 0 0 0
4521 0 0 0 0 0 0
2023 0 0 0 0 0 0
3389 0 0 0 0 0 0
4451 0 0 0 0 0 0
4454 0 0 0 0 0 0
4505 0 0 0 0 0 0
4503 0 0 0 0 0 0
4498 0 0 0 0 0 0
2007 0 0 0 0 0 0
2008 0 0 0 0 0 0
2024 0 0 0 0 0 0
2025 0 0 0 0 0 0
3343 0 0 0 0 0 0
3291 0 0 0 0 0 0
4459 0 0 0 0 0 0
4476 0 0 0 0 0 0
4495 0 0 0 0 0 0
2009 0 0 0 0 0 0
1994 0 0 0 0 0 0
2010 0 0 0 0 0 0
3284 0 0 0 0 0 0
4461 0 0 0 0 0 0
4488 0 0 0 0 0 0
4510 0 0 0 0 0 0
4434 0 0 0 0 0 0
1995 0 0 0 0 0 0
1996 0 0 0 0 0 0
1997 0 0 0 0 0 0
3243 0 0 0 0 0 0
4447 0 0 0 0 0 0
4471 0 0 0 0 0 0
4452 0 0 0 0 0 0
4470 0 0 0 0 0 0
4516 0 0 0 0 0 0
4518 0 0 0 0 0 0
1255 0 0 0 0 0 0
1267 0 0 0 0 0 0
1280 0 0 0 0 0 0
1311 0 0 0 0 0 0
2038 0 0 0 0 0 0
1993 0 0 0 0 0 0
1982 0 0 0 0 0 0
3596 0 0 0 0 0 0
3609 0 0 0 0 0 0
3592 0 0 0 0 0 0
3586 0 0 0 0 0 0
3651 0 0 0 0 0 0
2149 0 0 0 0 0 0
2168 0 0 0 0 0 0
2169 0 0 0 0 0 0
2170 0 0 0 0 0 0
2151 0 0 0 0 0 0
2153 0 0 0 0 0 0
2171 0 0 0 0 0 0
2172 0 0 0 0 0 0
2173 0 0 0 0 0 0
2155 0 0 0 0 0 0
2174 0 0 0 0 0 0
2175 0 0 0 0 0 0
2176 0 0 0 0 0 0
3441 0 0 0 0 0 0
3580 0 0 0 0 0 0
3594 0 0 0 0 0 0
3643 0 0 0 0 0 0
3649 0 0 0 0 0 0
4606 0 0 0 0 0 0
2156 0 0 0 0 0 0
1189 0 0 0 0 0 0
1208 0 0 0 0 0 0
1209 0 0 0 0 0 0
1210 0 0 0 0 0 0
2037 0 0 0 0 0 0
2157 0 0 0 0 0 0
2177 0 0 0 0 0 0
2178 0 0 0 0 0 0
1188 0 0 0 0 0 0
2018 0 0 0 0 0 0
542 0 0 0 0 0 0
3485 0 0 0 0 0 0
3452 0 0 0 0 0 0
3455 0 0 0 0 0 0
3439 0 0 0 0 0 0
3590 0 0 0 0 0 0
4528 0 0 0 0 0 0
4526 0 0 0 0 0 0
4602 0 0 0 0 0 0
2001 0 0 0 0 0 0
2002 0 0 0 0 0 0
2003 0 0 0 0 0 0
2019 0 0 0 0 0 0
2020 0 0 0 0 0 0
2021 0 0 0 0 0 0
4591 0 0 0 0 0 0
2004 0 0 0 0 0 0
3565 0 0 0 0 0 0
3469 0 0 0 0 0 0
3477 0 0 0 0 0 0
4610 0 0 0 0 0 0
4586 0 0 0 0 0 0
4576 0 0 0 0 0 0
1988 0 0 0 0 0 0
1989 0 0 0 0 0 0
1990 0 0 0 0 0 0
1991 0 0 0 0 0 0
2005 0 0 0 0 0 0
2006 0 0 0 0 0 0
3540 0 0 0 0 0 0
4545 0 0 0 0 0 0
4559 0 0 0 0 0 0
4533 0 0 0 0 0 0
4608 0 0 0 0 0 0
4557 0 0 0 0 0 0
4596 0 0 0 0 0 0
4614 0 0 0 0 0 0
1977 0 0 0 0 0 0
4567 0 0 0 0 0 0
4611 0 0 0 0 0 0
1978 0 0 0 0 0 0
1979 0 0 0 0 0 0
1992 0 0 0 0 0 0
525 0 0 0 0 0 0
3524 0 0 0 0 0 0
4581 0 0 0 0 0 0
4592 0 0 0 0 0 0
4561 0 0 0 0 0 0
4613 0 0 0 0 0 0
1968 0 0 0 0 0 0
1969 0 0 0 0 0 0
1980 0 0 0 0 0 0
1981 0 0 0 0 0 0
561 0 0 0 0 0 0
3481 0 0 0 0 0 0
3510 0 0 0 0 0 0
4615 0 0 0 0 0 0
4535 0 0 0 0 0 0
4577 0 0 0 0 0 0
4607 0 0 0 0 0 0
4553 0 0 0 0 0 0
1961 0 0 0 0 0 0
1970 0 0 0 0 0 0
1971 0 0 0 0 0 0
1972 0 0 0 0 0 0
3629 0 0 0 0 0 0
3462 0 0 0 0 0 0
3487 0 0 0 0 0 0
3569 0 0 0 0 0 0
3607 0 0 0 0 0 0
3532 0 0 0 0 0 0
3624 0 0 0 0 0 0
3501 0 0 0 0 0 0
3591 0 0 0 0 0 0
2130 0 0 0 0 0 0
2131 0 0 0 0 0 0
2132 0 0 0 0 0 0
2148 0 0 0 0 0 0
2150 0 0 0 0 0 0
2133 0 0 0 0 0 0
2134 0 0 0 0 0 0
2135 0 0 0 0 0 0
2152 0 0 0 0 0 0
2136 0 0 0 0 0 0
2154 0 0 0 0 0 0
3464 0 0 0 0 0 0
3514 0 0 0 0 0 0
3622 0 0 0 0 0 0
3611 0 0 0 0 0 0
3495 0 0 0 0 0 0
3621 0 0 0 0 0 0
4558 0 0 0 0 0 0
4552 0 0 0 0 0 0
2121 0 0 0 0 0 0
2137 0 0 0 0 0 0
2138 0 0 0 0 0 0
1185 0 0 0 0 0 0
1186 0 0 0 0 0 0
1187 0 0 0 0 0 0
1205 0 0 0 0 0 0
1206 0 0 0 0 0 0
1207 0 0 0 0 0 0
3513 0 0 0 0 0 0
4549 0 0 0 0 0 0
4560 0 0 0 0 0 0
4595 0 0 0 0 0 0
1152 0 0 0 0 0 0
1153 0 0 0 0 0 0
1168 0 0 0 0 0 0
1169 0 0 0 0 0 0
1170 0 0 0 0 0 0
1986 0 0 0 0 0 0
1987 0 0 0 0 0 0
3548 0 0 0 0 0 0
4562 0 0 0 0 0 0
4609 0 0 0 0 0 0
1138 0 0 0 0 0 0
1962 0 0 0 0 0 0
1973 0 0 0 0 0 0
1974 0 0 0 0 0 0
1975 0 0 0 0 0 0
1963 0 0 0 0 0 0
1964 0 0 0 0 0 0
1976 0 0 0 0 0 0
4583 0 0 0 0 0 0
1955 0 0 0 0 0 0
1965 0 0 0 0 0 0
1966 0 0 0 0 0 0
4598 0 0 0 0 0 0
4530 0 0 0 0 0 0
4534 0 0 0 0 0 0
4554 0 0 0 0 0 0
4587 0 0 0 0 0 0
1956 0 0 0 0 0 0
1957 0 0 0 0 0 0
1958 0 0 0 0 0 0
1967 0 0 0 0 0 0
4584 0 0 0 0 0 0
4599 0 0 0 0 0 0
4590 0 0 0 0 0 0
4603 0 0 0 0 0 0
1950 0 0 0 0 0 0
1951 0 0 0 0 0 0
1952 0 0 0 0 0 0
1959 0 0 0 0 0 0
1960 0 0 0 0 0 0
3555 0 0 0 0 0 0
3458 0 0 0 0 0 0
3484 0 0 0 0 0 0
3554 0 0 0 0 0 0
3600 0 0 0 0 0 0
2114 0 0 0 0 0 0
2115 0 0 0 0 0 0
2116 0 0 0 0 0 0
3509 0 0 0 0 0 0
2117 0 0 0 0 0 0
2118 0 0 0 0 0 0
2119 0 0 0 0 0 0
3527 0 0 0 0 0 0
3467 0 0 0 0 0 0
3562 0 0 0 0 0 0
3563 0 0 0 0 0 0
2102 0 0 0 0 0 0
2103 0 0 0 0 0 0
2104 0 0 0 0 0 0
2105 0 0 0 0 0 0
1202 0 0 0 0 0 0
1203 0 0 0 0 0 0
1204 0 0 0 0 0 0
2106 0 0 0 0 0 0
2120 0 0 0 0 0 0
1183 0 0 0 0 0 0
1184 0 0 0 0 0 0
3616 0 0 0 0 0 0
3507 0 0 0 0 0 0
3652 0 0 0 0 0 0
4527 0 0 0 0 0 0
1165 0 0 0 0 0 0
1166 0 0 0 0 0 0
1182 0 0 0 0 0 0
1149 0 0 0 0 0 0
1150 0 0 0 0 0 0
1151 0 0 0 0 0 0
1167 0 0 0 0 0 0
3543 0 0 0 0 0 0
3617 0 0 0 0 0 0
4531 0 0 0 0 0 0
4565 0 0 0 0 0 0
4604 0 0 0 0 0 0
1135 0 0 0 0 0 0
1136 0 0 0 0 0 0
4569 0 0 0 0 0 0
1123 0 0 0 0 0 0
1124 0 0 0 0 0 0
1125 0 0 0 0 0 0
1137 0 0 0 0 0 0
4585 0 0 0 0 0 0
4544 0 0 0 0 0 0
4582 0 0 0 0 0 0
1105 0 0 0 0 0 0
1113 0 0 0 0 0 0
1114 0 0 0 0 0 0
1953 0 0 0 0 0 0
1954 0 0 0 0 0 0
3531 0 0 0 0 0 0
3585 0 0 0 0 0 0
4612 0 0 0 0 0 0
4547 0 0 0 0 0 0
4578 0 0 0 0 0 0
1941 0 0 0 0 0 0
1946 0 0 0 0 0 0
1947 0 0 0 0 0 0
1948 0 0 0 0 0 0
1949 0 0 0 0 0 0
3521 0 0 0 0 0 0
4601 0 0 0 0 0 0
4580 0 0 0 0 0 0
1942 0 0 0 0 0 0
1940 0 0 0 0 0 0
1943 0 0 0 0 0 0
1944 0 0 0 0 0 0
1945 0 0 0 0 0 0
3648 0 0 0 0 0 0
3489 0 0 0 0 0 0
3519 0 0 0 0 0 0
3545 0 0 0 0 0 0
3444 0 0 0 0 0 0
3598 0 0 0 0 0 0
3581 0 0 0 0 0 0
3456 0 0 0 0 0 0
3564 0 0 0 0 0 0
3593 0 0 0 0 0 0
3632 0 0 0 0 0 0
2080 0 0 0 0 0 0
3549 0 0 0 0 0 0
2089 0 0 0 0 0 0
2090 0 0 0 0 0 0
2101 0 0 0 0 0 0
1198 0 0 0 0 0 0
2082 0 0 0 0 0 0
2091 0 0 0 0 0 0
2092 0 0 0 0 0 0
2093 0 0 0 0 0 0
1181 0 0 0 0 0 0
1199 0 0 0 0 0 0
1200 0 0 0 0 0 0
1201 0 0 0 0 0 0
3546 0 0 0 0 0 0
3450 0 0 0 0 0 0
3579 0 0 0 0 0 0
3560 0 0 0 0 0 0
3516 0 0 0 0 0 0
4550 0 0 0 0 0 0
1179 0 0 0 0 0 0
1180 0 0 0 0 0 0
4566 0 0 0 0 0 0
1147 0 0 0 0 0 0
1162 0 0 0 0 0 0
1163 0 0 0 0 0 0
1164 0 0 0 0 0 0
1148 0 0 0 0 0 0
3511 0 0 0 0 0 0
3634 0 0 0 0 0 0
4541 0 0 0 0 0 0
4571 0 0 0 0 0 0
4529 0 0 0 0 0 0
1146 0 0 0 0 0 0
4575 0 0 0 0 0 0
1121 0 0 0 0 0 0
1132 0 0 0 0 0 0
1133 0 0 0 0 0 0
1134 0 0 0 0 0 0
3603 0 0 0 0 0 0
3602 0 0 0 0 0 0
4588 0 0 0 0 0 0
4593 0 0 0 0 0 0
4568 0 0 0 0 0 0
1110 0 0 0 0 0 0
1120 0 0 0 0 0 0
1122 0 0 0 0 0 0
1111 0 0 0 0 0 0
1112 0 0 0 0 0 0
3529 0 0 0 0 0 0
3491 0 0 0 0 0 0
4532 0 0 0 0 0 0
4605 0 0 0 0 0 0
4538 0 0 0 0 0 0
1096 0 0 0 0 0 0
1097 0 0 0 0 0 0
1098 0 0 0 0 0 0
1102 0 0 0 0 0 0
1103 0 0 0 0 0 0
1104 0 0 0 0 0 0
3606 0 0 0 0 0 0
4542 0 0 0 0 0 0
4540 0 0 0 0 0 0
4548 0 0 0 0 0 0
4537 0 0 0 0 0 0
1090 0 0 0 0 0 0
1091 0 0 0 0 0 0
1092 0 0 0 0 0 0
1093 0 0 0 0 0 0
1937 0 0 0 0 0 0
1938 0 0 0 0 0 0
1939 0 0 0 0 0 0
3642 0 0 0 0 0 0
3537 0 0 0 0 0 0
3572 0 0 0 0 0 0
3490 0 0 0 0 0 0
3494 0 0 0 0 0 0
3500 0 0 0 0 0 0
3566 0 0 0 0 0 0
3646 0 0 0 0 0 0
3645 0 0 0 0 0 0
3520 0 0 0 0 0 0
3635 0 0 0 0 0 0
3625 0 0 0 0 0 0
2079 0 0 0 0 0 0
3472 0 0 0 0 0 0
2081 0 0 0 0 0 0
3644 0 0 0 0 0 0
3479 0 0 0 0 0 0
3447 0 0 0 0 0 0
3480 0 0 0 0 0 0
3503 0 0 0 0 0 0
2064 0 0 0 0 0 0
2065 0 0 0 0 0 0
2066 0 0 0 0 0 0
3641 0 0 0 0 0 0
2071 0 0 0 0 0 0
2072 0 0 0 0 0 0
1175 0 0 0 0 0 0
1194 0 0 0 0 0 0
1195 0 0 0 0 0 0
1196 0 0 0 0 0 0
1197 0 0 0 0 0 0
2073 0 0 0 0 0 0
1160 0 0 0 0 0 0
1176 0 0 0 0 0 0
1177 0 0 0 0 0 0
1178 0 0 0 0 0 0
1161 0 0 0 0 0 0
3561 0 0 0 0 0 0
3538 0 0 0 0 0 0
3476 0 0 0 0 0 0
4600 0 0 0 0 0 0
4551 0 0 0 0 0 0
4555 0 0 0 0 0 0
1142 0 0 0 0 0 0
1158 0 0 0 0 0 0
1159 0 0 0 0 0 0
1130 0 0 0 0 0 0
1143 0 0 0 0 0 0
1144 0 0 0 0 0 0
1145 0 0 0 0 0 0
3474 0 0 0 0 0 0
1131 0 0 0 0 0 0
3618 0 0 0 0 0 0
3631 0 0 0 0 0 0
3449 0 0 0 0 0 0
3533 0 0 0 0 0 0
4564 0 0 0 0 0 0
4589 0 0 0 0 0 0
1117 0 0 0 0 0 0
1129 0 0 0 0 0 0
1108 0 0 0 0 0 0
1109 0 0 0 0 0 0
1118 0 0 0 0 0 0
1119 0 0 0 0 0 0
3508 0 0 0 0 0 0
3619 0 0 0 0 0 0
4563 0 0 0 0 0 0
4573 0 0 0 0 0 0
4594 0 0 0 0 0 0
4572 0 0 0 0 0 0
599 0 0 0 0 0 0
1094 0 0 0 0 0 0
1099 0 0 0 0 0 0
1100 0 0 0 0 0 0
1101 0 0 0 0 0 0
1107 0 0 0 0 0 0
3640 0 0 0 0 0 0
4543 0 0 0 0 0 0
4597 0 0 0 0 0 0
4570 0 0 0 0 0 0
4574 0 0 0 0 0 0
580 0 0 0 0 0 0
600 0 0 0 0 0 0
601 0 0 0 0 0 0
602 0 0 0 0 0 0
4546 0 0 0 0 0 0
603 0 0 0 0 0 0
1095 0 0 0 0 0 0
3584 0 0 0 0 0 0
3612 0 0 0 0 0 0
3544 0 0 0 0 0 0
3459 0 0 0 0 0 0
3557 0 0 0 0 0 0
3471 0 0 0 0 0 0
3528 0 0 0 0 0 0
3482 0 0 0 0 0 0
3633 0 0 0 0 0 0
3535 0 0 0 0 0 0
3626 0 0 0 0 0 0
3451 0 0 0 0 0 0
3460 0 0 0 0 0 0
3542 0 0 0 0 0 0
3454 0 0 0 0 0 0
3493 0 0 0 0 0 0
3523 0 0 0 0 0 0
3446 0 0 0 0 0 0
3506 0 0 0 0 0 0
3443 0 0 0 0 0 0
1193 0 0 0 0 0 0
2060 0 0 0 0 0 0
2061 0 0 0 0 0 0
3639 0 0 0 0 0 0
3547 0 0 0 0 0 0
3470 0 0 0 0 0 0
585 0 0 0 0 0 0
586 0 0 0 0 0 0
587 0 0 0 0 0 0
1171 0 0 0 0 0 0
1190 0 0 0 0 0 0
1191 0 0 0 0 0 0
1192 0 0 0 0 0 0
2058 0 0 0 0 0 0
3461 0 0 0 0 0 0
1154 0 0 0 0 0 0
1155 0 0 0 0 0 0
1156 0 0 0 0 0 0
1172 0 0 0 0 0 0
1173 0 0 0 0 0 0
1174 0 0 0 0 0 0
1141 0 0 0 0 0 0
1157 0 0 0 0 0 0
3582 0 0 0 0 0 0
3567 0 0 0 0 0 0
3623 0 0 0 0 0 0
3599 0 0 0 0 0 0
588 0 0 0 0 0 0
4556 0 0 0 0 0 0
589 0 0 0 0 0 0
590 0 0 0 0 0 0
591 0 0 0 0 0 0
592 0 0 0 0 0 0
593 0 0 0 0 0 0
1126 0 0 0 0 0 0
1139 0 0 0 0 0 0
1140 0 0 0 0 0 0
1115 0 0 0 0 0 0
1116 0 0 0 0 0 0
1127 0 0 0 0 0 0
1128 0 0 0 0 0 0
3498 0 0 0 0 0 0
3505 0 0 0 0 0 0
4579 0 0 0 0 0 0
574 0 0 0 0 0 0
575 0 0 0 0 0 0
594 0 0 0 0 0 0
576 0 0 0 0 0 0
595 0 0 0 0 0 0
596 0 0 0 0 0 0
597 0 0 0 0 0 0
1106 0 0 0 0 0 0
598 0 0 0 0 0 0
3488 0 0 0 0 0 0
3536 0 0 0 0 0 0
4539 0 0 0 0 0 0
557 0 0 0 0 0 0
4536 0 0 0 0 0 0
558 0 0 0 0 0 0
559 0 0 0 0 0 0
577 0 0 0 0 0 0
578 0 0 0 0 0 0
579 0 0 0 0 0 0
3475 0 0 0 0 0 0
3595 0 0 0 0 0 0
3570 0 0 0 0 0 0
3588 0 0 0 0 0 0
3483 0 0 0 0 0 0
3552 0 0 0 0 0 0
3438 0 0 0 0 0 0
3578 0 0 0 0 0 0
3647 0 0 0 0 0 0
3575 0 0 0 0 0 0
3576 0 0 0 0 0 0
3589 0 0 0 0 0 0
3577 0 0 0 0 0 0
3587 0 0 0 0 0 0
3530 0 0 0 0 0 0
3628 0 0 0 0 0 0
3550 0 0 0 0 0 0
3627 0 0 0 0 0 0
3445 0 0 0 0 0 0
3630 0 0 0 0 0 0
3518 0 0 0 0 0 0
3604 0 0 0 0 0 0
549 0 0 0 0 0 0
566 0 0 0 0 0 0
567 0 0 0 0 0 0
568 0 0 0 0 0 0
3583 0 0 0 0 0 0
569 0 0 0 0 0 0
570 0 0 0 0 0 0
3610 0 0 0 0 0 0
3525 0 0 0 0 0 0
3615 0 0 0 0 0 0
3478 0 0 0 0 0 0
3605 0 0 0 0 0 0
534 0 0 0 0 0 0
535 0 0 0 0 0 0
536 0 0 0 0 0 0
550 0 0 0 0 0 0
551 0 0 0 0 0 0
552 0 0 0 0 0 0
553 0 0 0 0 0 0
554 0 0 0 0 0 0
571 0 0 0 0 0 0
555 0 0 0 0 0 0
572 0 0 0 0 0 0
573 0 0 0 0 0 0
3442 0 0 0 0 0 0
3558 0 0 0 0 0 0
521 0 0 0 0 0 0
522 0 0 0 0 0 0
523 0 0 0 0 0 0
537 0 0 0 0 0 0
538 0 0 0 0 0 0
539 0 0 0 0 0 0
540 0 0 0 0 0 0
556 0 0 0 0 0 0
3448 0 0 0 0 0 0
3613 0 0 0 0 0 0
3440 0 0 0 0 0 0
3522 0 0 0 0 0 0
3517 0 0 0 0 0 0
3571 0 0 0 0 0 0
3637 0 0 0 0 0 0
3539 0 0 0 0 0 0
3650 0 0 0 0 0 0
3502 0 0 0 0 0 0
3512 0 0 0 0 0 0
3486 0 0 0 0 0 0
3465 0 0 0 0 0 0
3492 0 0 0 0 0 0
3608 0 0 0 0 0 0
3636 0 0 0 0 0 0
3568 0 0 0 0 0 0
3614 0 0 0 0 0 0
3574 0 0 0 0 0 0
3466 0 0 0 0 0 0
3638 0 0 0 0 0 0
3453 0 0 0 0 0 0
3468 0 0 0 0 0 0
3457 0 0 0 0 0 0
3534 0 0 0 0 0 0
3556 0 0 0 0 0 0
3620 0 0 0 0 0 0
3463 0 0 0 0 0 0
3497 0 0 0 0 0 0
3526 0 0 0 0 0 0
3504 0 0 0 0 0 0
3496 0 0 0 0 0 0
3541 0 0 0 0 0 0
3653 0 0 0 0 0 0
3515 0 0 0 0 0 0
3551 0 0 0 0 0 0
3499 0 0 0 0 0 0
3559 0 0 0 0 0 0
3601 0 0 0 0 0 0
3473 0 0 0 0 0 0
3553 0 0 0 0 0 0
3573 0 0 0 0 0 0
3597 0 0 0 0 0 0
3682 0 0 0 0 0 0
3698 0 0 0 0 0 0
3839 0 0 0 0 0 0
3734 0 0 0 0 0 0
3842 0 0 0 0 0 0
3782 0 0 0 0 0 0
3793 0 0 0 0 0 0
3762 0 0 0 0 0 0
3754 0 0 0 0 0 0
3809 0 0 0 0 0 0
3668 0 0 0 0 0 0
3774 0 0 0 0 0 0
3681 0 0 0 0 0 0
3716 0 0 0 0 0 0
3703 0 0 0 0 0 0
3831 0 0 0 0 0 0
3687 0 0 0 0 0 0
3750 0 0 0 0 0 0
3708 0 0 0 0 0 0
3748 0 0 0 0 0 0
3778 0 0 0 0 0 0
3844 0 0 0 0 0 0
3758 0 0 0 0 0 0
3667 0 0 0 0 0 0
3678 0 0 0 0 0 0
3798 0 0 0 0 0 0
3808 0 0 0 0 0 0
3795 0 0 0 0 0 0
3836 0 0 0 0 0 0
3761 0 0 0 0 0 0
3802 0 0 0 0 0 0
3663 0 0 0 0 0 0
3699 0 0 0 0 0 0
3715 0 0 0 0 0 0
3690 0 0 0 0 0 0
3745 0 0 0 0 0 0
3791 0 0 0 0 0 0
3763 0 0 0 0 0 0
3726 0 0 0 0 0 0
3749 0 0 0 0 0 0
1235 0 0 0 0 0 0
1244 0 0 0 0 0 0
1245 0 0 0 0 0 0
1246 0 0 0 0 0 0
1242 0 0 0 0 0 0
1243 0 0 0 0 0 0
1254 0 0 0 0 0 0
3807 0 0 0 0 0 0
1256 0 0 0 0 0 0
1252 0 0 0 0 0 0
1253 0 0 0 0 0 0
1266 0 0 0 0 0 0
3801 0 0 0 0 0 0
3767 0 0 0 0 0 0
3686 0 0 0 0 0 0
3671 0 0 0 0 0 0
3676 0 0 0 0 0 0
3680 0 0 0 0 0 0
1224 0 0 0 0 0 0
1225 0 0 0 0 0 0
1226 0 0 0 0 0 0
1233 0 0 0 0 0 0
1234 0 0 0 0 0 0
1230 0 0 0 0 0 0
1231 0 0 0 0 0 0
1232 0 0 0 0 0 0
1241 0 0 0 0 0 0
1229 0 0 0 0 0 0
1239 0 0 0 0 0 0
1240 0 0 0 0 0 0
3721 0 0 0 0 0 0
3723 0 0 0 0 0 0
1214 0 0 0 0 0 0
1217 0 0 0 0 0 0
1218 0 0 0 0 0 0
1219 0 0 0 0 0 0
3817 0 0 0 0 0 0
1222 0 0 0 0 0 0
1223 0 0 0 0 0 0
3843 0 0 0 0 0 0
3672 0 0 0 0 0 0
3689 0 0 0 0 0 0
3821 0 0 0 0 0 0
3841 0 0 0 0 0 0
3744 0 0 0 0 0 0
3738 0 0 0 0 0 0
3806 0 0 0 0 0 0
3827 0 0 0 0 0 0
3783 0 0 0 0 0 0
3813 0 0 0 0 0 0
3733 0 0 0 0 0 0
3757 0 0 0 0 0 0
3840 0 0 0 0 0 0
3828 0 0 0 0 0 0
3769 0 0 0 0 0 0
3735 0 0 0 0 0 0
3737 0 0 0 0 0 0
3740 0 0 0 0 0 0
3759 0 0 0 0 0 0
3824 0 0 0 0 0 0
3658 0 0 0 0 0 0
3810 0 0 0 0 0 0
3846 0 0 0 0 0 0
3677 0 0 0 0 0 0
3739 0 0 0 0 0 0
3732 0 0 0 0 0 0
3776 0 0 0 0 0 0
3709 0 0 0 0 0 0
3727 0 0 0 0 0 0
3765 0 0 0 0 0 0
3818 0 0 0 0 0 0
3823 0 0 0 0 0 0
4637 0 0 0 0 0 0
4662 0 0 0 0 0 0
4675 0 0 0 0 0 0
1251 0 0 0 0 0 0
1262 0 0 0 0 0 0
1263 0 0 0 0 0 0
1264 0 0 0 0 0 0
1265 0 0 0 0 0 0
1279 0 0 0 0 0 0
931 0 0 0 0 0 0
1278 0 0 0 0 0 0
3845 0 0 0 0 0 0
4680 0 0 0 0 0 0
4677 0 0 0 0 0 0
1237 0 0 0 0 0 0
1238 0 0 0 0 0 0
1250 0 0 0 0 0 0
4624 0 0 0 0 0 0
1236 0 0 0 0 0 0
1247 0 0 0 0 0 0
1248 0 0 0 0 0 0
1249 0 0 0 0 0 0
1924 0 0 0 0 0 0
1261 0 0 0 0 0 0
3787 0 0 0 0 0 0
3729 0 0 0 0 0 0
3780 0 0 0 0 0 0
1216 0 0 0 0 0 0
1215 0 0 0 0 0 0
1220 0 0 0 0 0 0
1221 0 0 0 0 0 0
1227 0 0 0 0 0 0
1228 0 0 0 0 0 0
1928 0 0 0 0 0 0
1929 0 0 0 0 0 0
1930 0 0 0 0 0 0
1907 0 0 0 0 0 0
1925 0 0 0 0 0 0
1926 0 0 0 0 0 0
1927 0 0 0 0 0 0
3718 0 0 0 0 0 0
3834 0 0 0 0 0 0
968 0 0 0 0 0 0
1211 0 0 0 0 0 0
1212 0 0 0 0 0 0
1213 0 0 0 0 0 0
1915 0 0 0 0 0 0
1934 0 0 0 0 0 0
1935 0 0 0 0 0 0
1936 0 0 0 0 0 0
1911 0 0 0 0 0 0
1912 0 0 0 0 0 0
1913 0 0 0 0 0 0
1931 0 0 0 0 0 0
1932 0 0 0 0 0 0
1933 0 0 0 0 0 0
1909 0 0 0 0 0 0
1910 0 0 0 0 0 0
3711 0 0 0 0 0 0
3786 0 0 0 0 0 0
3803 0 0 0 0 0 0
966 0 0 0 0 0 0
967 0 0 0 0 0 0
1914 0 0 0 0 0 0
3804 0 0 0 0 0 0
3832 0 0 0 0 0 0
3695 0 0 0 0 0 0
3741 0 0 0 0 0 0
3657 0 0 0 0 0 0
3679 0 0 0 0 0 0
3792 0 0 0 0 0 0
3728 0 0 0 0 0 0
3670 0 0 0 0 0 0
3712 0 0 0 0 0 0
3717 0 0 0 0 0 0
3772 0 0 0 0 0 0
3797 0 0 0 0 0 0
3704 0 0 0 0 0 0
3722 0 0 0 0 0 0
3662 0 0 0 0 0 0
3685 0 0 0 0 0 0
3731 0 0 0 0 0 0
3660 0 0 0 0 0 0
3713 0 0 0 0 0 0
3659 0 0 0 0 0 0
3838 0 0 0 0 0 0
3835 0 0 0 0 0 0
3830 0 0 0 0 0 0
3688 0 0 0 0 0 0
3691 0 0 0 0 0 0
3697 0 0 0 0 0 0
4617 0 0 0 0 0 0
4623 0 0 0 0 0 0
1275 0 0 0 0 0 0
1276 0 0 0 0 0 0
1277 0 0 0 0 0 0
1293 0 0 0 0 0 0
1294 0 0 0 0 0 0
1295 0 0 0 0 0 0
1292 0 0 0 0 0 0
1312 0 0 0 0 0 0
1919 0 0 0 0 0 0
3743 0 0 0 0 0 0
4642 0 0 0 0 0 0
4647 0 0 0 0 0 0
1260 0 0 0 0 0 0
1901 0 0 0 0 0 0
1920 0 0 0 0 0 0
1921 0 0 0 0 0 0
1922 0 0 0 0 0 0
1923 0 0 0 0 0 0
3666 0 0 0 0 0 0
3655 0 0 0 0 0 0
3692 0 0 0 0 0 0
4619 0 0 0 0 0 0
1905 0 0 0 0 0 0
1906 0 0 0 0 0 0
4626 0 0 0 0 0 0
4672 0 0 0 0 0 0
1886 0 0 0 0 0 0
1902 0 0 0 0 0 0
1903 0 0 0 0 0 0
1904 0 0 0 0 0 0
3837 0 0 0 0 0 0
3669 0 0 0 0 0 0
3730 0 0 0 0 0 0
4699 0 0 0 0 0 0
4625 0 0 0 0 0 0
1891 0 0 0 0 0 0
1892 0 0 0 0 0 0
1908 0 0 0 0 0 0
1873 0 0 0 0 0 0
1888 0 0 0 0 0 0
1889 0 0 0 0 0 0
1890 0 0 0 0 0 0
1887 0 0 0 0 0 0
3751 0 0 0 0 0 0
3710 0 0 0 0 0 0
943 0 0 0 0 0 0
944 0 0 0 0 0 0
945 0 0 0 0 0 0
963 0 0 0 0 0 0
964 0 0 0 0 0 0
965 0 0 0 0 0 0
962 0 0 0 0 0 0
1878 0 0 0 0 0 0
1879 0 0 0 0 0 0
1894 0 0 0 0 0 0
1895 0 0 0 0 0 0
1896 0 0 0 0 0 0
1875 0 0 0 0 0 0
1876 0 0 0 0 0 0
1877 0 0 0 0 0 0
1893 0 0 0 0 0 0
1874 0 0 0 0 0 0
3694 0 0 0 0 0 0
942 0 0 0 0 0 0
961 0 0 0 0 0 0
3781 0 0 0 0 0 0
3665 0 0 0 0 0 0
3702 0 0 0 0 0 0
3779 0 0 0 0 0 0
3789 0 0 0 0 0 0
3825 0 0 0 0 0 0
3756 0 0 0 0 0 0
3752 0 0 0 0 0 0
4661 0 0 0 0 0 0
4698 0 0 0 0 0 0
4654 0 0 0 0 0 0
4620 0 0 0 0 0 0
4656 0 0 0 0 0 0
1068 0 0 0 0 0 0
1088 0 0 0 0 0 0
1089 0 0 0 0 0 0
930 0 0 0 0 0 0
1897 0 0 0 0 0 0
1916 0 0 0 0 0 0
1917 0 0 0 0 0 0
1918 0 0 0 0 0 0
4693 0 0 0 0 0 0
4702 0 0 0 0 0 0
4682 0 0 0 0 0 0
1880 0 0 0 0 0 0
1881 0 0 0 0 0 0
1882 0 0 0 0 0 0
1898 0 0 0 0 0 0
1899 0 0 0 0 0 0
1900 0 0 0 0 0 0
4616 0 0 0 0 0 0
4658 0 0 0 0 0 0
1868 0 0 0 0 0 0
1884 0 0 0 0 0 0
1885 0 0 0 0 0 0
1867 0 0 0 0 0 0
1883 0 0 0 0 0 0
3833 0 0 0 0 0 0
3656 0 0 0 0 0 0
4678 0 0 0 0 0 0
4635 0 0 0 0 0 0
4648 0 0 0 0 0 0
4676 0 0 0 0 0 0
1872 0 0 0 0 0 0
1856 0 0 0 0 0 0
1869 0 0 0 0 0 0
1870 0 0 0 0 0 0
1871 0 0 0 0 0 0
4666 0 0 0 0 0 0
3696 0 0 0 0 0 0
4685 0 0 0 0 0 0
4644 0 0 0 0 0 0
1861 0 0 0 0 0 0
1862 0 0 0 0 0 0
1847 0 0 0 0 0 0
1858 0 0 0 0 0 0
1859 0 0 0 0 0 0
1860 0 0 0 0 0 0
1857 0 0 0 0 0 0
3819 0 0 0 0 0 0
921 0 0 0 0 0 0
922 0 0 0 0 0 0
923 0 0 0 0 0 0
924 0 0 0 0 0 0
940 0 0 0 0 0 0
941 0 0 0 0 0 0
939 0 0 0 0 0 0
958 0 0 0 0 0 0
959 0 0 0 0 0 0
960 0 0 0 0 0 0
1864 0 0 0 0 0 0
1849 0 0 0 0 0 0
1850 0 0 0 0 0 0
1851 0 0 0 0 0 0
1863 0 0 0 0 0 0
3788 0 0 0 0 0 0
3815 0 0 0 0 0 0
3701 0 0 0 0 0 0
3784 0 0 0 0 0 0
3800 0 0 0 0 0 0
3764 0 0 0 0 0 0
3812 0 0 0 0 0 0
3826 0 0 0 0 0 0
3790 0 0 0 0 0 0
3760 0 0 0 0 0 0
3775 0 0 0 0 0 0
3747 0 0 0 0 0 0
3794 0 0 0 0 0 0
3796 0 0 0 0 0 0
3771 0 0 0 0 0 0
3654 0 0 0 0 0 0
3683 0 0 0 0 0 0
3805 0 0 0 0 0 0
3799 0 0 0 0 0 0
4621 0 0 0 0 0 0
4650 0 0 0 0 0 0
4649 0 0 0 0 0 0
4646 0 0 0 0 0 0
4659 0 0 0 0 0 0
4700 0 0 0 0 0 0
1067 0 0 0 0 0 0
1066 0 0 0 0 0 0
1085 0 0 0 0 0 0
1086 0 0 0 0 0 0
1087 0 0 0 0 0 0
4638 0 0 0 0 0 0
4679 0 0 0 0 0 0
4627 0 0 0 0 0 0
4633 0 0 0 0 0 0
1032 0 0 0 0 0 0
1048 0 0 0 0 0 0
1049 0 0 0 0 0 0
4697 0 0 0 0 0 0
1047 0 0 0 0 0 0
1065 0 0 0 0 0 0
4631 0 0 0 0 0 0
4692 0 0 0 0 0 0
1017 0 0 0 0 0 0
1031 0 0 0 0 0 0
1852 0 0 0 0 0 0
1865 0 0 0 0 0 0
1866 0 0 0 0 0 0
1843 0 0 0 0 0 0
1855 0 0 0 0 0 0
1841 0 0 0 0 0 0
1842 0 0 0 0 0 0
1853 0 0 0 0 0 0
1854 0 0 0 0 0 0
1836 0 0 0 0 0 0
1846 0 0 0 0 0 0
1848 0 0 0 0 0 0
4629 0 0 0 0 0 0
1834 0 0 0 0 0 0
1835 0 0 0 0 0 0
1844 0 0 0 0 0 0
1845 0 0 0 0 0 0
3816 0 0 0 0 0 0
920 0 0 0 0 0 0
937 0 0 0 0 0 0
938 0 0 0 0 0 0
957 0 0 0 0 0 0
4687 0 0 0 0 0 0
955 0 0 0 0 0 0
956 0 0 0 0 0 0
1831 0 0 0 0 0 0
1839 0 0 0 0 0 0
1840 0 0 0 0 0 0
1837 0 0 0 0 0 0
1838 0 0 0 0 0 0
3693 0 0 0 0 0 0
903 0 0 0 0 0 0
904 0 0 0 0 0 0
905 0 0 0 0 0 0
919 0 0 0 0 0 0
918 0 0 0 0 0 0
935 0 0 0 0 0 0
936 0 0 0 0 0 0
3674 0 0 0 0 0 0
3675 0 0 0 0 0 0
3707 0 0 0 0 0 0
3766 0 0 0 0 0 0
3777 0 0 0 0 0 0
3736 0 0 0 0 0 0
3773 0 0 0 0 0 0
3661 0 0 0 0 0 0
3719 0 0 0 0 0 0
4695 0 0 0 0 0 0
4665 0 0 0 0 0 0
4671 0 0 0 0 0 0
4643 0 0 0 0 0 0
4674 0 0 0 0 0 0
4630 0 0 0 0 0 0
4653 0 0 0 0 0 0
1062 0 0 0 0 0 0
1064 0 0 0 0 0 0
1082 0 0 0 0 0 0
1083 0 0 0 0 0 0
1084 0 0 0 0 0 0
3673 0 0 0 0 0 0
3820 0 0 0 0 0 0
4639 0 0 0 0 0 0
4686 0 0 0 0 0 0
4684 0 0 0 0 0 0
4683 0 0 0 0 0 0
1044 0 0 0 0 0 0
1045 0 0 0 0 0 0
1046 0 0 0 0 0 0
1063 0 0 0 0 0 0
4622 0 0 0 0 0 0
4670 0 0 0 0 0 0
4691 0 0 0 0 0 0
4641 0 0 0 0 0 0
4696 0 0 0 0 0 0
1014 0 0 0 0 0 0
1015 0 0 0 0 0 0
1016 0 0 0 0 0 0
1028 0 0 0 0 0 0
1029 0 0 0 0 0 0
1030 0 0 0 0 0 0
3724 0 0 0 0 0 0
4657 0 0 0 0 0 0
4689 0 0 0 0 0 0
4703 0 0 0 0 0 0
993 0 0 0 0 0 0
1002 0 0 0 0 0 0
1003 0 0 0 0 0 0
1004 0 0 0 0 0 0
1832 0 0 0 0 0 0
3684 0 0 0 0 0 0
4667 0 0 0 0 0 0
4640 0 0 0 0 0 0
984 0 0 0 0 0 0
1820 0 0 0 0 0 0
1825 0 0 0 0 0 0
1826 0 0 0 0 0 0
1827 0 0 0 0 0 0
1833 0 0 0 0 0 0
992 0 0 0 0 0 0
3700 0 0 0 0 0 0
3746 0 0 0 0 0 0
3822 0 0 0 0 0 0
4663 0 0 0 0 0 0
4673 0 0 0 0 0 0
952 0 0 0 0 0 0
953 0 0 0 0 0 0
954 0 0 0 0 0 0
1822 0 0 0 0 0 0
1823 0 0 0 0 0 0
1824 0 0 0 0 0 0
1828 0 0 0 0 0 0
1829 0 0 0 0 0 0
1830 0 0 0 0 0 0
3770 0 0 0 0 0 0
888 0 0 0 0 0 0
900 0 0 0 0 0 0
901 0 0 0 0 0 0
902 0 0 0 0 0 0
915 0 0 0 0 0 0
916 0 0 0 0 0 0
917 0 0 0 0 0 0
934 0 0 0 0 0 0
932 0 0 0 0 0 0
933 0 0 0 0 0 0
3768 0 0 0 0 0 0
3829 0 0 0 0 0 0
3714 0 0 0 0 0 0
3785 0 0 0 0 0 0
3814 0 0 0 0 0 0
3664 0 0 0 0 0 0
3705 0 0 0 0 0 0
4634 0 0 0 0 0 0
4618 0 0 0 0 0 0
4681 0 0 0 0 0 0
4651 0 0 0 0 0 0
1060 0 0 0 0 0 0
1080 0 0 0 0 0 0
1081 0 0 0 0 0 0
4632 0 0 0 0 0 0
1042 0 0 0 0 0 0
1043 0 0 0 0 0 0
1061 0 0 0 0 0 0
4690 0 0 0 0 0 0
4694 0 0 0 0 0 0
4701 0 0 0 0 0 0
4664 0 0 0 0 0 0
4668 0 0 0 0 0 0
1013 0 0 0 0 0 0
1026 0 0 0 0 0 0
1027 0 0 0 0 0 0
4645 0 0 0 0 0 0
4636 0 0 0 0 0 0
4652 0 0 0 0 0 0
4660 0 0 0 0 0 0
991 0 0 0 0 0 0
1000 0 0 0 0 0 0
1001 0 0 0 0 0 0
1012 0 0 0 0 0 0
3811 0 0 0 0 0 0
4688 0 0 0 0 0 0
976 0 0 0 0 0 0
977 0 0 0 0 0 0
982 0 0 0 0 0 0
983 0 0 0 0 0 0
990 0 0 0 0 0 0
3742 0 0 0 0 0 0
4655 0 0 0 0 0 0
4628 0 0 0 0 0 0
951 0 0 0 0 0 0
4669 0 0 0 0 0 0
948 0 0 0 0 0 0
949 0 0 0 0 0 0
950 0 0 0 0 0 0
1816 0 0 0 0 0 0
1817 0 0 0 0 0 0
1818 0 0 0 0 0 0
1819 0 0 0 0 0 0
972 0 0 0 0 0 0
1821 0 0 0 0 0 0
3720 0 0 0 0 0 0
3753 0 0 0 0 0 0
3755 0 0 0 0 0 0
3706 0 0 0 0 0 0
3725 0 0 0 0 0 0
884 0 0 0 0 0 0
885 0 0 0 0 0 0
886 0 0 0 0 0 0
897 0 0 0 0 0 0
898 0 0 0 0 0 0
899 0 0 0 0 0 0
913 0 0 0 0 0 0
914 0 0 0 0 0 0
912 0 0 0 0 0 0
929 0 0 0 0 0 0
1041 0 0 0 0 0 0
1059 0 0 0 0 0 0
1025 0 0 0 0 0 0
989 0 0 0 0 0 0
999 0 0 0 0 0 0
981 0 0 0 0 0 0
4751 0 0 0 0 0 0
4716 0 0 0 0 0 0
4774 0 0 0 0 0 0
4745 0 0 0 0 0 0
1058 0 0 0 0 0 0
1077 0 0 0 0 0 0
1078 0 0 0 0 0 0
1079 0 0 0 0 0 0
4707 0 0 0 0 0 0
4730 0 0 0 0 0 0
4755 0 0 0 0 0 0
4720 0 0 0 0 0 0
4731 0 0 0 0 0 0
1039 0 0 0 0 0 0
1040 0 0 0 0 0 0
3912 0 0 0 0 0 0
1057 0 0 0 0 0 0
3922 0 0 0 0 0 0
3975 0 0 0 0 0 0
4024 0 0 0 0 0 0
4734 0 0 0 0 0 0
4743 0 0 0 0 0 0
4772 0 0 0 0 0 0
4704 0 0 0 0 0 0
1009 0 0 0 0 0 0
1011 0 0 0 0 0 0
1023 0 0 0 0 0 0
1024 0 0 0 0 0 0
3867 0 0 0 0 0 0
4771 0 0 0 0 0 0
4754 0 0 0 0 0 0
4750 0 0 0 0 0 0
4723 0 0 0 0 0 0
4769 0 0 0 0 0 0
987 0 0 0 0 0 0
3974 0 0 0 0 0 0
997 0 0 0 0 0 0
998 0 0 0 0 0 0
3896 0 0 0 0 0 0
1010 0 0 0 0 0 0
3951 0 0 0 0 0 0
4726 0 0 0 0 0 0
4739 0 0 0 0 0 0
4728 0 0 0 0 0 0
973 0 0 0 0 0 0
974 0 0 0 0 0 0
975 0 0 0 0 0 0
979 0 0 0 0 0 0
980 0 0 0 0 0 0
3878 0 0 0 0 0 0
988 0 0 0 0 0 0
4014 0 0 0 0 0 0
4766 0 0 0 0 0 0
4768 0 0 0 0 0 0
4711 0 0 0 0 0 0
4737 0 0 0 0 0 0
325 0 0 0 0 0 0
324 0 0 0 0 0 0
343 0 0 0 0 0 0
344 0 0 0 0 0 0
463 0 0 0 0 0 0
482 0 0 0 0 0 0
483 0 0 0 0 0 0
484 0 0 0 0 0 0
969 0 0 0 0 0 0
481 0 0 0 0 0 0
970 0 0 0 0 0 0
971 0 0 0 0 0 0
3847 0 0 0 0 0 0
3879 0 0 0 0 0 0
3936 0 0 0 0 0 0
3991 0 0 0 0 0 0
3907 0 0 0 0 0 0
332 0 0 0 0 0 0
351 0 0 0 0 0 0
352 0 0 0 0 0 0
353 0 0 0 0 0 0
328 0 0 0 0 0 0
330 0 0 0 0 0 0
348 0 0 0 0 0 0
349 0 0 0 0 0 0
350 0 0 0 0 0 0
326 0 0 0 0 0 0
345 0 0 0 0 0 0
346 0 0 0 0 0 0
347 0 0 0 0 0 0
4015 0 0 0 0 0 0
3994 0 0 0 0 0 0
3964 0 0 0 0 0 0
3978 0 0 0 0 0 0
3947 0 0 0 0 0 0
3968 0 0 0 0 0 0
3981 0 0 0 0 0 0
3971 0 0 0 0 0 0
4023 0 0 0 0 0 0
4046 0 0 0 0 0 0
4706 0 0 0 0 0 0
4735 0 0 0 0 0 0
1054 0 0 0 0 0 0
1056 0 0 0 0 0 0
1074 0 0 0 0 0 0
1075 0 0 0 0 0 0
1076 0 0 0 0 0 0
4710 0 0 0 0 0 0
4725 0 0 0 0 0 0
4714 0 0 0 0 0 0
4733 0 0 0 0 0 0
4764 0 0 0 0 0 0
1036 0 0 0 0 0 0
1037 0 0 0 0 0 0
1038 0 0 0 0 0 0
1055 0 0 0 0 0 0
1006 0 0 0 0 0 0
1007 0 0 0 0 0 0
1008 0 0 0 0 0 0
1020 0 0 0 0 0 0
1021 0 0 0 0 0 0
1022 0 0 0 0 0 0
4002 0 0 0 0 0 0
3995 0 0 0 0 0 0
4744 0 0 0 0 0 0
4760 0 0 0 0 0 0
4738 0 0 0 0 0 0
4780 0 0 0 0 0 0
476 0 0 0 0 0 0
985 0 0 0 0 0 0
994 0 0 0 0 0 0
995 0 0 0 0 0 0
996 0 0 0 0 0 0
3862 0 0 0 0 0 0
4060 0 0 0 0 0 0
4746 0 0 0 0 0 0
4753 0 0 0 0 0 0
459 0 0 0 0 0 0
477 0 0 0 0 0 0
478 0 0 0 0 0 0
479 0 0 0 0 0 0
480 0 0 0 0 0 0
978 0 0 0 0 0 0
986 0 0 0 0 0 0
3888 0 0 0 0 0 0
3989 0 0 0 0 0 0
4013 0 0 0 0 0 0
3990 0 0 0 0 0 0
4781 0 0 0 0 0 0
292 0 0 0 0 0 0
307 0 0 0 0 0 0
308 0 0 0 0 0 0
4762 0 0 0 0 0 0
442 0 0 0 0 0 0
443 0 0 0 0 0 0
444 0 0 0 0 0 0
460 0 0 0 0 0 0
461 0 0 0 0 0 0
462 0 0 0 0 0 0
3876 0 0 0 0 0 0
3939 0 0 0 0 0 0
3963 0 0 0 0 0 0
3993 0 0 0 0 0 0
313 0 0 0 0 0 0
314 0 0 0 0 0 0
315 0 0 0 0 0 0
331 0 0 0 0 0 0
4066 0 0 0 0 0 0
310 0 0 0 0 0 0
311 0 0 0 0 0 0
312 0 0 0 0 0 0
329 0 0 0 0 0 0
309 0 0 0 0 0 0
327 0 0 0 0 0 0
4045 0 0 0 0 0 0
4058 0 0 0 0 0 0
4000 0 0 0 0 0 0
3917 0 0 0 0 0 0
4008 0 0 0 0 0 0
3996 0 0 0 0 0 0
3902 0 0 0 0 0 0
4032 0 0 0 0 0 0
4017 0 0 0 0 0 0
4757 0 0 0 0 0 0
4724 0 0 0 0 0 0
4759 0 0 0 0 0 0
1051 0 0 0 0 0 0
1052 0 0 0 0 0 0
1071 0 0 0 0 0 0
1072 0 0 0 0 0 0
1073 0 0 0 0 0 0
3914 0 0 0 0 0 0
4709 0 0 0 0 0 0
4782 0 0 0 0 0 0
4727 0 0 0 0 0 0
4777 0 0 0 0 0 0
1018 0 0 0 0 0 0
1033 0 0 0 0 0 0
1034 0 0 0 0 0 0
1035 0 0 0 0 0 0
1053 0 0 0 0 0 0
3988 0 0 0 0 0 0
4722 0 0 0 0 0 0
470 0 0 0 0 0 0
471 0 0 0 0 0 0
472 0 0 0 0 0 0
1005 0 0 0 0 0 0
1019 0 0 0 0 0 0
4021 0 0 0 0 0 0
4775 0 0 0 0 0 0
4748 0 0 0 0 0 0
454 0 0 0 0 0 0
455 0 0 0 0 0 0
4778 0 0 0 0 0 0
453 0 0 0 0 0 0
473 0 0 0 0 0 0
474 0 0 0 0 0 0
475 0 0 0 0 0 0
4055 0 0 0 0 0 0
4062 0 0 0 0 0 0
424 0 0 0 0 0 0
439 0 0 0 0 0 0
440 0 0 0 0 0 0
438 0 0 0 0 0 0
456 0 0 0 0 0 0
457 0 0 0 0 0 0
458 0 0 0 0 0 0
4035 0 0 0 0 0 0
283 0 0 0 0 0 0
280 0 0 0 0 0 0
281 0 0 0 0 0 0
282 0 0 0 0 0 0
279 0 0 0 0 0 0
293 0 0 0 0 0 0
412 0 0 0 0 0 0
426 0 0 0 0 0 0
427 0 0 0 0 0 0
425 0 0 0 0 0 0
441 0 0 0 0 0 0
3956 0 0 0 0 0 0
3952 0 0 0 0 0 0
285 0 0 0 0 0 0
297 0 0 0 0 0 0
298 0 0 0 0 0 0
299 0 0 0 0 0 0
294 0 0 0 0 0 0
295 0 0 0 0 0 0
296 0 0 0 0 0 0
3908 0 0 0 0 0 0
3873 0 0 0 0 0 0
3864 0 0 0 0 0 0
3941 0 0 0 0 0 0
3948 0 0 0 0 0 0
3855 0 0 0 0 0 0
3887 0 0 0 0 0 0
3934 0 0 0 0 0 0
3903 0 0 0 0 0 0
4009 0 0 0 0 0 0
3870 0 0 0 0 0 0
4712 0 0 0 0 0 0
4770 0 0 0 0 0 0
4708 0 0 0 0 0 0
445 0 0 0 0 0 0
464 0 0 0 0 0 0
465 0 0 0 0 0 0
466 0 0 0 0 0 0
605 0 0 0 0 0 0
1050 0 0 0 0 0 0
1069 0 0 0 0 0 0
1070 0 0 0 0 0 0
4715 0 0 0 0 0 0
4719 0 0 0 0 0 0
447 0 0 0 0 0 0
448 0 0 0 0 0 0
449 0 0 0 0 0 0
467 0 0 0 0 0 0
468 0 0 0 0 0 0
469 0 0 0 0 0 0
4057 0 0 0 0 0 0
3940 0 0 0 0 0 0
4705 0 0 0 0 0 0
4721 0 0 0 0 0 0
4729 0 0 0 0 0 0
4741 0 0 0 0 0 0
4749 0 0 0 0 0 0
4761 0 0 0 0 0 0
4765 0 0 0 0 0 0
4767 0 0 0 0 0 0
432 0 0 0 0 0 0
433 0 0 0 0 0 0
452 0 0 0 0 0 0
450 0 0 0 0 0 0
451 0 0 0 0 0 0
3859 0 0 0 0 0 0
4758 0 0 0 0 0 0
420 0 0 0 0 0 0
419 0 0 0 0 0 0
434 0 0 0 0 0 0
435 0 0 0 0 0 0
436 0 0 0 0 0 0
4776 0 0 0 0 0 0
4713 0 0 0 0 0 0
397 0 0 0 0 0 0
409 0 0 0 0 0 0
408 0 0 0 0 0 0
421 0 0 0 0 0 0
422 0 0 0 0 0 0
423 0 0 0 0 0 0
437 0 0 0 0 0 0
3892 0 0 0 0 0 0
3967 0 0 0 0 0 0
3999 0 0 0 0 0 0
4012 0 0 0 0 0 0
3987 0 0 0 0 0 0
261 0 0 0 0 0 0
263 0 0 0 0 0 0
271 0 0 0 0 0 0
272 0 0 0 0 0 0
3884 0 0 0 0 0 0
284 0 0 0 0 0 0
259 0 0 0 0 0 0
268 0 0 0 0 0 0
269 0 0 0 0 0 0
270 0 0 0 0 0 0
388 0 0 0 0 0 0
398 0 0 0 0 0 0
399 0 0 0 0 0 0
410 0 0 0 0 0 0
411 0 0 0 0 0 0
3863 0 0 0 0 0 0
3869 0 0 0 0 0 0
3851 0 0 0 0 0 0
4019 0 0 0 0 0 0
4025 0 0 0 0 0 0
3935 0 0 0 0 0 0
4041 0 0 0 0 0 0
3926 0 0 0 0 0 0
3960 0 0 0 0 0 0
3890 0 0 0 0 0 0
3915 0 0 0 0 0 0
4026 0 0 0 0 0 0
4018 0 0 0 0 0 0
3930 0 0 0 0 0 0
3943 0 0 0 0 0 0
4030 0 0 0 0 0 0
3886 0 0 0 0 0 0
3913 0 0 0 0 0 0
3909 0 0 0 0 0 0
4011 0 0 0 0 0 0
3920 0 0 0 0 0 0
4063 0 0 0 0 0 0
3897 0 0 0 0 0 0
4773 0 0 0 0 0 0
4736 0 0 0 0 0 0
563 0 0 0 0 0 0
564 0 0 0 0 0 0
565 0 0 0 0 0 0
581 0 0 0 0 0 0
582 0 0 0 0 0 0
583 0 0 0 0 0 0
446 0 0 0 0 0 0
584 0 0 0 0 0 0
604 0 0 0 0 0 0
4003 0 0 0 0 0 0
4742 0 0 0 0 0 0
4783 0 0 0 0 0 0
4779 0 0 0 0 0 0
4732 0 0 0 0 0 0
413 0 0 0 0 0 0
414 0 0 0 0 0 0
428 0 0 0 0 0 0
429 0 0 0 0 0 0
430 0 0 0 0 0 0
548 0 0 0 0 0 0
4717 0 0 0 0 0 0
4033 0 0 0 0 0 0
4747 0 0 0 0 0 0
402 0 0 0 0 0 0
403 0 0 0 0 0 0
415 0 0 0 0 0 0
416 0 0 0 0 0 0
417 0 0 0 0 0 0
431 0 0 0 0 0 0
3883 0 0 0 0 0 0
3910 0 0 0 0 0 0
3937 0 0 0 0 0 0
384 0 0 0 0 0 0
392 0 0 0 0 0 0
394 0 0 0 0 0 0
393 0 0 0 0 0 0
404 0 0 0 0 0 0
405 0 0 0 0 0 0
406 0 0 0 0 0 0
418 0 0 0 0 0 0
3877 0 0 0 0 0 0
4052 0 0 0 0 0 0
247 0 0 0 0 0 0
248 0 0 0 0 0 0
249 0 0 0 0 0 0
253 0 0 0 0 0 0
254 0 0 0 0 0 0
255 0 0 0 0 0 0
252 0 0 0 0 0 0
372 0 0 0 0 0 0
377 0 0 0 0 0 0
378 0 0 0 0 0 0
379 0 0 0 0 0 0
387 0 0 0 0 0 0
385 0 0 0 0 0 0
386 0 0 0 0 0 0
395 0 0 0 0 0 0
396 0 0 0 0 0 0
407 0 0 0 0 0 0
3848 0 0 0 0 0 0
3955 0 0 0 0 0 0
4028 0 0 0 0 0 0
262 0 0 0 0 0 0
260 0 0 0 0 0 0
3953 0 0 0 0 0 0
3852 0 0 0 0 0 0
3898 0 0 0 0 0 0
3924 0 0 0 0 0 0
3932 0 0 0 0 0 0
4040 0 0 0 0 0 0
3997 0 0 0 0 0 0
3861 0 0 0 0 0 0
3858 0 0 0 0 0 0
3866 0 0 0 0 0 0
3969 0 0 0 0 0 0
4065 0 0 0 0 0 0
4718 0 0 0 0 0 0
529 0 0 0 0 0 0
543 0 0 0 0 0 0
544 0 0 0 0 0 0
545 0 0 0 0 0 0
546 0 0 0 0 0 0
560 0 0 0 0 0 0
4020 0 0 0 0 0 0
562 0 0 0 0 0 0
3916 0 0 0 0 0 0
4036 0 0 0 0 0 0
4763 0 0 0 0 0 0
4740 0 0 0 0 0 0
518 0 0 0 0 0 0
519 0 0 0 0 0 0
530 0 0 0 0 0 0
400 0 0 0 0 0 0
520 0 0 0 0 0 0
531 0 0 0 0 0 0
532 0 0 0 0 0 0
533 0 0 0 0 0 0
547 0 0 0 0 0 0
3944 0 0 0 0 0 0
3856 0 0 0 0 0 0
3918 0 0 0 0 0 0
3980 0 0 0 0 0 0
492 0 0 0 0 0 0
493 0 0 0 0 0 0
499 0 0 0 0 0 0
500 0 0 0 0 0 0
4752 0 0 0 0 0 0
4756 0 0 0 0 0 0
373 0 0 0 0 0 0
380 0 0 0 0 0 0
381 0 0 0 0 0 0
508 0 0 0 0 0 0
509 0 0 0 0 0 0
389 0 0 0 0 0 0
390 0 0 0 0 0 0
391 0 0 0 0 0 0
401 0 0 0 0 0 0
3874 0 0 0 0 0 0
4064 0 0 0 0 0 0
4022 0 0 0 0 0 0
4039 0 0 0 0 0 0
243 0 0 0 0 0 0
364 0 0 0 0 0 0
365 0 0 0 0 0 0
366 0 0 0 0 0 0
367 0 0 0 0 0 0
485 0 0 0 0 0 0
487 0 0 0 0 0 0
488 0 0 0 0 0 0
368 0 0 0 0 0 0
369 0 0 0 0 0 0
370 0 0 0 0 0 0
374 0 0 0 0 0 0
375 0 0 0 0 0 0
376 0 0 0 0 0 0
382 0 0 0 0 0 0
383 0 0 0 0 0 0
3986 0 0 0 0 0 0
4048 0 0 0 0 0 0
3860 0 0 0 0 0 0
3959 0 0 0 0 0 0
244 0 0 0 0 0 0
245 0 0 0 0 0 0
371 0 0 0 0 0 0
4042 0 0 0 0 0 0
3923 0 0 0 0 0 0
3962 0 0 0 0 0 0
3895 0 0 0 0 0 0
3857 0 0 0 0 0 0
3950 0 0 0 0 0 0
3911 0 0 0 0 0 0
3931 0 0 0 0 0 0
4004 0 0 0 0 0 0
3998 0 0 0 0 0 0
3929 0 0 0 0 0 0
3894 0 0 0 0 0 0
3976 0 0 0 0 0 0
3854 0 0 0 0 0 0
3872 0 0 0 0 0 0
3906 0 0 0 0 0 0
3965 0 0 0 0 0 0
4047 0 0 0 0 0 0
501 0 0 0 0 0 0
510 0 0 0 0 0 0
511 0 0 0 0 0 0
512 0 0 0 0 0 0
513 0 0 0 0 0 0
514 0 0 0 0 0 0
524 0 0 0 0 0 0
4010 0 0 0 0 0 0
526 0 0 0 0 0 0
4051 0 0 0 0 0 0
527 0 0 0 0 0 0
528 0 0 0 0 0 0
541 0 0 0 0 0 0
4016 0 0 0 0 0 0
3850 0 0 0 0 0 0
4029 0 0 0 0 0 0
494 0 0 0 0 0 0
495 0 0 0 0 0 0
496 0 0 0 0 0 0
502 0 0 0 0 0 0
503 0 0 0 0 0 0
504 0 0 0 0 0 0
505 0 0 0 0 0 0
506 0 0 0 0 0 0
515 0 0 0 0 0 0
507 0 0 0 0 0 0
516 0 0 0 0 0 0
517 0 0 0 0 0 0
3938 0 0 0 0 0 0
3966 0 0 0 0 0 0
3893 0 0 0 0 0 0
3881 0 0 0 0 0 0
486 0 0 0 0 0 0
489 0 0 0 0 0 0
490 0 0 0 0 0 0
491 0 0 0 0 0 0
4061 0 0 0 0 0 0
497 0 0 0 0 0 0
498 0 0 0 0 0 0
4059 0 0 0 0 0 0
3885 0 0 0 0 0 0
3889 0 0 0 0 0 0
3949 0 0 0 0 0 0
3946 0 0 0 0 0 0
3954 0 0 0 0 0 0
3983 0 0 0 0 0 0
3973 0 0 0 0 0 0
3900 0 0 0 0 0 0
3984 0 0 0 0 0 0
3871 0 0 0 0 0 0
3985 0 0 0 0 0 0
3853 0 0 0 0 0 0
3904 0 0 0 0 0 0
4031 0 0 0 0 0 0
4034 0 0 0 0 0 0
3958 0 0 0 0 0 0
3899 0 0 0 0 0 0
3925 0 0 0 0 0 0
3875 0 0 0 0 0 0
3977 0 0 0 0 0 0
4043 0 0 0 0 0 0
4001 0 0 0 0 0 0
3880 0 0 0 0 0 0
3992 0 0 0 0 0 0
3919 0 0 0 0 0 0
3865 0 0 0 0 0 0
3961 0 0 0 0 0 0
4044 0 0 0 0 0 0
3901 0 0 0 0 0 0
4053 0 0 0 0 0 0
4038 0 0 0 0 0 0
4054 0 0 0 0 0 0
3927 0 0 0 0 0 0
3905 0 0 0 0 0 0
4007 0 0 0 0 0 0
4027 0 0 0 0 0 0
3945 0 0 0 0 0 0
4005 0 0 0 0 0 0
3972 0 0 0 0 0 0
3933 0 0 0 0 0 0
3868 0 0 0 0 0 0
4006 0 0 0 0 0 0
4067 0 0 0 0 0 0
3979 0 0 0 0 0 0
3942 0 0 0 0 0 0
3982 0 0 0 0 0 0
3921 0 0 0 0 0 0
3891 0 0 0 0 0 0
4037 0 0 0 0 0 0
3928 0 0 0 0 0 0
4056 0 0 0 0 0 0
3970 0 0 0 0 0 0
4050 0 0 0 0 0 0
3957 0 0 0 0 0 0
4049 0 0 0 0 0 0
3849 0 0 0 0 0 0
3882 0 0 0 0 0 0
