LAMMPS data file for atom_style dipole_sphere_angle (vesicle radius 23.846)

9680 atoms
2 atom types

-28.615185 28.615185 xlo xhi
-28.615185 28.615185 ylo yhi
-28.615185 28.615185 zlo zhi

Atoms # hybrid angle sphere dipole

1 1 -0.315093 12.164492 20.507486 0 1.000000 1.000000 1.000000 -0.015138 0.507833 0.861323
2 1 -1.283091 11.868331 20.642231 0 1.000000 1.000000 1.000000 -0.055708 0.495677 0.866719
3 1 -0.638030 11.776400 20.724999 0 1.000000 1.000000 1.000000 -0.025251 0.495682 0.868137
4 1 -0.322937 11.274924 21.008977 0 1.000000 1.000000 1.000000 -0.015134 0.470600 0.882217
5 1 -2.295057 11.534594 20.742830 0 1.000000 1.000000 1.000000 -0.098100 0.481969 0.870679
6 1 -1.629039 11.455743 20.849498 0 1.000000 1.000000 1.000000 -0.066818 0.481974 0.873634
7 1 -1.314499 10.941688 21.145427 0 1.000000 1.000000 1.000000 -0.056701 0.456893 0.887713
8 1 -0.653457 10.852800 21.222137 0 1.000000 1.000000 1.000000 -0.026244 0.456898 0.889132
9 1 -0.330521 10.320443 21.493216 0 1.000000 1.000000 1.000000 -0.015104 0.430675 0.902381
10 1 -3.347518 11.161060 20.803315 0 1.000000 1.000000 1.000000 -0.142164 0.466614 0.872961
11 1 -2.663188 11.096291 20.936619 0 1.000000 1.000000 1.000000 -0.110217 0.466618 0.877565
12 1 -2.350628 10.569586 21.244008 0 1.000000 1.000000 1.000000 -0.100116 0.441578 0.891620
13 1 -1.667957 10.493834 21.346147 0 1.000000 1.000000 1.000000 -0.068786 0.441582 0.894580
14 1 -1.344646 9.947855 21.628259 0 1.000000 1.000000 1.000000 -0.057629 0.415319 0.907849
15 1 -0.668251 9.863352 21.698618 0 1.000000 1.000000 1.000000 -0.027222 0.415324 0.909266
16 1 -0.337731 9.300909 21.952952 0 1.000000 1.000000 1.000000 -0.015051 0.388054 0.921514
17 1 -4.435560 10.746050 20.817685 0 1.000000 1.000000 1.000000 -0.187692 0.449533 0.873322
18 1 -3.736332 10.696109 20.980195 0 1.000000 1.000000 1.000000 -0.155276 0.449537 0.879663
19 1 -3.427263 10.156775 21.298254 0 1.000000 1.000000 1.000000 -0.145205 0.424573 0.893674
20 1 -2.725888 10.095020 21.428764 0 1.000000 1.000000 1.000000 -0.113171 0.424577 0.898291
21 1 -2.403564 9.535486 21.721354 0 1.000000 1.000000 1.000000 -0.102013 0.398314 0.911559
22 1 -1.704993 9.464072 21.818711 0 1.000000 1.000000 1.000000 -0.070684 0.398319 0.914520
23 1 -1.373041 8.887196 22.082897 0 1.000000 1.000000 1.000000 -0.058479 0.370973 0.926800
24 1 -0.682173 8.808535 22.146780 0 1.000000 1.000000 1.000000 -0.028165 0.370978 0.928214
25 1 -0.344442 8.217600 22.380353 0 1.000000 1.000000 1.000000 -0.014981 0.342792 0.939292
26 1 -5.552754 10.288613 20.780167 0 1.000000 1.000000 1.000000 -0.234412 0.430681 0.871530
27 1 -4.842813 10.253911 20.974134 0 1.000000 1.000000 1.000000 -0.201761 0.430684 0.879661
28 1 -4.538780 9.702085 21.301745 0 1.000000 1.000000 1.000000 -0.191731 0.405823 0.893615
29 1 -3.822458 9.654889 21.463355 0 1.000000 1.000000 1.000000 -0.159199 0.405826 0.899978
30 1 -3.502565 9.082005 21.765572 0 1.000000 1.000000 1.000000 -0.148055 0.379599 0.913227
31 1 -2.785046 9.024357 21.893061 0 1.000000 1.000000 1.000000 -0.115981 0.379603 0.917851
32 1 -2.452937 8.433300 22.166494 0 1.000000 1.000000 1.000000 -0.103760 0.352223 0.930147
33 1 -1.739504 8.367553 22.258973 0 1.000000 1.000000 1.000000 -0.072474 0.352227 0.933104
34 1 -1.399161 7.761693 22.500973 0 1.000000 1.000000 1.000000 -0.059242 0.323940 0.944221
35 1 -0.694967 7.690401 22.558470 0 1.000000 1.000000 1.000000 -0.029053 0.323944 0.945630
36 1 -0.350525 7.073459 22.767241 0 1.000000 1.000000 1.000000 -0.014899 0.295015 0.955376
37 1 -6.691173 9.788715 20.685542 0 1.000000 1.000000 1.000000 -0.281992 0.410046 0.867377
38 1 -5.975421 9.769244 20.912728 0 1.000000 1.000000 1.000000 -0.249370 0.410048 0.877312
39 1 -5.677941 9.205209 21.248431 0 1.000000 1.000000 1.000000 -0.239387 0.385306 0.891198
40 1 -4.951241 9.172752 21.443481 0 1.000000 1.000000 1.000000 -0.206604 0.385308 0.899362
41 1 -4.635258 8.586887 21.754154 0 1.000000 1.000000 1.000000 -0.195486 0.359143 0.912580
42 1 -3.902904 8.543335 21.914635 0 1.000000 1.000000 1.000000 -0.162884 0.359146 0.918958
43 1 -3.571998 7.938533 22.196430 0 1.000000 1.000000 1.000000 -0.150664 0.331767 0.931252
44 1 -2.839550 7.886146 22.320800 0 1.000000 1.000000 1.000000 -0.118590 0.331770 0.935877
45 1 -2.497766 7.265844 22.570603 0 1.000000 1.000000 1.000000 -0.105329 0.303423 0.947017
46 1 -1.770810 7.207138 22.658297 0 1.000000 1.000000 1.000000 -0.074116 0.303426 0.949968
47 1 -1.422465 6.575180 22.873879 0 1.000000 1.000000 1.000000 -0.059905 0.274380 0.959754
48 1 -0.706373 6.512793 22.925325 0 1.000000 1.000000 1.000000 -0.029861 0.274384 0.961157
49 1 -0.355848 5.873269 23.105422 0 1.000000 1.000000 1.000000 -0.014814 0.244921 0.969430
50 1 -7.841522 9.247394 20.529495 0 1.000000 1.000000 1.000000 -0.330042 0.387662 0.860692
51 1 -7.125461 9.242672 20.791001 0 1.000000 1.000000 1.000000 -0.297739 0.387663 0.872393
52 1 -6.835950 8.666883 21.133004 0 1.000000 1.000000 1.000000 -0.287804 0.363043 0.886210
53 1 -6.104183 8.648891 21.363249 0 1.000000 1.000000 1.000000 -0.255049 0.363044 0.896186
54 1 -5.793561 8.050605 21.680889 0 1.000000 1.000000 1.000000 -0.243964 0.336957 0.909363
55 1 -5.051336 8.021057 21.876744 0 1.000000 1.000000 1.000000 -0.211094 0.336959 0.917550
56 1 -4.723032 7.403158 22.165726 0 1.000000 1.000000 1.000000 -0.198885 0.309608 0.929832
57 1 -3.976048 7.364185 22.324931 0 1.000000 1.000000 1.000000 -0.166253 0.309610 0.936216
58 1 -3.634085 6.730152 22.581666 0 1.000000 1.000000 1.000000 -0.152979 0.281237 0.947366
59 1 -2.888252 6.684198 22.702969 0 1.000000 1.000000 1.000000 -0.120938 0.281240 0.951986
60 1 -2.537059 6.037976 22.924761 0 1.000000 1.000000 1.000000 -0.106689 0.252117 0.961798
61 1 -1.798228 5.987665 23.007977 0 1.000000 1.000000 1.000000 -0.075570 0.252120 0.964741
62 1 -1.442422 5.333499 23.193149 0 1.000000 1.000000 1.000000 -0.060461 0.222537 0.973048
63 1 -0.716133 5.281490 23.239146 0 1.000000 1.000000 1.000000 -0.030565 0.222540 0.974444
64 1 -0.360285 4.623735 23.387074 0 1.000000 1.000000 1.000000 -0.014732 0.192790 0.981129
65 1 -8.993387 8.666869 20.308956 0 1.000000 1.000000 1.000000 -0.378129 0.363611 0.851355
66 1 -8.282941 8.675906 20.605070 0 1.000000 1.000000 1.000000 -0.346447 0.363610 0.864732
67 1 -8.002641 8.089018 20.951286 0 1.000000 1.000000 1.000000 -0.336557 0.339103 0.878486
68 1 -7.271712 8.084716 21.217715 0 1.000000 1.000000 1.000000 -0.304133 0.339103 0.890231
69 1 -6.967807 7.474786 21.540526 0 1.000000 1.000000 1.000000 -0.293082 0.313099 0.903367
70 1 -6.221423 7.458666 21.773454 0 1.000000 1.000000 1.000000 -0.260237 0.313100 0.913370
71 1 -5.897102 6.828549 22.068156 0 1.000000 1.000000 1.000000 -0.248047 0.285793 0.925632
72 1 -5.140936 6.802588 22.264572 0 1.000000 1.000000 1.000000 -0.215129 0.285795 0.933831
73 1 -4.800107 6.155784 22.527112 0 1.000000 1.000000 1.000000 -0.201855 0.257422 0.944981
74 1 -4.040241 6.122321 22.685000 0 1.000000 1.000000 1.000000 -0.169224 0.257424 0.951365
75 1 -3.687361 5.462854 22.912202 0 1.000000 1.000000 1.000000 -0.154954 0.228259 0.961191
76 1 -2.930014 5.424463 23.030661 0 1.000000 1.000000 1.000000 -0.122964 0.228261 0.965804
77 1 -2.569863 4.756707 23.220391 0 1.000000 1.000000 1.000000 -0.107814 0.198597 0.974133
78 1 -1.821102 4.716055 23.299663 0 1.000000 1.000000 1.000000 -0.076793 0.198600 0.977068
79 1 -1.458538 4.044540 23.450911 0 1.000000 1.000000 1.000000 -0.060901 0.168738 0.983778
80 1 -0.724010 4.004230 23.492325 0 1.000000 1.000000 1.000000 -0.031141 0.168741 0.985168
81 1 -0.363724 3.333444 23.605194 0 1.000000 1.000000 1.000000 -0.014662 0.138976 0.990187
82 1 -10.135615 8.050576 20.022405 0 1.000000 1.000000 1.000000 -0.425787 0.338026 0.839311
83 1 -9.436893 8.071881 20.352494 0 1.000000 1.000000 1.000000 -0.395032 0.338025 0.854218
84 1 -9.166803 7.474771 20.700600 0 1.000000 1.000000 1.000000 -0.385178 0.313609 0.867922
85 1 -8.442996 7.482870 21.003279 0 1.000000 1.000000 1.000000 -0.353401 0.313608 0.881339
86 1 -8.147002 6.862308 21.329206 0 1.000000 1.000000 1.000000 -0.342381 0.287679 0.894436
87 1 -7.402742 6.858525 21.600024 0 1.000000 1.000000 1.000000 -0.309877 0.287679 0.906210
88 1 -7.083705 6.217322 21.898718 0 1.000000 1.000000 1.000000 -0.297708 0.260421 0.918450
89 1 -6.324449 6.203465 22.133922 0 1.000000 1.000000 1.000000 -0.264809 0.260422 0.928470
90 1 -5.986068 5.545120 22.400898 0 1.000000 1.000000 1.000000 -0.251543 0.232067 0.939612
91 1 -5.217893 5.523401 22.597672 0 1.000000 1.000000 1.000000 -0.218607 0.232069 0.947816
92 1 -4.864555 4.851987 22.829277 0 1.000000 1.000000 1.000000 -0.204329 0.202887 0.957646
93 1 -4.093890 4.824904 22.985920 0 1.000000 1.000000 1.000000 -0.171718 0.202889 0.964027
94 1 -3.730455 4.144899 23.179546 0 1.000000 1.000000 1.000000 -0.156543 0.173177 0.972370
95 1 -2.963775 4.115093 23.295558 0 1.000000 1.000000 1.000000 -0.124611 0.173179 0.976976
96 1 -2.595317 3.431177 23.449761 0 1.000000 1.000000 1.000000 -0.108680 0.143244 0.983702
97 1 -1.838841 3.401278 23.525842 0 1.000000 1.000000 1.000000 -0.077748 0.143246 0.986629
98 1 -1.470385 2.718124 23.640370 0 1.000000 1.000000 1.000000 -0.061220 0.113392 0.991662
99 1 -0.729797 2.690600 23.678308 0 1.000000 1.000000 1.000000 -0.031570 0.113393 0.993049
100 1 -0.366073 2.012667 23.754038 0 1.000000 1.000000 1.000000 -0.014611 0.083905 0.996367
101 1 -11.256786 7.403114 19.670094 0 1.000000 1.000000 1.000000 -0.472545 0.311092 0.824574
102 1 -10.575812 7.434739 20.032546 0 1.000000 1.000000 1.000000 -0.443006 0.311090 0.840815
103 1 -10.316631 6.828519 20.380072 0 1.000000 1.000000 1.000000 -0.433175 0.286732 0.854485
104 1 -9.606343 6.847246 20.718038 0 1.000000 1.000000 1.000000 -0.402359 0.286731 0.869421
105 1 -9.319226 6.217307 21.044836 0 1.000000 1.000000 1.000000 -0.391362 0.260859 0.882490
106 1 -8.583692 6.224270 21.353326 0 1.000000 1.000000 1.000000 -0.359526 0.260859 0.895932
107 1 -8.271099 5.573368 21.654071 0 1.000000 1.000000 1.000000 -0.347376 0.233645 0.908152
108 1 -7.515372 5.570202 21.928644 0 1.000000 1.000000 1.000000 -0.314825 0.233646 0.919943
109 1 -7.180698 4.901814 22.198475 0 1.000000 1.000000 1.000000 -0.301570 0.205315 0.931075
110 1 -6.410651 4.890589 22.435524 0 1.000000 1.000000 1.000000 -0.268645 0.205316 0.941103
111 1 -6.058112 4.208810 22.670341 0 1.000000 1.000000 1.000000 -0.254367 0.176135 0.950933
112 1 -5.280192 4.191927 22.867321 0 1.000000 1.000000 1.000000 -0.221431 0.176136 0.959137
113 1 -4.914629 3.501306 23.064037 0 1.000000 1.000000 1.000000 -0.206244 0.146401 0.967487
114 1 -4.135556 3.481361 23.219619 0 1.000000 1.000000 1.000000 -0.173662 0.146402 0.973862
115 1 -3.762176 2.786700 23.376326 0 1.000000 1.000000 1.000000 -0.157708 0.116424 0.980599
116 1 -2.988616 2.766323 23.490455 0 1.000000 1.000000 1.000000 -0.125827 0.116425 0.985197
117 1 -2.612712 2.072453 23.606497 0 1.000000 1.000000 1.000000 -0.109268 0.086515 0.990240
118 1 -1.850958 2.054154 23.680331 0 1.000000 1.000000 1.000000 -0.078405 0.086517 0.993160
119 1 -1.477634 1.365719 23.756269 0 1.000000 1.000000 1.000000 -0.061413 0.056971 0.996485
120 1 -0.733337 1.351755 23.792037 0 1.000000 1.000000 1.000000 -0.031834 0.056972 0.997868
121 1 -0.367264 0.673019 23.829522 0 1.000000 1.000000 1.000000 -0.014584 0.028056 0.999500
122 1 -12.345754 6.730095 19.254146 0 1.000000 1.000000 1.000000 -0.517941 0.283036 0.807235
123 1 -11.688174 6.769726 19.646391 0 1.000000 1.000000 1.000000 -0.489880 0.283033 0.824566
124 1 -11.440273 6.155742 19.990824 0 1.000000 1.000000 1.000000 -0.480057 0.258696 0.838225
125 1 -10.749704 6.182910 20.362053 0 1.000000 1.000000 1.000000 -0.450497 0.258695 0.854476
126 1 -10.472160 5.545093 20.687381 0 1.000000 1.000000 1.000000 -0.439513 0.232853 0.867530
127 1 -9.751971 5.560764 21.032199 0 1.000000 1.000000 1.000000 -0.408666 0.232852 0.882481
128 1 -9.446784 4.901801 21.332915 0 1.000000 1.000000 1.000000 -0.396529 0.205670 0.894687
129 1 -8.701446 4.907443 21.646297 0 1.000000 1.000000 1.000000 -0.364661 0.205670 0.908142
130 1 -8.371630 4.230770 21.917244 0 1.000000 1.000000 1.000000 -0.351416 0.177362 0.919266
131 1 -7.606609 4.228308 22.194848 0 1.000000 1.000000 1.000000 -0.318841 0.177362 0.931065
132 1 -7.256110 3.538014 22.431532 0 1.000000 1.000000 1.000000 -0.304567 0.148189 0.940893
133 1 -6.477661 3.529741 22.669976 0 1.000000 1.000000 1.000000 -0.271634 0.148190 0.950923
134 1 -6.111191 2.830415 22.868851 0 1.000000 1.000000 1.000000 -0.256442 0.118447 0.959275
135 1 -5.326080 2.818863 23.065933 0 1.000000 1.000000 1.000000 -0.223516 0.118448 0.967476
136 1 -4.948881 2.115395 23.224618 0 1.000000 1.000000 1.000000 -0.207551 0.088448 0.974217
137 1 -4.164049 2.103177 23.379429 0 1.000000 1.000000 1.000000 -0.174994 0.088449 0.980588
138 1 -3.781600 1.400525 23.496823 0 1.000000 1.000000 1.000000 -0.158419 0.058510 0.985637
139 1 -3.003823 1.390179 23.609762 0 1.000000 1.000000 1.000000 -0.126574 0.058510 0.990230
140 1 -2.621541 0.693144 23.686051 0 1.000000 1.000000 1.000000 -0.109566 0.028935 0.993558
141 1 -1.857106 0.686982 23.758723 0 1.000000 1.000000 1.000000 -0.078739 0.028935 0.996475
142 1 -1.480074 0.000000 23.795282 0 1.000000 1.000000 1.000000 -0.061477 0.000000 0.998108
143 1 -0.734528 0.000000 23.830312 0 1.000000 1.000000 1.000000 -0.031923 0.000000 0.999490
144 1 -0.367264 -0.673019 23.829522 0 1.000000 1.000000 1.000000 -0.014584 -0.028056 0.999500
145 1 -13.392178 6.037909 18.778508 0 1.000000 1.000000 1.000000 -0.561549 0.254121 0.787455
146 1 -12.762998 6.082984 19.197115 0 1.000000 1.000000 1.000000 -0.535188 0.254118 0.805604
147 1 -12.526410 5.462801 19.536012 0 1.000000 1.000000 1.000000 -0.525355 0.229762 0.819275
148 1 -11.861265 5.495927 19.937475 0 1.000000 1.000000 1.000000 -0.497315 0.229759 0.836593
149 1 -11.593689 4.851949 20.258995 0 1.000000 1.000000 1.000000 -0.486330 0.203919 0.849647
150 1 -10.895153 4.873946 20.637672 0 1.000000 1.000000 1.000000 -0.456771 0.203917 0.865897
151 1 -10.598101 4.208786 20.936230 0 1.000000 1.000000 1.000000 -0.444639 0.176746 0.878099
152 1 -9.869921 4.220970 21.286656 0 1.000000 1.000000 1.000000 -0.413781 0.176745 0.893055
153 1 -9.545958 3.538003 21.556891 0 1.000000 1.000000 1.000000 -0.400541 0.148451 0.904173
154 1 -8.793005 3.542161 21.874097 0 1.000000 1.000000 1.000000 -0.368660 0.148451 0.917634
155 1 -8.445720 2.845444 22.111197 0 1.000000 1.000000 1.000000 -0.354389 0.119287 0.927458
156 1 -7.673846 2.843758 22.391027 0 1.000000 1.000000 1.000000 -0.321806 0.119287 0.939261
157 1 -7.307721 2.137885 22.591034 0 1.000000 1.000000 1.000000 -0.306614 0.089544 0.947612
158 1 -6.523516 2.132815 22.830414 0 1.000000 1.000000 1.000000 -0.273682 0.089545 0.957643
159 1 -6.143715 1.422726 22.990484 0 1.000000 1.000000 1.000000 -0.257712 0.059537 0.964386
160 1 -5.354192 1.416858 23.187607 0 1.000000 1.000000 1.000000 -0.224796 0.059538 0.972585
161 1 -4.966278 0.707605 23.306174 0 1.000000 1.000000 1.000000 -0.208213 0.029586 0.977636
162 1 -4.178518 0.703490 23.460578 0 1.000000 1.000000 1.000000 -0.175672 0.029586 0.984004
163 1 -3.788142 0.000000 23.537403 0 1.000000 1.000000 1.000000 -0.158658 0.000000 0.987334
164 1 -3.008943 0.000000 23.649936 0 1.000000 1.000000 1.000000 -0.126826 0.000000 0.991925
165 1 -2.621541 -0.693144 23.686051 0 1.000000 1.000000 1.000000 -0.109566 -0.028935 0.993558
166 1 -1.857106 -0.686982 23.758723 0 1.000000 1.000000 1.000000 -0.078739 -0.028935 0.996475
167 1 -1.477634 -1.365719 23.756269 0 1.000000 1.000000 1.000000 -0.061413 -0.056971 0.996485
168 1 -0.733337 -1.351755 23.792037 0 1.000000 1.000000 1.000000 -0.031834 -0.056972 0.997868
169 1 -0.366073 -2.012667 23.754038 0 1.000000 1.000000 1.000000 -0.014611 -0.083905 0.996367
170 1 -14.387012 5.333425 18.248774 0 1.000000 1.000000 1.000000 -0.602997 0.224635 0.765463
171 1 -13.790375 5.381281 18.689611 0 1.000000 1.000000 1.000000 -0.578506 0.224632 0.784138
172 1 -13.564819 4.756647 19.020707 0 1.000000 1.000000 1.000000 -0.568649 0.200217 0.797842
173 1 -12.930034 4.793091 19.448501 0 1.000000 1.000000 1.000000 -0.542345 0.200215 0.815951
174 1 -12.672526 4.144854 19.763990 0 1.000000 1.000000 1.000000 -0.531347 0.174344 0.829020
175 1 -12.001327 4.170585 20.173021 0 1.000000 1.000000 1.000000 -0.503337 0.174342 0.846319
176 1 -11.712881 3.501276 20.467343 0 1.000000 1.000000 1.000000 -0.491200 0.147160 0.858526
177 1 -11.008191 3.517480 20.851875 0 1.000000 1.000000 1.000000 -0.461652 0.147159 0.874770
178 1 -10.690887 2.830398 21.119568 0 1.000000 1.000000 1.000000 -0.448412 0.118865 0.885888
179 1 -9.956834 2.838737 21.474158 0 1.000000 1.000000 1.000000 -0.417554 0.118865 0.900844
180 1 -9.613832 2.137879 21.710179 0 1.000000 1.000000 1.000000 -0.403284 0.089704 0.910667
181 1 -8.855671 2.140427 22.030012 0 1.000000 1.000000 1.000000 -0.371400 0.089704 0.924129
182 1 -8.491127 1.430361 22.230063 0 1.000000 1.000000 1.000000 -0.356209 0.059964 0.932480
183 1 -7.715052 1.429505 22.511255 0 1.000000 1.000000 1.000000 -0.323625 0.059964 0.944284
184 1 -7.333943 0.715182 22.672068 0 1.000000 1.000000 1.000000 -0.307654 0.029955 0.951027
185 1 -6.546811 0.713473 22.911918 0 1.000000 1.000000 1.000000 -0.274724 0.029955 0.961057
186 1 -6.154672 0.000000 23.031461 0 1.000000 1.000000 1.000000 -0.258140 0.000000 0.966108
187 1 -5.363662 0.000000 23.228594 0 1.000000 1.000000 1.000000 -0.225227 0.000000 0.974306
188 1 -4.966278 -0.707605 23.306174 0 1.000000 1.000000 1.000000 -0.208213 -0.029586 0.977636
189 1 -4.178518 -0.703490 23.460578 0 1.000000 1.000000 1.000000 -0.175672 -0.029586 0.984004
190 1 -3.781600 -1.400525 23.496823 0 1.000000 1.000000 1.000000 -0.158419 -0.058510 0.985637
191 1 -3.003823 -1.390179 23.609762 0 1.000000 1.000000 1.000000 -0.126574 -0.058510 0.990230
192 1 -2.612712 -2.072453 23.606497 0 1.000000 1.000000 1.000000 -0.109268 -0.086515 0.990240
193 1 -1.850958 -2.054154 23.680331 0 1.000000 1.000000 1.000000 -0.078405 -0.086517 0.993160
194 1 -1.470385 -2.718124 23.640370 0 1.000000 1.000000 1.000000 -0.061220 -0.113392 0.991662
195 1 -0.729797 -2.690600 23.678308 0 1.000000 1.000000 1.000000 -0.031570 -0.113393 0.993049
196 1 -0.363724 -3.333444 23.605194 0 1.000000 1.000000 1.000000 -0.014662 -0.138976 0.990187
197 1 -15.322883 4.623659 17.671870 0 1.000000 1.000000 1.000000 -0.641983 0.194872 0.741541
198 1 -14.761921 4.671676 18.130320 0 1.000000 1.000000 1.000000 -0.619475 0.194870 0.760445
199 1 -14.546844 4.044478 18.451623 0 1.000000 1.000000 1.000000 -0.609582 0.170365 0.774200
200 1 -13.946379 4.081593 18.901173 0 1.000000 1.000000 1.000000 -0.585177 0.170362 0.792808
201 1 -13.698764 3.431130 19.208621 0 1.000000 1.000000 1.000000 -0.574154 0.144435 0.805907
202 1 -13.059697 3.457948 19.643644 0 1.000000 1.000000 1.000000 -0.547905 0.144433 0.823977
203 1 -12.780075 2.786668 19.931795 0 1.000000 1.000000 1.000000 -0.535754 0.117222 0.836198
204 1 -12.104458 2.804266 20.346462 0 1.000000 1.000000 1.000000 -0.507775 0.117220 0.853478
205 1 -11.794411 2.115375 20.609858 0 1.000000 1.000000 1.000000 -0.494528 0.088914 0.864602
206 1 -11.085529 2.125303 20.998431 0 1.000000 1.000000 1.000000 -0.464994 0.088913 0.880838
207 1 -10.747740 1.422717 21.231903 0 1.000000 1.000000 1.000000 -0.450722 0.059750 0.890662
208 1 -10.010095 1.426954 21.589061 0 1.000000 1.000000 1.000000 -0.419868 0.059749 0.905616
209 1 -9.648315 0.715179 21.788057 0 1.000000 1.000000 1.000000 -0.404677 0.030009 0.913967
210 1 -8.887509 0.716038 22.109227 0 1.000000 1.000000 1.000000 -0.372793 0.030009 0.927429
211 1 -8.506426 0.000000 22.270112 0 1.000000 1.000000 1.000000 -0.356822 0.000000 0.934172
212 1 -7.728935 0.000000 22.551762 0 1.000000 1.000000 1.000000 -0.324238 0.000000 0.945976
213 1 -7.333943 -0.715182 22.672068 0 1.000000 1.000000 1.000000 -0.307654 -0.029955 0.951027
214 1 -6.546811 -0.713473 22.911918 0 1.000000 1.000000 1.000000 -0.274724 -0.029955 0.961057
215 1 -6.143715 -1.422726 22.990484 0 1.000000 1.000000 1.000000 -0.257712 -0.059537 0.964386
216 1 -5.354192 -1.416858 23.187607 0 1.000000 1.000000 1.000000 -0.224796 -0.059538 0.972585
217 1 -4.948881 -2.115395 23.224618 0 1.000000 1.000000 1.000000 -0.207551 -0.088448 0.974217
218 1 -4.164049 -2.103177 23.379429 0 1.000000 1.000000 1.000000 -0.174994 -0.088449 0.980588
219 1 -3.762176 -2.786700 23.376326 0 1.000000 1.000000 1.000000 -0.157708 -0.116424 0.980599
220 1 -2.988616 -2.766323 23.490455 0 1.000000 1.000000 1.000000 -0.125827 -0.116425 0.985197
221 1 -2.595317 -3.431177 23.449761 0 1.000000 1.000000 1.000000 -0.108680 -0.143244 0.983702
222 1 -1.838841 -3.401278 23.525842 0 1.000000 1.000000 1.000000 -0.077748 -0.143246 0.986629
223 1 -1.458538 -4.044540 23.450911 0 1.000000 1.000000 1.000000 -0.060901 -0.168738 0.983778
224 1 -0.724010 -4.004230 23.492325 0 1.000000 1.000000 1.000000 -0.031141 -0.168741 0.985168
225 1 -0.360285 -4.623735 23.387074 0 1.000000 1.000000 1.000000 -0.014732 -0.192790 0.981129
226 1 -16.194322 3.915447 17.055663 0 1.000000 1.000000 1.000000 -0.678283 0.165125 0.716007
227 1 -15.671091 3.961182 17.526861 0 1.000000 1.000000 1.000000 -0.657816 0.165123 0.734856
228 1 -15.465733 3.333384 17.836721 0 1.000000 1.000000 1.000000 -0.647876 0.140506 0.748675
229 1 -14.902448 3.368662 18.303033 0 1.000000 1.000000 1.000000 -0.625474 0.140504 0.767490
230 1 -14.664321 2.718079 18.600719 0 1.000000 1.000000 1.000000 -0.614419 0.114502 0.780627
231 1 -14.061102 2.743433 19.056757 0 1.000000 1.000000 1.000000 -0.590085 0.114501 0.799180
232 1 -13.790292 2.072423 19.337029 0 1.000000 1.000000 1.000000 -0.577913 0.087245 0.811421
233 1 -13.148333 2.088841 19.777045 0 1.000000 1.000000 1.000000 -0.551708 0.087244 0.829461
234 1 -12.845931 1.400508 20.034549 0 1.000000 1.000000 1.000000 -0.538451 0.058915 0.840595
235 1 -12.167625 1.409444 20.452695 0 1.000000 1.000000 1.000000 -0.510494 0.058914 0.857861
236 1 -11.835818 0.707598 20.682239 0 1.000000 1.000000 1.000000 -0.496218 0.029742 0.867688
237 1 -11.124813 0.710943 21.072875 0 1.000000 1.000000 1.000000 -0.466692 0.029742 0.883920
238 1 -10.766892 -0.000000 21.269748 0 1.000000 1.000000 1.000000 -0.451500 0.000000 0.892271
239 1 -10.028039 -0.000000 21.627773 0 1.000000 1.000000 1.000000 -0.420648 0.000000 0.907224
240 1 -9.648315 -0.715179 21.788057 0 1.000000 1.000000 1.000000 -0.404677 -0.030009 0.913967
241 1 -8.887509 -0.716038 22.109227 0 1.000000 1.000000 1.000000 -0.372793 -0.030009 0.927429
242 1 -8.491127 -1.430361 22.230063 0 1.000000 1.000000 1.000000 -0.356209 -0.059964 0.932480
243 1 -7.715052 -1.429505 22.511255 0 1.000000 1.000000 1.000000 -0.323625 -0.059964 0.944284
244 1 -7.307721 -2.137885 22.591034 0 1.000000 1.000000 1.000000 -0.306614 -0.089544 0.947612
245 1 -6.523516 -2.132815 22.830414 0 1.000000 1.000000 1.000000 -0.273682 -0.089545 0.957643
246 1 -6.111191 -2.830415 22.868851 0 1.000000 1.000000 1.000000 -0.256442 -0.118447 0.959275
247 1 -5.326080 -2.818863 23.065933 0 1.000000 1.000000 1.000000 -0.223516 -0.118448 0.967476
248 1 -4.914629 -3.501306 23.064037 0 1.000000 1.000000 1.000000 -0.206244 -0.146401 0.967487
249 1 -4.135556 -3.481361 23.219619 0 1.000000 1.000000 1.000000 -0.173662 -0.146402 0.973862
250 1 -3.730455 -4.144899 23.179546 0 1.000000 1.000000 1.000000 -0.156543 -0.173177 0.972370
251 1 -2.963775 -4.115093 23.295558 0 1.000000 1.000000 1.000000 -0.124611 -0.173179 0.976976
252 1 -2.569863 -4.756707 23.220391 0 1.000000 1.000000 1.000000 -0.107814 -0.198597 0.974133
253 1 -1.821102 -4.716055 23.299663 0 1.000000 1.000000 1.000000 -0.076793 -0.198600 0.977068
254 1 -1.442422 -5.333499 23.193149 0 1.000000 1.000000 1.000000 -0.060461 -0.222537 0.973048
255 1 -0.716133 -5.281490 23.239146 0 1.000000 1.000000 1.000000 -0.030565 -0.222540 0.974444
256 1 -0.355848 -5.873269 23.105422 0 1.000000 1.000000 1.000000 -0.014814 -0.244921 0.969430
257 1 -16.997851 3.215154 16.408528 0 1.000000 1.000000 1.000000 -0.711756 0.135666 0.689201
258 1 -16.513342 3.256451 16.887601 0 1.000000 1.000000 1.000000 -0.693332 0.135664 0.707733
259 1 -16.316806 2.630029 17.184746 0 1.000000 1.000000 1.000000 -0.683343 0.110926 0.721622
260 1 -15.792428 2.661226 17.662669 0 1.000000 1.000000 1.000000 -0.662987 0.110924 0.740367
261 1 -15.563212 2.012628 17.949214 0 1.000000 1.000000 1.000000 -0.651897 0.084841 0.753547
262 1 -14.998389 2.034203 18.420952 0 1.000000 1.000000 1.000000 -0.629571 0.084839 0.772297
263 1 -14.736186 1.365695 18.691927 0 1.000000 1.000000 1.000000 -0.617377 0.057534 0.784561
264 1 -14.131307 1.378561 19.151968 0 1.000000 1.000000 1.000000 -0.593090 0.057533 0.803078
265 1 -13.836749 0.693133 19.402205 0 1.000000 1.000000 1.000000 -0.579821 0.029180 0.814221
266 1 -13.193332 0.698662 19.844770 0 1.000000 1.000000 1.000000 -0.553640 0.029180 0.832245
267 1 -12.868110 -0.000000 20.069154 0 1.000000 1.000000 1.000000 -0.539359 0.000000 0.842076
268 1 -12.188901 -0.000000 20.488476 0 1.000000 1.000000 1.000000 -0.511410 0.000000 0.859337
269 1 -11.835818 -0.707598 20.682239 0 1.000000 1.000000 1.000000 -0.496218 -0.029742 0.867688
270 1 -11.124813 -0.710943 21.072875 0 1.000000 1.000000 1.000000 -0.466692 -0.029742 0.883920
271 1 -10.747740 -1.422717 21.231903 0 1.000000 1.000000 1.000000 -0.450722 -0.059750 0.890662
272 1 -10.010095 -1.426954 21.589061 0 1.000000 1.000000 1.000000 -0.419868 -0.059749 0.905616
273 1 -9.613832 -2.137879 21.710179 0 1.000000 1.000000 1.000000 -0.403284 -0.089704 0.910667
274 1 -8.855671 -2.140427 22.030012 0 1.000000 1.000000 1.000000 -0.371400 -0.089704 0.924129
275 1 -8.445720 -2.845444 22.111197 0 1.000000 1.000000 1.000000 -0.354389 -0.119287 0.927458
276 1 -7.673846 -2.843758 22.391027 0 1.000000 1.000000 1.000000 -0.321806 -0.119287 0.939261
277 1 -7.256110 -3.538014 22.431532 0 1.000000 1.000000 1.000000 -0.304567 -0.148189 0.940893
278 1 -6.477661 -3.529741 22.669976 0 1.000000 1.000000 1.000000 -0.271634 -0.148190 0.950923
279 1 -6.058112 -4.208810 22.670341 0 1.000000 1.000000 1.000000 -0.254367 -0.176135 0.950933
280 1 -5.280192 -4.191927 22.867321 0 1.000000 1.000000 1.000000 -0.221431 -0.176136 0.959137
281 1 -4.864555 -4.851987 22.829277 0 1.000000 1.000000 1.000000 -0.204329 -0.202887 0.957646
282 1 -4.093890 -4.824904 22.985920 0 1.000000 1.000000 1.000000 -0.171718 -0.202889 0.964027
283 1 -3.687361 -5.462854 22.912202 0 1.000000 1.000000 1.000000 -0.154954 -0.228259 0.961191
284 1 -2.930014 -5.424463 23.030661 0 1.000000 1.000000 1.000000 -0.122964 -0.228261 0.965804
285 1 -2.537059 -6.037976 22.924761 0 1.000000 1.000000 1.000000 -0.106689 -0.252117 0.961798
286 1 -1.798228 -5.987665 23.007977 0 1.000000 1.000000 1.000000 -0.075570 -0.252120 0.964741
287 1 -1.422465 -6.575180 22.873879 0 1.000000 1.000000 1.000000 -0.059905 -0.274380 0.959754
288 1 -0.706373 -6.512793 22.925325 0 1.000000 1.000000 1.000000 -0.029861 -0.274384 0.961157
289 1 -0.350525 -7.073459 22.767241 0 1.000000 1.000000 1.000000 -0.014899 -0.295015 0.955376
290 1 -17.731916 2.528450 15.738929 0 1.000000 1.000000 1.000000 -0.742341 0.106741 0.661465
291 1 -17.286143 2.563510 16.221205 0 1.000000 1.000000 1.000000 -0.725914 0.106739 0.679453
292 1 -17.097464 1.940392 16.504755 0 1.000000 1.000000 1.000000 -0.715877 0.081883 0.693409
293 1 -16.612635 1.965614 16.989224 0 1.000000 1.000000 1.000000 -0.697558 0.081882 0.711835
294 1 -16.391641 1.321042 17.263615 0 1.000000 1.000000 1.000000 -0.686434 0.055720 0.725054
295 1 -15.866595 1.336859 17.745682 0 1.000000 1.000000 1.000000 -0.666149 0.055719 0.743734
296 1 -15.612646 0.673006 18.006263 0 1.000000 1.000000 1.000000 -0.653935 0.028371 0.756018
297 1 -15.047059 0.680267 18.480770 0 1.000000 1.000000 1.000000 -0.631650 0.028371 0.774734
298 1 -14.760376 -0.000000 18.722628 0 1.000000 1.000000 1.000000 -0.618372 0.000000 0.785885
299 1 -14.154943 -0.000000 19.184022 0 1.000000 1.000000 1.000000 -0.594102 0.000000 0.804390
300 1 -13.836749 -0.693133 19.402205 0 1.000000 1.000000 1.000000 -0.579821 -0.029180 0.814221
301 1 -13.193332 -0.698662 19.844770 0 1.000000 1.000000 1.000000 -0.553640 -0.029180 0.832245
302 1 -12.845931 -1.400508 20.034549 0 1.000000 1.000000 1.000000 -0.538451 -0.058915 0.840595
303 1 -12.167625 -1.409444 20.452695 0 1.000000 1.000000 1.000000 -0.510494 -0.058914 0.857861
304 1 -11.794411 -2.115375 20.609858 0 1.000000 1.000000 1.000000 -0.494528 -0.088914 0.864602
305 1 -11.085529 -2.125303 20.998431 0 1.000000 1.000000 1.000000 -0.464994 -0.088913 0.880838
306 1 -10.690887 -2.830398 21.119568 0 1.000000 1.000000 1.000000 -0.448412 -0.118865 0.885888
307 1 -9.956834 -2.838737 21.474158 0 1.000000 1.000000 1.000000 -0.417554 -0.118865 0.900844
308 1 -9.545958 -3.538003 21.556891 0 1.000000 1.000000 1.000000 -0.400541 -0.148451 0.904173
309 1 -8.793005 -3.542161 21.874097 0 1.000000 1.000000 1.000000 -0.368660 -0.148451 0.917634
310 1 -8.371630 -4.230770 21.917244 0 1.000000 1.000000 1.000000 -0.351416 -0.177362 0.919266
311 1 -7.606609 -4.228308 22.194848 0 1.000000 1.000000 1.000000 -0.318841 -0.177362 0.931065
312 1 -7.180698 -4.901814 22.198475 0 1.000000 1.000000 1.000000 -0.301570 -0.205315 0.931075
313 1 -6.410651 -4.890589 22.435524 0 1.000000 1.000000 1.000000 -0.268645 -0.205316 0.941103
314 1 -5.986068 -5.545120 22.400898 0 1.000000 1.000000 1.000000 -0.251543 -0.232067 0.939612
315 1 -5.217893 -5.523401 22.597672 0 1.000000 1.000000 1.000000 -0.218607 -0.232069 0.947816
316 1 -4.800107 -6.155784 22.527112 0 1.000000 1.000000 1.000000 -0.201855 -0.257422 0.944981
317 1 -4.040241 -6.122321 22.685000 0 1.000000 1.000000 1.000000 -0.169224 -0.257424 0.951365
318 1 -3.634085 -6.730152 22.581666 0 1.000000 1.000000 1.000000 -0.152979 -0.281237 0.947366
319 1 -2.888252 -6.684198 22.702969 0 1.000000 1.000000 1.000000 -0.120938 -0.281240 0.951986
320 1 -2.497766 -7.265844 22.570603 0 1.000000 1.000000 1.000000 -0.105329 -0.303423 0.947017
321 1 -1.770810 -7.207138 22.658297 0 1.000000 1.000000 1.000000 -0.074116 -0.303426 0.949968
322 1 -1.399161 -7.761693 22.500973 0 1.000000 1.000000 1.000000 -0.059242 -0.323940 0.944221
323 1 -0.694967 -7.690401 22.558470 0 1.000000 1.000000 1.000000 -0.029053 -0.323944 0.945630
324 1 -0.344442 -8.217600 22.380353 0 1.000000 1.000000 1.000000 -0.014981 -0.342792 0.939292
325 1 -18.396705 1.860151 15.055038 0 1.000000 1.000000 1.000000 -0.770048 0.078560 0.633131
326 1 -17.988842 1.887574 15.536221 0 1.000000 1.000000 1.000000 -0.755531 0.078559 0.650386
327 1 -17.807048 1.269579 15.805665 0 1.000000 1.000000 1.000000 -0.745453 0.053600 0.664400
328 1 -17.361443 1.287336 16.291923 0 1.000000 1.000000 1.000000 -0.729114 0.053599 0.682290
329 1 -17.147930 0.648705 16.553506 0 1.000000 1.000000 1.000000 -0.717964 0.027376 0.695542
330 1 -16.662957 0.657189 17.040728 0 1.000000 1.000000 1.000000 -0.699700 0.027375 0.713912
331 1 -16.416815 -0.000000 17.290147 0 1.000000 1.000000 1.000000 -0.687474 0.000000 0.726209
332 1 -15.891550 -0.000000 17.773614 0 1.000000 1.000000 1.000000 -0.667213 0.000000 0.744867
333 1 -15.612646 -0.673006 18.006263 0 1.000000 1.000000 1.000000 -0.653935 -0.028371 0.756018
334 1 -15.047059 -0.680267 18.480770 0 1.000000 1.000000 1.000000 -0.631650 -0.028371 0.774734
335 1 -14.736186 -1.365695 18.691927 0 1.000000 1.000000 1.000000 -0.617377 -0.057534 0.784561
336 1 -14.131307 -1.378561 19.151968 0 1.000000 1.000000 1.000000 -0.593090 -0.057533 0.803078
337 1 -13.790292 -2.072423 19.337029 0 1.000000 1.000000 1.000000 -0.577913 -0.087245 0.811421
338 1 -13.148333 -2.088841 19.777045 0 1.000000 1.000000 1.000000 -0.551708 -0.087244 0.829461
339 1 -12.780075 -2.786668 19.931795 0 1.000000 1.000000 1.000000 -0.535754 -0.117222 0.836198
340 1 -12.104458 -2.804266 20.346462 0 1.000000 1.000000 1.000000 -0.507775 -0.117220 0.853478
341 1 -11.712881 -3.501276 20.467343 0 1.000000 1.000000 1.000000 -0.491200 -0.147160 0.858526
342 1 -11.008191 -3.517480 20.851875 0 1.000000 1.000000 1.000000 -0.461652 -0.147159 0.874770
343 1 -10.598101 -4.208786 20.936230 0 1.000000 1.000000 1.000000 -0.444639 -0.176746 0.878099
344 1 -9.869921 -4.220970 21.286656 0 1.000000 1.000000 1.000000 -0.413781 -0.176745 0.893055
345 1 -9.446784 -4.901801 21.332915 0 1.000000 1.000000 1.000000 -0.396529 -0.205670 0.894687
346 1 -8.701446 -4.907443 21.646297 0 1.000000 1.000000 1.000000 -0.364661 -0.205670 0.908142
347 1 -8.271099 -5.573368 21.654071 0 1.000000 1.000000 1.000000 -0.347376 -0.233645 0.908152
348 1 -7.515372 -5.570202 21.928644 0 1.000000 1.000000 1.000000 -0.314825 -0.233646 0.919943
349 1 -7.083705 -6.217322 21.898718 0 1.000000 1.000000 1.000000 -0.297708 -0.260421 0.918450
350 1 -6.324449 -6.203465 22.133922 0 1.000000 1.000000 1.000000 -0.264809 -0.260422 0.928470
351 1 -5.897102 -6.828549 22.068156 0 1.000000 1.000000 1.000000 -0.248047 -0.285793 0.925632
352 1 -5.140936 -6.802588 22.264572 0 1.000000 1.000000 1.000000 -0.215129 -0.285795 0.933831
353 1 -4.723032 -7.403158 22.165726 0 1.000000 1.000000 1.000000 -0.198885 -0.309608 0.929832
354 1 -3.976048 -7.364185 22.324931 0 1.000000 1.000000 1.000000 -0.166253 -0.309610 0.936216
355 1 -3.571998 -7.938533 22.196430 0 1.000000 1.000000 1.000000 -0.150664 -0.331767 0.931252
356 1 -2.839550 -7.886146 22.320800 0 1.000000 1.000000 1.000000 -0.118590 -0.331770 0.935877
357 1 -2.452937 -8.433300 22.166494 0 1.000000 1.000000 1.000000 -0.103760 -0.352223 0.930147
358 1 -1.739504 -8.367553 22.258973 0 1.000000 1.000000 1.000000 -0.072474 -0.352227 0.933104
359 1 -1.373041 -8.887196 22.082897 0 1.000000 1.000000 1.000000 -0.058479 -0.370973 0.926800
360 1 -0.682173 -8.808535 22.146780 0 1.000000 1.000000 1.000000 -0.028165 -0.370978 0.928214
361 1 -0.337731 -9.300909 21.952952 0 1.000000 1.000000 1.000000 -0.015051 -0.388054 0.921514
362 1 -18.993885 1.214150 14.364445 0 1.000000 1.000000 1.000000 -0.794946 0.051294 0.604507
363 1 -18.622427 1.232939 14.840733 0 1.000000 1.000000 1.000000 -0.782225 0.051294 0.620881
364 1 -18.446595 0.621731 15.095896 0 1.000000 1.000000 1.000000 -0.772116 0.026259 0.634939
365 1 -18.039079 0.630948 15.579645 0 1.000000 1.000000 1.000000 -0.757664 0.026258 0.652117
366 1 -17.832305 -0.000000 15.828099 0 1.000000 1.000000 1.000000 -0.746499 0.000000 0.665387
367 1 -17.386762 -0.000000 16.315702 0 1.000000 1.000000 1.000000 -0.730190 0.000000 0.683244
368 1 -17.147930 -0.648705 16.553506 0 1.000000 1.000000 1.000000 -0.717964 -0.027376 0.695542
369 1 -16.662957 -0.657189 17.040728 0 1.000000 1.000000 1.000000 -0.699700 -0.027375 0.713912
370 1 -16.391641 -1.321042 17.263615 0 1.000000 1.000000 1.000000 -0.686434 -0.055720 0.725054
371 1 -15.866595 -1.336859 17.745682 0 1.000000 1.000000 1.000000 -0.666149 -0.055719 0.743734
372 1 -15.563212 -2.012628 17.949214 0 1.000000 1.000000 1.000000 -0.651897 -0.084841 0.753547
373 1 -14.998389 -2.034203 18.420952 0 1.000000 1.000000 1.000000 -0.629571 -0.084839 0.772297
374 1 -14.664321 -2.718079 18.600719 0 1.000000 1.000000 1.000000 -0.614419 -0.114502 0.780627
375 1 -14.061102 -2.743433 19.056757 0 1.000000 1.000000 1.000000 -0.590085 -0.114501 0.799180
376 1 -13.698764 -3.431130 19.208621 0 1.000000 1.000000 1.000000 -0.574154 -0.144435 0.805907
377 1 -13.059697 -3.457948 19.643644 0 1.000000 1.000000 1.000000 -0.547905 -0.144433 0.823977
378 1 -12.672526 -4.144854 19.763990 0 1.000000 1.000000 1.000000 -0.531347 -0.174344 0.829020
379 1 -12.001327 -4.170585 20.173021 0 1.000000 1.000000 1.000000 -0.503337 -0.174342 0.846319
380 1 -11.593689 -4.851949 20.258995 0 1.000000 1.000000 1.000000 -0.486330 -0.203919 0.849647
381 1 -10.895153 -4.873946 20.637672 0 1.000000 1.000000 1.000000 -0.456771 -0.203917 0.865897
382 1 -10.472160 -5.545093 20.687381 0 1.000000 1.000000 1.000000 -0.439513 -0.232853 0.867530
383 1 -9.751971 -5.560764 21.032199 0 1.000000 1.000000 1.000000 -0.408666 -0.232852 0.882481
384 1 -9.319226 -6.217307 21.044836 0 1.000000 1.000000 1.000000 -0.391362 -0.260859 0.882490
385 1 -8.583692 -6.224270 21.353326 0 1.000000 1.000000 1.000000 -0.359526 -0.260859 0.895932
386 1 -8.147002 -6.862308 21.329206 0 1.000000 1.000000 1.000000 -0.342381 -0.287679 0.894436
387 1 -7.402742 -6.858525 21.600024 0 1.000000 1.000000 1.000000 -0.309877 -0.287679 0.906210
388 1 -6.967807 -7.474786 21.540526 0 1.000000 1.000000 1.000000 -0.293082 -0.313099 0.903367
389 1 -6.221423 -7.458666 21.773454 0 1.000000 1.000000 1.000000 -0.260237 -0.313100 0.913370
390 1 -5.793561 -8.050605 21.680889 0 1.000000 1.000000 1.000000 -0.243964 -0.336957 0.909363
391 1 -5.051336 -8.021057 21.876744 0 1.000000 1.000000 1.000000 -0.211094 -0.336959 0.917550
392 1 -4.635258 -8.586887 21.754154 0 1.000000 1.000000 1.000000 -0.195486 -0.359143 0.912580
393 1 -3.902904 -8.543335 21.914635 0 1.000000 1.000000 1.000000 -0.162884 -0.359146 0.918958
394 1 -3.502565 -9.082005 21.765572 0 1.000000 1.000000 1.000000 -0.148055 -0.379599 0.913227
395 1 -2.785046 -9.024357 21.893061 0 1.000000 1.000000 1.000000 -0.115981 -0.379603 0.917851
396 1 -2.403564 -9.535486 21.721354 0 1.000000 1.000000 1.000000 -0.102013 -0.398314 0.911559
397 1 -1.704993 -9.464072 21.818711 0 1.000000 1.000000 1.000000 -0.070684 -0.398319 0.914520
398 1 -1.344646 -9.947855 21.628259 0 1.000000 1.000000 1.000000 -0.057629 -0.415319 0.907849
399 1 -0.668251 -9.863352 21.698618 0 1.000000 1.000000 1.000000 -0.027222 -0.415324 0.909266
400 1 -0.330521 -10.320443 21.493216 0 1.000000 1.000000 1.000000 -0.015104 -0.430675 0.902381
401 1 -19.526300 0.593408 13.673945 0 1.000000 1.000000 1.000000 -0.817155 0.025077 0.575872
402 1 -19.189239 0.602943 14.142099 0 1.000000 1.000000 1.000000 -0.806094 0.025076 0.591256
403 1 -19.018523 -0.000000 14.383091 0 1.000000 1.000000 1.000000 -0.795969 -0.000000 0.605338
404 1 -18.647337 -0.000000 14.860601 0 1.000000 1.000000 1.000000 -0.783281 -0.000000 0.621667
405 1 -18.446595 -0.621731 15.095896 0 1.000000 1.000000 1.000000 -0.772116 -0.026259 0.634939
406 1 -18.039079 -0.630948 15.579645 0 1.000000 1.000000 1.000000 -0.757664 -0.026258 0.652117
407 1 -17.807048 -1.269579 15.805665 0 1.000000 1.000000 1.000000 -0.745453 -0.053600 0.664400
408 1 -17.361443 -1.287336 16.291923 0 1.000000 1.000000 1.000000 -0.729114 -0.053599 0.682290
409 1 -17.097464 -1.940392 16.504755 0 1.000000 1.000000 1.000000 -0.715877 -0.081883 0.693409
410 1 -16.612635 -1.965614 16.989224 0 1.000000 1.000000 1.000000 -0.697558 -0.081882 0.711835
411 1 -16.316806 -2.630029 17.184746 0 1.000000 1.000000 1.000000 -0.683343 -0.110926 0.721622
412 1 -15.792428 -2.661226 17.662669 0 1.000000 1.000000 1.000000 -0.662987 -0.110924 0.740367
413 1 -15.465733 -3.333384 17.836721 0 1.000000 1.000000 1.000000 -0.647876 -0.140506 0.748675
414 1 -14.902448 -3.368662 18.303033 0 1.000000 1.000000 1.000000 -0.625474 -0.140504 0.767490
415 1 -14.546844 -4.044478 18.451623 0 1.000000 1.000000 1.000000 -0.609582 -0.170365 0.774200
416 1 -13.946379 -4.081593 18.901173 0 1.000000 1.000000 1.000000 -0.585177 -0.170362 0.792808
417 1 -13.564819 -4.756647 19.020707 0 1.000000 1.000000 1.000000 -0.568649 -0.200217 0.797842
418 1 -12.930034 -4.793091 19.448501 0 1.000000 1.000000 1.000000 -0.542345 -0.200215 0.815951
419 1 -12.526410 -5.462801 19.536012 0 1.000000 1.000000 1.000000 -0.525355 -0.229762 0.819275
420 1 -11.861265 -5.495927 19.937475 0 1.000000 1.000000 1.000000 -0.497315 -0.229759 0.836593
421 1 -11.440273 -6.155742 19.990824 0 1.000000 1.000000 1.000000 -0.480057 -0.258696 0.838225
422 1 -10.749704 -6.182910 20.362053 0 1.000000 1.000000 1.000000 -0.450497 -0.258695 0.854476
423 1 -10.316631 -6.828519 20.380072 0 1.000000 1.000000 1.000000 -0.433175 -0.286732 0.854485
424 1 -9.606343 -6.847246 20.718038 0 1.000000 1.000000 1.000000 -0.402359 -0.286731 0.869421
425 1 -9.166803 -7.474771 20.700600 0 1.000000 1.000000 1.000000 -0.385178 -0.313609 0.867922
426 1 -8.442996 -7.482870 21.003279 0 1.000000 1.000000 1.000000 -0.353401 -0.313608 0.881339
427 1 -8.002641 -8.089018 20.951286 0 1.000000 1.000000 1.000000 -0.336557 -0.339103 0.878486
428 1 -7.271712 -8.084716 21.217715 0 1.000000 1.000000 1.000000 -0.304133 -0.339103 0.890231
429 1 -6.835950 -8.666883 21.133004 0 1.000000 1.000000 1.000000 -0.287804 -0.363043 0.886210
430 1 -6.104183 -8.648891 21.363249 0 1.000000 1.000000 1.000000 -0.255049 -0.363044 0.896186
431 1 -5.677941 -9.205209 21.248431 0 1.000000 1.000000 1.000000 -0.239387 -0.385306 0.891198
432 1 -4.951241 -9.172752 21.443481 0 1.000000 1.000000 1.000000 -0.206604 -0.385308 0.899362
433 1 -4.538780 -9.702085 21.301745 0 1.000000 1.000000 1.000000 -0.191731 -0.405823 0.893615
434 1 -3.822458 -9.654889 21.463355 0 1.000000 1.000000 1.000000 -0.159199 -0.405826 0.899978
435 1 -3.427263 -10.156775 21.298254 0 1.000000 1.000000 1.000000 -0.145205 -0.424573 0.893674
436 1 -2.725888 -10.095020 21.428764 0 1.000000 1.000000 1.000000 -0.113171 -0.424577 0.898291
437 1 -2.350628 -10.569586 21.244008 0 1.000000 1.000000 1.000000 -0.100116 -0.441578 0.891620
438 1 -1.667957 -10.493834 21.346147 0 1.000000 1.000000 1.000000 -0.068786 -0.441582 0.894580
439 1 -1.314499 -10.941688 21.145427 0 1.000000 1.000000 1.000000 -0.056701 -0.456893 0.887713
440 1 -0.653457 -10.852800 21.222137 0 1.000000 1.000000 1.000000 -0.026244 -0.456898 0.889132
441 1 -0.322937 -11.274924 21.008977 0 1.000000 1.000000 1.000000 -0.015134 -0.470600 0.882217
442 1 -19.997655 0.000000 12.989417 0 1.000000 1.000000 1.000000 -0.836829 0.000000 0.547465
443 1 -19.692645 -0.000000 13.446784 0 1.000000 1.000000 1.000000 -0.827281 0.000000 0.561789
444 1 -19.526300 -0.593408 13.673945 0 1.000000 1.000000 1.000000 -0.817155 -0.025077 0.575872
445 1 -19.189239 -0.602943 14.142099 0 1.000000 1.000000 1.000000 -0.806094 -0.025076 0.591256
446 1 -18.993885 -1.214150 14.364445 0 1.000000 1.000000 1.000000 -0.794946 -0.051294 0.604507
447 1 -18.622427 -1.232939 14.840733 0 1.000000 1.000000 1.000000 -0.782225 -0.051294 0.620881
448 1 -18.396705 -1.860151 15.055038 0 1.000000 1.000000 1.000000 -0.770048 -0.078560 0.633131
449 1 -17.988842 -1.887574 15.536221 0 1.000000 1.000000 1.000000 -0.755531 -0.078559 0.650386
450 1 -17.731916 -2.528450 15.738929 0 1.000000 1.000000 1.000000 -0.742341 -0.106741 0.661465
451 1 -17.286143 -2.563510 16.221205 0 1.000000 1.000000 1.000000 -0.725914 -0.106739 0.679453
452 1 -16.997851 -3.215154 16.408528 0 1.000000 1.000000 1.000000 -0.711756 -0.135666 0.689201
453 1 -16.513342 -3.256451 16.887601 0 1.000000 1.000000 1.000000 -0.693332 -0.135664 0.707733
454 1 -16.194322 -3.915447 17.055663 0 1.000000 1.000000 1.000000 -0.678283 -0.165125 0.716007
455 1 -15.671091 -3.961182 17.526861 0 1.000000 1.000000 1.000000 -0.657816 -0.165123 0.734856
456 1 -15.322883 -4.623659 17.671870 0 1.000000 1.000000 1.000000 -0.641983 -0.194872 0.741541
457 1 -14.761921 -4.671676 18.130320 0 1.000000 1.000000 1.000000 -0.619475 -0.194870 0.760445
458 1 -14.387012 -5.333425 18.248774 0 1.000000 1.000000 1.000000 -0.602997 -0.224635 0.765463
459 1 -13.790375 -5.381281 18.689611 0 1.000000 1.000000 1.000000 -0.578506 -0.224632 0.784138
460 1 -13.392178 -6.037909 18.778508 0 1.000000 1.000000 1.000000 -0.561549 -0.254121 0.787455
461 1 -12.762998 -6.082984 19.197115 0 1.000000 1.000000 1.000000 -0.535188 -0.254118 0.805604
462 1 -12.345754 -6.730095 19.254146 0 1.000000 1.000000 1.000000 -0.517941 -0.283036 0.807235
463 1 -11.688174 -6.769726 19.646391 0 1.000000 1.000000 1.000000 -0.489880 -0.283033 0.824566
464 1 -11.256786 -7.403114 19.670094 0 1.000000 1.000000 1.000000 -0.472545 -0.311092 0.824574
465 1 -10.575812 -7.434739 20.032546 0 1.000000 1.000000 1.000000 -0.443006 -0.311090 0.840815
466 1 -10.135615 -8.050576 20.022405 0 1.000000 1.000000 1.000000 -0.425787 -0.338026 0.839311
467 1 -9.436893 -8.071881 20.352494 0 1.000000 1.000000 1.000000 -0.395032 -0.338025 0.854218
468 1 -8.993387 -8.666869 20.308956 0 1.000000 1.000000 1.000000 -0.378129 -0.363611 0.851355
469 1 -8.282941 -8.675906 20.605070 0 1.000000 1.000000 1.000000 -0.346447 -0.363610 0.864732
470 1 -7.841522 -9.247394 20.529495 0 1.000000 1.000000 1.000000 -0.330042 -0.387662 0.860692
471 1 -7.125461 -9.242672 20.791001 0 1.000000 1.000000 1.000000 -0.297739 -0.387663 0.872393
472 1 -6.691173 -9.788715 20.685542 0 1.000000 1.000000 1.000000 -0.281992 -0.410046 0.867377
473 1 -5.975421 -9.769244 20.912728 0 1.000000 1.000000 1.000000 -0.249370 -0.410048 0.877312
474 1 -5.552754 -10.288613 20.780167 0 1.000000 1.000000 1.000000 -0.234412 -0.430681 0.871530
475 1 -4.842813 -10.253911 20.974134 0 1.000000 1.000000 1.000000 -0.201761 -0.430684 0.879661
476 1 -4.435560 -10.746050 20.817685 0 1.000000 1.000000 1.000000 -0.187692 -0.449533 0.873322
477 1 -3.736332 -10.696109 20.980195 0 1.000000 1.000000 1.000000 -0.155276 -0.449537 0.879663
478 1 -3.347518 -11.161060 20.803315 0 1.000000 1.000000 1.000000 -0.142164 -0.466614 0.872961
479 1 -2.663188 -11.096291 20.936619 0 1.000000 1.000000 1.000000 -0.110217 -0.466618 0.877565
480 1 -2.295057 -11.534594 20.742830 0 1.000000 1.000000 1.000000 -0.098100 -0.481969 0.870679
481 1 -1.629039 -11.455743 20.849498 0 1.000000 1.000000 1.000000 -0.066818 -0.481974 0.873634
482 1 -1.283091 -11.868331 20.642231 0 1.000000 1.000000 1.000000 -0.055708 -0.495677 0.866719
483 1 -0.638030 -11.776400 20.724999 0 1.000000 1.000000 1.000000 -0.025251 -0.495682 0.868137
484 1 -0.315093 -12.164492 20.507486 0 1.000000 1.000000 1.000000 -0.015138 -0.507833 0.861323
485 1 -0.509831 12.674323 20.192393 0 1.000000 1.000000 1.000000 -0.024494 0.532327 0.846185
486 1 -1.115930 13.351008 19.725886 0 1.000000 1.000000 1.000000 -0.049563 0.560738 0.826508
487 1 -1.032354 12.808754 20.086969 0 1.000000 1.000000 1.000000 -0.040856 0.536538 0.842886
488 1 -1.482677 12.390854 20.319294 0 1.000000 1.000000 1.000000 -0.065062 0.520164 0.851585
489 1 -1.748944 14.033924 19.198158 0 1.000000 1.000000 1.000000 -0.075733 0.589404 0.804281
490 1 -1.660259 13.488641 19.593098 0 1.000000 1.000000 1.000000 -0.067540 0.565012 0.822314
491 1 -2.126904 13.068592 19.830928 0 1.000000 1.000000 1.000000 -0.091744 0.548637 0.831012
492 1 -2.032898 12.513059 20.196041 0 1.000000 1.000000 1.000000 -0.083038 0.524438 0.847390
493 1 -2.499330 12.069387 20.412309 0 1.000000 1.000000 1.000000 -0.107435 0.506408 0.855575
494 1 -2.406611 14.717307 18.605434 0 1.000000 1.000000 1.000000 -0.102913 0.618080 0.779350
495 1 -2.314192 14.172481 19.035429 0 1.000000 1.000000 1.000000 -0.095340 0.593659 0.799049
496 1 -2.797414 13.751250 19.277632 0 1.000000 1.000000 1.000000 -0.119504 0.577310 0.807733
497 1 -2.698810 13.192644 19.678191 0 1.000000 1.000000 1.000000 -0.111299 0.552881 0.825794
498 1 -3.181665 12.745268 19.899363 0 1.000000 1.000000 1.000000 -0.135732 0.534823 0.833991
499 1 -3.076190 12.177544 20.268368 0 1.000000 1.000000 1.000000 -0.127041 0.510664 0.850343
500 1 -3.556247 11.707519 20.465585 0 1.000000 1.000000 1.000000 -0.151466 0.490967 0.857910
501 1 -3.085769 15.394486 17.944793 0 1.000000 1.000000 1.000000 -0.130981 0.646484 0.751600
502 1 -2.991353 14.854048 18.410448 0 1.000000 1.000000 1.000000 -0.124131 0.622220 0.772938
503 1 -3.491206 14.432624 18.655634 0 1.000000 1.000000 1.000000 -0.148221 0.605921 0.781595
504 1 -3.389685 13.874652 19.092823 0 1.000000 1.000000 1.000000 -0.140627 0.581433 0.801349
505 1 -3.889049 13.424535 19.317790 0 1.000000 1.000000 1.000000 -0.165060 0.563374 0.809546
506 1 -3.779632 12.853757 19.723771 0 1.000000 1.000000 1.000000 -0.156856 0.538946 0.827607
507 1 -4.275849 12.378402 19.925213 0 1.000000 1.000000 1.000000 -0.181348 0.519194 0.835195
508 1 -4.157938 11.799888 20.298022 0 1.000000 1.000000 1.000000 -0.172683 0.495109 0.851497
509 1 -4.648437 11.303369 20.473242 0 1.000000 1.000000 1.000000 -0.196950 0.473773 0.858341
510 1 -3.782316 16.058003 17.214487 0 1.000000 1.000000 1.000000 -0.159774 0.674301 0.720965
511 1 -3.687990 15.526237 17.715657 0 1.000000 1.000000 1.000000 -0.153748 0.650400 0.743869
512 1 -4.204281 15.105594 17.962192 0 1.000000 1.000000 1.000000 -0.177738 0.634167 0.752490
513 1 -4.101912 14.552419 18.436515 0 1.000000 1.000000 1.000000 -0.170864 0.609816 0.773906
514 1 -4.617641 14.100568 18.663929 0 1.000000 1.000000 1.000000 -0.195263 0.591781 0.782091
515 1 -4.506299 13.530656 19.108015 0 1.000000 1.000000 1.000000 -0.187661 0.567263 0.801870
516 1 -5.018563 13.050941 19.312634 0 1.000000 1.000000 1.000000 -0.212183 0.547486 0.809467
517 1 -4.897530 12.469465 19.723851 0 1.000000 1.000000 1.000000 -0.203990 0.523091 0.827504
518 1 -5.403509 11.965974 19.902584 0 1.000000 1.000000 1.000000 -0.228344 0.501678 0.834373
519 1 -5.272327 11.378391 20.279167 0 1.000000 1.000000 1.000000 -0.219716 0.477692 0.850609
520 1 -5.769390 10.855775 20.429642 0 1.000000 1.000000 1.000000 -0.243620 0.454789 0.856631
521 1 -4.491220 16.699815 16.414248 0 1.000000 1.000000 1.000000 -0.189094 0.701194 0.687438
522 1 -4.399386 16.181228 16.949904 0 1.000000 1.000000 1.000000 -0.183980 0.677872 0.711787
523 1 -4.931625 15.762282 17.195937 0 1.000000 1.000000 1.000000 -0.207855 0.661716 0.720367
524 1 -4.830845 15.218414 17.707056 0 1.000000 1.000000 1.000000 -0.201804 0.637718 0.743364
525 1 -5.362513 14.765849 17.935345 0 1.000000 1.000000 1.000000 -0.226146 0.619726 0.751531
526 1 -5.251678 14.201178 18.417896 0 1.000000 1.000000 1.000000 -0.219258 0.595322 0.772992
527 1 -5.779615 13.718148 18.624432 0 1.000000 1.000000 1.000000 -0.243779 0.575546 0.780589
528 1 -5.657843 13.137824 19.075084 0 1.000000 1.000000 1.000000 -0.236177 0.551028 0.800368
529 1 -6.178962 12.628357 19.256388 0 1.000000 1.000000 1.000000 -0.260583 0.529568 0.807251
530 1 -6.045662 12.037983 19.672670 0 1.000000 1.000000 1.000000 -0.252410 0.505231 0.825246
531 1 -6.557073 11.506805 19.825966 0 1.000000 1.000000 1.000000 -0.276411 0.482235 0.831292
532 1 -6.411984 10.912179 20.206355 0 1.000000 1.000000 1.000000 -0.267825 0.458363 0.847451
533 1 -6.911100 10.364489 20.329695 0 1.000000 1.000000 1.000000 -0.291147 0.434015 0.852563
534 1 -5.206613 17.311585 15.545551 0 1.000000 1.000000 1.000000 -0.218709 0.726809 0.651087
535 1 -5.119910 16.810727 16.113685 0 1.000000 1.000000 1.000000 -0.214577 0.704291 0.676706
536 1 -5.667271 16.394299 16.357199 0 1.000000 1.000000 1.000000 -0.238334 0.688214 0.685243
537 1 -5.570821 15.864440 16.903794 0 1.000000 1.000000 1.000000 -0.233199 0.664797 0.709692
538 1 -6.117677 15.412155 17.131201 0 1.000000 1.000000 1.000000 -0.257466 0.646858 0.717834
539 1 -6.010149 14.857431 17.651633 0 1.000000 1.000000 1.000000 -0.251401 0.622796 0.740893
540 1 -6.553080 14.372178 17.858634 0 1.000000 1.000000 1.000000 -0.275897 0.603039 0.748482
541 1 -6.433381 13.797566 18.348883 0 1.000000 1.000000 1.000000 -0.269003 0.578614 0.769963
542 1 -6.969020 13.283231 18.531640 0 1.000000 1.000000 1.000000 -0.293431 0.557134 0.776853
543 1 -6.836373 12.694347 18.988492 0 1.000000 1.000000 1.000000 -0.285837 0.532641 0.796612
544 1 -7.361550 12.155653 19.143829 0 1.000000 1.000000 1.000000 -0.309901 0.509583 0.802675
545 1 -7.215549 11.558486 19.565021 0 1.000000 1.000000 1.000000 -0.301753 0.485318 0.820616
546 1 -7.727416 11.000770 19.690582 0 1.000000 1.000000 1.000000 -0.325171 0.460871 0.825749
547 1 -7.568055 10.401400 20.074868 0 1.000000 1.000000 1.000000 -0.316628 0.437117 0.841828
548 1 -8.064191 9.830348 20.169210 0 1.000000 1.000000 1.000000 -0.339147 0.411499 0.845960
549 1 -5.921943 17.885050 14.611806 0 1.000000 1.000000 1.000000 -0.248358 0.750801 0.612059
550 1 -5.843149 17.406310 15.209384 0 1.000000 1.000000 1.000000 -0.245257 0.729304 0.638722
551 1 -6.404442 16.993085 15.448270 0 1.000000 1.000000 1.000000 -0.268905 0.713299 0.647221
552 1 -6.315267 16.481931 16.027951 0 1.000000 1.000000 1.000000 -0.264757 0.690697 0.672935
553 1 -6.876205 16.030856 16.252584 0 1.000000 1.000000 1.000000 -0.288948 0.672814 0.681051
554 1 -6.775065 15.490938 16.809237 0 1.000000 1.000000 1.000000 -0.283799 0.649333 0.705567
555 1 -7.331971 15.004566 17.015100 0 1.000000 1.000000 1.000000 -0.308255 0.629607 0.713144
556 1 -7.217514 14.440529 17.544065 0 1.000000 1.000000 1.000000 -0.302181 0.605510 0.736236
557 1 -7.766737 13.922521 17.727005 0 1.000000 1.000000 1.000000 -0.326608 0.584030 0.743126
558 1 -7.637942 13.339834 18.224332 0 1.000000 1.000000 1.000000 -0.319715 0.559606 0.764607
559 1 -8.176017 12.794825 18.380795 0 1.000000 1.000000 1.000000 -0.343814 0.536514 0.770678
560 1 -8.032271 12.199528 18.843440 0 1.000000 1.000000 1.000000 -0.336233 0.512060 0.790406
561 1 -8.556070 11.632912 18.970663 0 1.000000 1.000000 1.000000 -0.359714 0.487545 0.795553
562 1 -8.397215 11.031322 19.396613 0 1.000000 1.000000 1.000000 -0.351594 0.463357 0.813438
563 1 -8.904067 10.448982 19.492748 0 1.000000 1.000000 1.000000 -0.374196 0.437643 0.817585
564 1 -8.730403 9.847379 19.881060 0 1.000000 1.000000 1.000000 -0.365693 0.413998 0.833591
565 1 -9.218181 9.255387 19.945231 0 1.000000 1.000000 1.000000 -0.387190 0.387335 0.836693
566 1 -6.630227 18.412436 13.618423 0 1.000000 1.000000 1.000000 -0.277762 0.772844 0.570579
567 1 -6.562118 17.959814 14.241415 0 1.000000 1.000000 1.000000 -0.275713 0.752568 0.598017
568 1 -7.135781 17.550322 14.473567 0 1.000000 1.000000 1.000000 -0.299273 0.736622 0.606485
569 1 -7.056899 17.062333 15.082845 0 1.000000 1.000000 1.000000 -0.296162 0.715060 0.633228
570 1 -7.630441 16.613304 15.302758 0 1.000000 1.000000 1.000000 -0.320283 0.697227 0.641321
571 1 -7.538921 16.092982 15.892816 0 1.000000 1.000000 1.000000 -0.316125 0.674569 0.667099
572 1 -8.108425 15.606575 16.095840 0 1.000000 1.000000 1.000000 -0.340537 0.654878 0.674662
573 1 -8.002615 15.058077 16.661471 0 1.000000 1.000000 1.000000 -0.335379 0.631359 0.699218
574 1 -8.564149 14.537649 16.843209 0 1.000000 1.000000 1.000000 -0.359791 0.609893 0.706103
575 1 -8.442728 13.966129 17.379779 0 1.000000 1.000000 1.000000 -0.353714 0.585782 0.729209
576 1 -8.992529 13.416136 17.536342 0 1.000000 1.000000 1.000000 -0.377825 0.562678 0.735284
577 1 -8.854612 12.827518 18.040032 0 1.000000 1.000000 1.000000 -0.370937 0.538268 0.756752
578 1 -9.389253 12.253324 18.168263 0 1.000000 1.000000 1.000000 -0.394457 0.513713 0.761907
579 1 -9.234456 11.654014 18.636249 0 1.000000 1.000000 1.000000 -0.386890 0.489304 0.781600
580 1 -9.750997 11.061619 18.733889 0 1.000000 1.000000 1.000000 -0.409548 0.463526 0.785757
581 1 -9.579462 10.458177 19.164438 0 1.000000 1.000000 1.000000 -0.401452 0.439408 0.803590
582 1 -10.075551 9.853905 19.230215 0 1.000000 1.000000 1.000000 -0.423013 0.412664 0.806702
583 1 -9.887933 9.252718 19.622696 0 1.000000 1.000000 1.000000 -0.414543 0.389106 0.822649
584 1 -10.361860 8.642894 19.656332 0 1.000000 1.000000 1.000000 -0.434817 0.361667 0.824700
585 1 -7.324341 18.886882 12.572735 0 1.000000 1.000000 1.000000 -0.306633 0.792651 0.526955
586 1 -7.269548 18.463779 13.216225 0 1.000000 1.000000 1.000000 -0.305627 0.773770 0.554862
587 1 -7.853662 18.058378 13.439638 0 1.000000 1.000000 1.000000 -0.329129 0.757862 0.563310
588 1 -7.788004 17.597543 14.073988 0 1.000000 1.000000 1.000000 -0.327076 0.737546 0.590802
589 1 -8.372310 17.151278 14.287271 0 1.000000 1.000000 1.000000 -0.351143 0.719752 0.598878
590 1 -8.293629 16.655029 14.906763 0 1.000000 1.000000 1.000000 -0.348027 0.698150 0.625671
591 1 -8.873996 16.169620 15.105227 0 1.000000 1.000000 1.000000 -0.372398 0.678490 0.633222
592 1 -8.780312 15.641489 15.704247 0 1.000000 1.000000 1.000000 -0.368234 0.655800 0.659037
593 1 -9.352544 15.119920 15.883338 0 1.000000 1.000000 1.000000 -0.392624 0.634351 0.665917
594 1 -9.242192 14.564578 16.456670 0 1.000000 1.000000 1.000000 -0.387463 0.610814 0.690492
595 1 -9.802232 14.011041 16.612229 0 1.000000 1.000000 1.000000 -0.411574 0.587709 0.696566
596 1 -9.673989 13.434120 17.155332 0 1.000000 1.000000 1.000000 -0.405497 0.563599 0.719672
597 1 -10.218106 12.853851 17.283846 0 1.000000 1.000000 1.000000 -0.429036 0.539025 0.724831
598 1 -10.071286 12.261673 17.793088 0 1.000000 1.000000 1.000000 -0.422154 0.514636 0.746281
599 1 -10.596251 11.660696 17.891895 0 1.000000 1.000000 1.000000 -0.444845 0.488822 0.750444
600 1 -10.430758 11.059952 18.364710 0 1.000000 1.000000 1.000000 -0.437291 0.464452 0.770105
601 1 -10.933971 10.444764 18.432125 0 1.000000 1.000000 1.000000 -0.458893 0.437658 0.773222
602 1 -10.750297 9.842158 18.867080 0 1.000000 1.000000 1.000000 -0.450815 0.413592 0.791016
603 1 -11.229859 9.219381 18.902439 0 1.000000 1.000000 1.000000 -0.471130 0.386100 0.793072
604 1 -11.029039 8.621303 19.299209 0 1.000000 1.000000 1.000000 -0.462680 0.362598 0.808980
605 1 -11.483768 7.997359 19.302830 0 1.000000 1.000000 1.000000 -0.481559 0.334689 0.809990
606 1 -7.997359 19.302830 11.483768 0 1.000000 1.000000 1.000000 -0.334689 0.809990 0.481559
607 1 -7.958217 18.911863 12.142138 0 1.000000 1.000000 1.000000 -0.334686 0.792643 0.509610
608 1 -8.550551 18.510750 12.355009 0 1.000000 1.000000 1.000000 -0.358168 0.776748 0.518052
609 1 -8.500789 18.080369 13.009020 0 1.000000 1.000000 1.000000 -0.357161 0.757855 0.545978
610 1 -9.093692 17.637454 13.213891 0 1.000000 1.000000 1.000000 -0.381199 0.740081 0.554046
611 1 -9.030872 17.169199 13.857792 0 1.000000 1.000000 1.000000 -0.379144 0.719745 0.581564
612 1 -9.620034 16.685743 14.050039 0 1.000000 1.000000 1.000000 -0.403487 0.700107 0.589108
613 1 -9.541839 16.182413 14.677983 0 1.000000 1.000000 1.000000 -0.400367 0.678483 0.615927
614 1 -10.122833 15.660977 14.852988 0 1.000000 1.000000 1.000000 -0.424738 0.657051 0.622801
615 1 -10.027223 15.126615 15.459324 0 1.000000 1.000000 1.000000 -0.420571 0.634344 0.648635
616 1 -10.595714 14.571047 15.612742 0 1.000000 1.000000 1.000000 -0.444675 0.611246 0.654708
617 1 -10.481075 14.010816 16.192316 0 1.000000 1.000000 1.000000 -0.439513 0.587703 0.679289
618 1 -11.033034 13.426129 16.320340 0 1.000000 1.000000 1.000000 -0.463057 0.563122 0.684450
619 1 -10.898307 12.846086 16.868768 0 1.000000 1.000000 1.000000 -0.456982 0.539019 0.707549
620 1 -11.430207 12.238228 16.968363 0 1.000000 1.000000 1.000000 -0.479689 0.513186 0.711715
621 1 -11.274970 11.645016 17.482248 0 1.000000 1.000000 1.000000 -0.472814 0.488817 0.733148
622 1 -11.783942 11.020559 17.551315 0 1.000000 1.000000 1.000000 -0.494437 0.461997 0.736268
623 1 -11.608435 10.421051 18.028376 0 1.000000 1.000000 1.000000 -0.486893 0.437654 0.755906
624 1 -12.092361 9.786835 18.065840 0 1.000000 1.000000 1.000000 -0.507228 0.410134 0.757964
625 1 -11.897459 9.187771 18.504947 0 1.000000 1.000000 1.000000 -0.499160 0.386096 0.775738
626 1 -12.355009 8.550551 18.510750 0 1.000000 1.000000 1.000000 -0.518052 0.358168 0.776748
627 1 -12.142138 7.958217 18.911863 0 1.000000 1.000000 1.000000 -0.509610 0.334686 0.792643
628 1 -12.572735 7.324341 18.886882 0 1.000000 1.000000 1.000000 -0.526955 0.306633 0.792651
629 1 -8.642894 19.656332 10.361860 0 1.000000 1.000000 1.000000 -0.361667 0.824700 0.434817
630 1 -8.621303 19.299209 11.029039 0 1.000000 1.000000 1.000000 -0.362598 0.808980 0.462680
631 1 -9.219381 18.902439 11.229859 0 1.000000 1.000000 1.000000 -0.386100 0.793072 0.471130
632 1 -9.187771 18.504947 11.897459 0 1.000000 1.000000 1.000000 -0.386096 0.775738 0.499160
633 1 -9.786835 18.065840 12.092361 0 1.000000 1.000000 1.000000 -0.410134 0.757964 0.507228
634 1 -9.742518 17.628729 12.754783 0 1.000000 1.000000 1.000000 -0.409126 0.739071 0.535154
635 1 -10.338129 17.148088 12.939302 0 1.000000 1.000000 1.000000 -0.433460 0.719441 0.542695
636 1 -10.278465 16.673357 13.590657 0 1.000000 1.000000 1.000000 -0.431403 0.699097 0.570223
637 1 -10.866004 16.153290 13.760216 0 1.000000 1.000000 1.000000 -0.455761 0.677675 0.577095
638 1 -10.788568 15.644239 14.394602 0 1.000000 1.000000 1.000000 -0.452640 0.656042 0.603925
639 1 -11.363457 15.088188 14.544764 0 1.000000 1.000000 1.000000 -0.476736 0.632950 0.609997
640 1 -11.266214 14.549359 15.156568 0 1.000000 1.000000 1.000000 -0.472569 0.610238 0.635837
641 1 -11.824141 13.962027 15.283313 0 1.000000 1.000000 1.000000 -0.496112 0.585657 0.640998
642 1 -11.705600 13.399029 15.867511 0 1.000000 1.000000 1.000000 -0.490951 0.562114 0.665579
643 1 -12.242745 12.786183 15.967482 0 1.000000 1.000000 1.000000 -0.513664 0.536274 0.669746
644 1 -12.102078 12.205426 16.519905 0 1.000000 1.000000 1.000000 -0.507591 0.512178 0.692838
645 1 -12.615287 11.573609 16.590614 0 1.000000 1.000000 1.000000 -0.529224 0.485347 0.695960
646 1 -12.452387 10.981954 17.108138 0 1.000000 1.000000 1.000000 -0.522352 0.460989 0.717382
647 1 -12.939302 10.338129 17.148088 0 1.000000 1.000000 1.000000 -0.542695 0.433460 0.719441
648 1 -12.754783 9.742518 17.628729 0 1.000000 1.000000 1.000000 -0.535154 0.409126 0.739071
649 1 -13.213891 9.093692 17.637454 0 1.000000 1.000000 1.000000 -0.554046 0.381199 0.740081
650 1 -13.009020 8.500789 18.080369 0 1.000000 1.000000 1.000000 -0.545978 0.357161 0.757855
651 1 -13.439638 7.853662 18.058378 0 1.000000 1.000000 1.000000 -0.563310 0.329129 0.757862
652 1 -13.216225 7.269548 18.463779 0 1.000000 1.000000 1.000000 -0.554862 0.305627 0.773770
653 1 -13.618423 6.630227 18.412436 0 1.000000 1.000000 1.000000 -0.570579 0.277762 0.772844
654 1 -9.255387 19.945231 9.218181 0 1.000000 1.000000 1.000000 -0.387335 0.836693 0.387190
655 1 -9.252718 19.622696 9.887933 0 1.000000 1.000000 1.000000 -0.389106 0.822649 0.414543
656 1 -9.853905 19.230215 10.075551 0 1.000000 1.000000 1.000000 -0.412664 0.806702 0.423013
657 1 -9.842158 18.867080 10.750297 0 1.000000 1.000000 1.000000 -0.413592 0.791016 0.450815
658 1 -10.444764 18.432125 10.933971 0 1.000000 1.000000 1.000000 -0.437658 0.773222 0.458893
659 1 -10.421051 18.028376 11.608435 0 1.000000 1.000000 1.000000 -0.437654 0.755906 0.486893
660 1 -11.020559 17.551315 11.783942 0 1.000000 1.000000 1.000000 -0.461997 0.736268 0.494437
661 1 -10.981954 17.108138 12.452387 0 1.000000 1.000000 1.000000 -0.460989 0.717382 0.522352
662 1 -11.573609 16.590614 12.615287 0 1.000000 1.000000 1.000000 -0.485347 0.695960 0.529224
663 1 -11.517324 16.110497 13.271760 0 1.000000 1.000000 1.000000 -0.483290 0.675617 0.556752
664 1 -12.096347 15.555507 13.417629 0 1.000000 1.000000 1.000000 -0.507383 0.652528 0.562823
665 1 -12.019917 15.042250 14.056247 0 1.000000 1.000000 1.000000 -0.504261 0.630893 0.589657
666 1 -12.581748 14.454114 14.180941 0 1.000000 1.000000 1.000000 -0.527803 0.606313 0.594818
667 1 -12.483216 13.912721 14.796203 0 1.000000 1.000000 1.000000 -0.523636 0.583599 0.620659
668 1 -13.023753 13.296929 14.896121 0 1.000000 1.000000 1.000000 -0.546350 0.557758 0.624826
669 1 -12.901823 12.733390 15.483201 0 1.000000 1.000000 1.000000 -0.541188 0.534216 0.649406
670 1 -13.417629 12.096347 15.555507 0 1.000000 1.000000 1.000000 -0.562823 0.507383 0.652528
671 1 -13.271760 11.517324 16.110497 0 1.000000 1.000000 1.000000 -0.556752 0.483290 0.675617
672 1 -13.760216 10.866004 16.153290 0 1.000000 1.000000 1.000000 -0.577095 0.455761 0.677675
673 1 -13.590657 10.278465 16.673357 0 1.000000 1.000000 1.000000 -0.570223 0.431403 0.699097
674 1 -14.050039 9.620034 16.685743 0 1.000000 1.000000 1.000000 -0.589108 0.403487 0.700107
675 1 -13.857792 9.030872 17.169199 0 1.000000 1.000000 1.000000 -0.581564 0.379144 0.719745
676 1 -14.287271 8.372310 17.151278 0 1.000000 1.000000 1.000000 -0.598878 0.351143 0.719752
677 1 -14.073988 7.788004 17.597543 0 1.000000 1.000000 1.000000 -0.590802 0.327076 0.737546
678 1 -14.473567 7.135781 17.550322 0 1.000000 1.000000 1.000000 -0.606485 0.299273 0.736622
679 1 -14.241415 6.562118 17.959814 0 1.000000 1.000000 1.000000 -0.598017 0.275713 0.752568
680 1 -14.611806 5.921943 17.885050 0 1.000000 1.000000 1.000000 -0.612059 0.248358 0.750801
681 1 -9.830348 20.169210 8.064191 0 1.000000 1.000000 1.000000 -0.411499 0.845960 0.339147
682 1 -9.847379 19.881060 8.730403 0 1.000000 1.000000 1.000000 -0.413998 0.833591 0.365693
683 1 -10.448982 19.492748 8.904067 0 1.000000 1.000000 1.000000 -0.437643 0.817585 0.374196
684 1 -10.458177 19.164438 9.579462 0 1.000000 1.000000 1.000000 -0.439408 0.803590 0.401452
685 1 -11.061619 18.733889 9.750997 0 1.000000 1.000000 1.000000 -0.463526 0.785757 0.409548
686 1 -11.059952 18.364710 10.430758 0 1.000000 1.000000 1.000000 -0.464452 0.770105 0.437291
687 1 -11.660696 17.891895 10.596251 0 1.000000 1.000000 1.000000 -0.488822 0.750444 0.444845
688 1 -11.645016 17.482248 11.274970 0 1.000000 1.000000 1.000000 -0.488817 0.733148 0.472814
689 1 -12.238228 16.968363 11.430207 0 1.000000 1.000000 1.000000 -0.513186 0.711715 0.479689
690 1 -12.205426 16.519905 12.102078 0 1.000000 1.000000 1.000000 -0.512178 0.692838 0.507591
691 1 -12.786183 15.967482 12.242745 0 1.000000 1.000000 1.000000 -0.536274 0.669746 0.513664
692 1 -12.733390 15.483201 12.901823 0 1.000000 1.000000 1.000000 -0.534216 0.649406 0.541188
693 1 -13.296929 14.896121 13.023753 0 1.000000 1.000000 1.000000 -0.557758 0.624826 0.546350
694 1 -13.221718 14.380292 13.664254 0 1.000000 1.000000 1.000000 -0.554636 0.603192 0.573183
695 1 -13.763686 13.763686 13.763686 0 1.000000 1.000000 1.000000 -0.577350 0.577350 0.577350
696 1 -13.664254 13.221718 14.380292 0 1.000000 1.000000 1.000000 -0.573183 0.554636 0.603192
697 1 -14.180941 12.581748 14.454114 0 1.000000 1.000000 1.000000 -0.594818 0.527803 0.606313
698 1 -14.056247 12.019917 15.042250 0 1.000000 1.000000 1.000000 -0.589657 0.504261 0.630893
699 1 -14.544764 11.363457 15.088188 0 1.000000 1.000000 1.000000 -0.609997 0.476736 0.632950
700 1 -14.394602 10.788568 15.644239 0 1.000000 1.000000 1.000000 -0.603925 0.452640 0.656042
701 1 -14.852988 10.122833 15.660977 0 1.000000 1.000000 1.000000 -0.622801 0.424738 0.657051
702 1 -14.677983 9.541839 16.182413 0 1.000000 1.000000 1.000000 -0.615927 0.400367 0.678483
703 1 -15.105227 8.873996 16.169620 0 1.000000 1.000000 1.000000 -0.633222 0.372398 0.678490
704 1 -14.906763 8.293629 16.655029 0 1.000000 1.000000 1.000000 -0.625671 0.348027 0.698150
705 1 -15.302758 7.630441 16.613304 0 1.000000 1.000000 1.000000 -0.641321 0.320283 0.697227
706 1 -15.082845 7.056899 17.062333 0 1.000000 1.000000 1.000000 -0.633228 0.296162 0.715060
707 1 -15.448270 6.404442 16.993085 0 1.000000 1.000000 1.000000 -0.647221 0.268905 0.713299
708 1 -15.209384 5.843149 17.406310 0 1.000000 1.000000 1.000000 -0.638722 0.245257 0.729304
709 1 -15.545551 5.206613 17.311585 0 1.000000 1.000000 1.000000 -0.651087 0.218709 0.726809
710 1 -10.364489 20.329695 6.911100 0 1.000000 1.000000 1.000000 -0.434015 0.852563 0.291147
711 1 -10.401400 20.074868 7.568055 0 1.000000 1.000000 1.000000 -0.437117 0.841828 0.316628
712 1 -11.000770 19.690582 7.727416 0 1.000000 1.000000 1.000000 -0.460871 0.825749 0.325171
713 1 -11.031322 19.396613 8.397215 0 1.000000 1.000000 1.000000 -0.463357 0.813438 0.351594
714 1 -11.632912 18.970663 8.556070 0 1.000000 1.000000 1.000000 -0.487545 0.795553 0.359714
715 1 -11.654014 18.636249 9.234456 0 1.000000 1.000000 1.000000 -0.489304 0.781600 0.386890
716 1 -12.253324 18.168263 9.389253 0 1.000000 1.000000 1.000000 -0.513713 0.761907 0.394457
717 1 -12.261673 17.793088 10.071286 0 1.000000 1.000000 1.000000 -0.514636 0.746281 0.422154
718 1 -12.853851 17.283846 10.218106 0 1.000000 1.000000 1.000000 -0.539025 0.724831 0.429036
719 1 -12.846086 16.868768 10.898307 0 1.000000 1.000000 1.000000 -0.539019 0.707549 0.456982
720 1 -13.426129 16.320340 11.033034 0 1.000000 1.000000 1.000000 -0.563122 0.684450 0.463057
721 1 -13.399029 15.867511 11.705600 0 1.000000 1.000000 1.000000 -0.562114 0.665579 0.490951
722 1 -13.962027 15.283313 11.824141 0 1.000000 1.000000 1.000000 -0.585657 0.640998 0.496112
723 1 -13.912721 14.796203 12.483216 0 1.000000 1.000000 1.000000 -0.583599 0.620659 0.523636
724 1 -14.454114 14.180941 12.581748 0 1.000000 1.000000 1.000000 -0.606313 0.594818 0.527803
725 1 -14.380292 13.664254 13.221718 0 1.000000 1.000000 1.000000 -0.603192 0.573183 0.554636
726 1 -14.896121 13.023753 13.296929 0 1.000000 1.000000 1.000000 -0.624826 0.546350 0.557758
727 1 -14.796203 12.483216 13.912721 0 1.000000 1.000000 1.000000 -0.620659 0.523636 0.583599
728 1 -15.283313 11.824141 13.962027 0 1.000000 1.000000 1.000000 -0.640998 0.496112 0.585657
729 1 -15.156568 11.266214 14.549359 0 1.000000 1.000000 1.000000 -0.635837 0.472569 0.610238
730 1 -15.612742 10.595714 14.571047 0 1.000000 1.000000 1.000000 -0.654708 0.444675 0.611246
731 1 -15.459324 10.027223 15.126615 0 1.000000 1.000000 1.000000 -0.648635 0.420571 0.634344
732 1 -15.883338 9.352544 15.119920 0 1.000000 1.000000 1.000000 -0.665917 0.392624 0.634351
733 1 -15.704247 8.780312 15.641489 0 1.000000 1.000000 1.000000 -0.659037 0.368234 0.655800
734 1 -16.095840 8.108425 15.606575 0 1.000000 1.000000 1.000000 -0.674662 0.340537 0.654878
735 1 -15.892816 7.538921 16.092982 0 1.000000 1.000000 1.000000 -0.667099 0.316125 0.674569
736 1 -16.252584 6.876205 16.030856 0 1.000000 1.000000 1.000000 -0.681051 0.288948 0.672814
737 1 -16.027951 6.315267 16.481931 0 1.000000 1.000000 1.000000 -0.672935 0.264757 0.690697
738 1 -16.357199 5.667271 16.394299 0 1.000000 1.000000 1.000000 -0.685243 0.238334 0.688214
739 1 -16.113685 5.119910 16.810727 0 1.000000 1.000000 1.000000 -0.676706 0.214577 0.704291
740 1 -16.414248 4.491220 16.699815 0 1.000000 1.000000 1.000000 -0.687438 0.189094 0.701194
741 1 -10.855775 20.429642 5.769390 0 1.000000 1.000000 1.000000 -0.454789 0.856631 0.243620
742 1 -10.912179 20.206355 6.411984 0 1.000000 1.000000 1.000000 -0.458363 0.847451 0.267825
743 1 -11.506805 19.825966 6.557073 0 1.000000 1.000000 1.000000 -0.482235 0.831292 0.276411
744 1 -11.558486 19.565021 7.215549 0 1.000000 1.000000 1.000000 -0.485318 0.820616 0.301753
745 1 -12.155653 19.143829 7.361550 0 1.000000 1.000000 1.000000 -0.509583 0.802675 0.309901
746 1 -12.199528 18.843440 8.032271 0 1.000000 1.000000 1.000000 -0.512060 0.790406 0.336233
747 1 -12.794825 18.380795 8.176017 0 1.000000 1.000000 1.000000 -0.536514 0.770678 0.343814
748 1 -12.827518 18.040032 8.854612 0 1.000000 1.000000 1.000000 -0.538268 0.756752 0.370937
749 1 -13.416136 17.536342 8.992529 0 1.000000 1.000000 1.000000 -0.562678 0.735284 0.377825
750 1 -13.434120 17.155332 9.673989 0 1.000000 1.000000 1.000000 -0.563599 0.719672 0.405497
751 1 -14.011041 16.612229 9.802232 0 1.000000 1.000000 1.000000 -0.587709 0.696566 0.411574
752 1 -14.010816 16.192316 10.481075 0 1.000000 1.000000 1.000000 -0.587703 0.679289 0.439513
753 1 -14.571047 15.612742 10.595714 0 1.000000 1.000000 1.000000 -0.611246 0.654708 0.444675
754 1 -14.549359 15.156568 11.266214 0 1.000000 1.000000 1.000000 -0.610238 0.635837 0.472569
755 1 -15.088188 14.544764 11.363457 0 1.000000 1.000000 1.000000 -0.632950 0.609997 0.476736
756 1 -15.042250 14.056247 12.019917 0 1.000000 1.000000 1.000000 -0.630893 0.589657 0.504261
757 1 -15.555507 13.417629 12.096347 0 1.000000 1.000000 1.000000 -0.652528 0.562823 0.507383
758 1 -15.483201 12.901823 12.733390 0 1.000000 1.000000 1.000000 -0.649406 0.541188 0.534216
759 1 -15.967482 12.242745 12.786183 0 1.000000 1.000000 1.000000 -0.669746 0.513664 0.536274
760 1 -15.867511 11.705600 13.399029 0 1.000000 1.000000 1.000000 -0.665579 0.490951 0.562114
761 1 -16.320340 11.033034 13.426129 0 1.000000 1.000000 1.000000 -0.684450 0.463057 0.563122
762 1 -16.192316 10.481075 14.010816 0 1.000000 1.000000 1.000000 -0.679289 0.439513 0.587703
763 1 -16.612229 9.802232 14.011041 0 1.000000 1.000000 1.000000 -0.696566 0.411574 0.587709
764 1 -16.456670 9.242192 14.564578 0 1.000000 1.000000 1.000000 -0.690492 0.387463 0.610814
765 1 -16.843209 8.564149 14.537649 0 1.000000 1.000000 1.000000 -0.706103 0.359791 0.609893
766 1 -16.661471 8.002615 15.058077 0 1.000000 1.000000 1.000000 -0.699218 0.335379 0.631359
767 1 -17.015100 7.331971 15.004566 0 1.000000 1.000000 1.000000 -0.713144 0.308255 0.629607
768 1 -16.809237 6.775065 15.490938 0 1.000000 1.000000 1.000000 -0.705567 0.283799 0.649333
769 1 -17.131201 6.117677 15.412155 0 1.000000 1.000000 1.000000 -0.717834 0.257466 0.646858
770 1 -16.903794 5.570821 15.864440 0 1.000000 1.000000 1.000000 -0.709692 0.233199 0.664797
771 1 -17.195937 4.931625 15.762282 0 1.000000 1.000000 1.000000 -0.720367 0.207855 0.661716
772 1 -16.949904 4.399386 16.181228 0 1.000000 1.000000 1.000000 -0.711787 0.183980 0.677872
773 1 -17.214487 3.782316 16.058003 0 1.000000 1.000000 1.000000 -0.720965 0.159774 0.674301
774 1 -11.303369 20.473242 4.648437 0 1.000000 1.000000 1.000000 -0.473773 0.858341 0.196950
775 1 -11.378391 20.279167 5.272327 0 1.000000 1.000000 1.000000 -0.477692 0.850609 0.219716
776 1 -11.965974 19.902584 5.403509 0 1.000000 1.000000 1.000000 -0.501678 0.834373 0.228344
777 1 -12.037983 19.672670 6.045662 0 1.000000 1.000000 1.000000 -0.505231 0.825246 0.252410
778 1 -12.628357 19.256388 6.178962 0 1.000000 1.000000 1.000000 -0.529568 0.807251 0.260583
779 1 -12.694347 18.988492 6.836373 0 1.000000 1.000000 1.000000 -0.532641 0.796612 0.285837
780 1 -13.283231 18.531640 6.969020 0 1.000000 1.000000 1.000000 -0.557134 0.776853 0.293431
781 1 -13.339834 18.224332 7.637942 0 1.000000 1.000000 1.000000 -0.559606 0.764607 0.319715
782 1 -13.922521 17.727005 7.766737 0 1.000000 1.000000 1.000000 -0.584030 0.743126 0.326608
783 1 -13.966129 17.379779 8.442728 0 1.000000 1.000000 1.000000 -0.585782 0.729209 0.353714
784 1 -14.537649 16.843209 8.564149 0 1.000000 1.000000 1.000000 -0.609893 0.706103 0.359791
785 1 -14.564578 16.456670 9.242192 0 1.000000 1.000000 1.000000 -0.610814 0.690492 0.387463
786 1 -15.119920 15.883338 9.352544 0 1.000000 1.000000 1.000000 -0.634351 0.665917 0.392624
787 1 -15.126615 15.459324 10.027223 0 1.000000 1.000000 1.000000 -0.634344 0.648635 0.420571
788 1 -15.660977 14.852988 10.122833 0 1.000000 1.000000 1.000000 -0.657051 0.622801 0.424738
789 1 -15.644239 14.394602 10.788568 0 1.000000 1.000000 1.000000 -0.656042 0.603925 0.452640
790 1 -16.153290 13.760216 10.866004 0 1.000000 1.000000 1.000000 -0.677675 0.577095 0.455761
791 1 -16.110497 13.271760 11.517324 0 1.000000 1.000000 1.000000 -0.675617 0.556752 0.483290
792 1 -16.590614 12.615287 11.573609 0 1.000000 1.000000 1.000000 -0.695960 0.529224 0.485347
793 1 -16.519905 12.102078 12.205426 0 1.000000 1.000000 1.000000 -0.692838 0.507591 0.512178
794 1 -16.968363 11.430207 12.238228 0 1.000000 1.000000 1.000000 -0.711715 0.479689 0.513186
795 1 -16.868768 10.898307 12.846086 0 1.000000 1.000000 1.000000 -0.707549 0.456982 0.539019
796 1 -17.283846 10.218106 12.853851 0 1.000000 1.000000 1.000000 -0.724831 0.429036 0.539025
797 1 -17.155332 9.673989 13.434120 0 1.000000 1.000000 1.000000 -0.719672 0.405497 0.563599
798 1 -17.536342 8.992529 13.416136 0 1.000000 1.000000 1.000000 -0.735284 0.377825 0.562678
799 1 -17.379779 8.442728 13.966129 0 1.000000 1.000000 1.000000 -0.729209 0.353714 0.585782
800 1 -17.727005 7.766737 13.922521 0 1.000000 1.000000 1.000000 -0.743126 0.326608 0.584030
801 1 -17.544065 7.217514 14.440529 0 1.000000 1.000000 1.000000 -0.736236 0.302181 0.605510
802 1 -17.858634 6.553080 14.372178 0 1.000000 1.000000 1.000000 -0.748482 0.275897 0.603039
803 1 -17.651633 6.010149 14.857431 0 1.000000 1.000000 1.000000 -0.740893 0.251401 0.622796
804 1 -17.935345 5.362513 14.765849 0 1.000000 1.000000 1.000000 -0.751531 0.226146 0.619726
805 1 -17.707056 4.830845 15.218414 0 1.000000 1.000000 1.000000 -0.743364 0.201804 0.637718
806 1 -17.962192 4.204281 15.105594 0 1.000000 1.000000 1.000000 -0.752490 0.177738 0.634167
807 1 -17.715657 3.687990 15.526237 0 1.000000 1.000000 1.000000 -0.743869 0.153748 0.650400
808 1 -17.944793 3.085769 15.394486 0 1.000000 1.000000 1.000000 -0.751600 0.130981 0.646484
809 1 -11.707519 20.465585 3.556247 0 1.000000 1.000000 1.000000 -0.490967 0.857910 0.151466
810 1 -11.799888 20.298022 4.157938 0 1.000000 1.000000 1.000000 -0.495109 0.851497 0.172683
811 1 -12.378402 19.925213 4.275849 0 1.000000 1.000000 1.000000 -0.519194 0.835195 0.181348
812 1 -12.469465 19.723851 4.897530 0 1.000000 1.000000 1.000000 -0.523091 0.827504 0.203990
813 1 -13.050941 19.312634 5.018563 0 1.000000 1.000000 1.000000 -0.547486 0.809467 0.212183
814 1 -13.137824 19.075084 5.657843 0 1.000000 1.000000 1.000000 -0.551028 0.800368 0.236177
815 1 -13.718148 18.624432 5.779615 0 1.000000 1.000000 1.000000 -0.575546 0.780589 0.243779
816 1 -13.797566 18.348883 6.433381 0 1.000000 1.000000 1.000000 -0.578614 0.769963 0.269003
817 1 -14.372178 17.858634 6.553080 0 1.000000 1.000000 1.000000 -0.603039 0.748482 0.275897
818 1 -14.440529 17.544065 7.217514 0 1.000000 1.000000 1.000000 -0.605510 0.736236 0.302181
819 1 -15.004566 17.015100 7.331971 0 1.000000 1.000000 1.000000 -0.629607 0.713144 0.308255
820 1 -15.058077 16.661471 8.002615 0 1.000000 1.000000 1.000000 -0.631359 0.699218 0.335379
821 1 -15.606575 16.095840 8.108425 0 1.000000 1.000000 1.000000 -0.654878 0.674662 0.340537
822 1 -15.641489 15.704247 8.780312 0 1.000000 1.000000 1.000000 -0.655800 0.659037 0.368234
823 1 -16.169620 15.105227 8.873996 0 1.000000 1.000000 1.000000 -0.678490 0.633222 0.372398
824 1 -16.182413 14.677983 9.541839 0 1.000000 1.000000 1.000000 -0.678483 0.615927 0.400367
825 1 -16.685743 14.050039 9.620034 0 1.000000 1.000000 1.000000 -0.700107 0.589108 0.403487
826 1 -16.673357 13.590657 10.278465 0 1.000000 1.000000 1.000000 -0.699097 0.570223 0.431403
827 1 -17.148088 12.939302 10.338129 0 1.000000 1.000000 1.000000 -0.719441 0.542695 0.433460
828 1 -17.108138 12.452387 10.981954 0 1.000000 1.000000 1.000000 -0.717382 0.522352 0.460989
829 1 -17.551315 11.783942 11.020559 0 1.000000 1.000000 1.000000 -0.736268 0.494437 0.461997
830 1 -17.482248 11.274970 11.645016 0 1.000000 1.000000 1.000000 -0.733148 0.472814 0.488817
831 1 -17.891895 10.596251 11.660696 0 1.000000 1.000000 1.000000 -0.750444 0.444845 0.488822
832 1 -17.793088 10.071286 12.261673 0 1.000000 1.000000 1.000000 -0.746281 0.422154 0.514636
833 1 -18.168263 9.389253 12.253324 0 1.000000 1.000000 1.000000 -0.761907 0.394457 0.513713
834 1 -18.040032 8.854612 12.827518 0 1.000000 1.000000 1.000000 -0.756752 0.370937 0.538268
835 1 -18.380795 8.176017 12.794825 0 1.000000 1.000000 1.000000 -0.770678 0.343814 0.536514
836 1 -18.224332 7.637942 13.339834 0 1.000000 1.000000 1.000000 -0.764607 0.319715 0.559606
837 1 -18.531640 6.969020 13.283231 0 1.000000 1.000000 1.000000 -0.776853 0.293431 0.557134
838 1 -18.348883 6.433381 13.797566 0 1.000000 1.000000 1.000000 -0.769963 0.269003 0.578614
839 1 -18.624432 5.779615 13.718148 0 1.000000 1.000000 1.000000 -0.780589 0.243779 0.575546
840 1 -18.417896 5.251678 14.201178 0 1.000000 1.000000 1.000000 -0.772992 0.219258 0.595322
841 1 -18.663929 4.617641 14.100568 0 1.000000 1.000000 1.000000 -0.782091 0.195263 0.591781
842 1 -18.436515 4.101912 14.552419 0 1.000000 1.000000 1.000000 -0.773906 0.170864 0.609816
843 1 -18.655634 3.491206 14.432624 0 1.000000 1.000000 1.000000 -0.781595 0.148221 0.605921
844 1 -18.410448 2.991353 14.854048 0 1.000000 1.000000 1.000000 -0.772938 0.124131 0.622220
845 1 -18.605434 2.406611 14.717307 0 1.000000 1.000000 1.000000 -0.779350 0.102913 0.618080
846 1 -12.069387 20.412309 2.499330 0 1.000000 1.000000 1.000000 -0.506408 0.855575 0.107435
847 1 -12.177544 20.268368 3.076190 0 1.000000 1.000000 1.000000 -0.510664 0.850343 0.127041
848 1 -12.745268 19.899363 3.181665 0 1.000000 1.000000 1.000000 -0.534823 0.833991 0.135732
849 1 -12.853757 19.723771 3.779632 0 1.000000 1.000000 1.000000 -0.538946 0.827607 0.156856
850 1 -13.424535 19.317790 3.889049 0 1.000000 1.000000 1.000000 -0.563374 0.809546 0.165060
851 1 -13.530656 19.108015 4.506299 0 1.000000 1.000000 1.000000 -0.567263 0.801870 0.187661
852 1 -14.100568 18.663929 4.617641 0 1.000000 1.000000 1.000000 -0.591781 0.782091 0.195263
853 1 -14.201178 18.417896 5.251678 0 1.000000 1.000000 1.000000 -0.595322 0.772992 0.219258
854 1 -14.765849 17.935345 5.362513 0 1.000000 1.000000 1.000000 -0.619726 0.751531 0.226146
855 1 -14.857431 17.651633 6.010149 0 1.000000 1.000000 1.000000 -0.622796 0.740893 0.251401
856 1 -15.412155 17.131201 6.117677 0 1.000000 1.000000 1.000000 -0.646858 0.717834 0.257466
857 1 -15.490938 16.809237 6.775065 0 1.000000 1.000000 1.000000 -0.649333 0.705567 0.283799
858 1 -16.030856 16.252584 6.876205 0 1.000000 1.000000 1.000000 -0.672814 0.681051 0.288948
859 1 -16.092982 15.892816 7.538921 0 1.000000 1.000000 1.000000 -0.674569 0.667099 0.316125
860 1 -16.613304 15.302758 7.630441 0 1.000000 1.000000 1.000000 -0.697227 0.641321 0.320283
861 1 -16.655029 14.906763 8.293629 0 1.000000 1.000000 1.000000 -0.698150 0.625671 0.348027
862 1 -17.151278 14.287271 8.372310 0 1.000000 1.000000 1.000000 -0.719752 0.598878 0.351143
863 1 -17.169199 13.857792 9.030872 0 1.000000 1.000000 1.000000 -0.719745 0.581564 0.379144
864 1 -17.637454 13.213891 9.093692 0 1.000000 1.000000 1.000000 -0.740081 0.554046 0.381199
865 1 -17.628729 12.754783 9.742518 0 1.000000 1.000000 1.000000 -0.739071 0.535154 0.409126
866 1 -18.065840 12.092361 9.786835 0 1.000000 1.000000 1.000000 -0.757964 0.507228 0.410134
867 1 -18.028376 11.608435 10.421051 0 1.000000 1.000000 1.000000 -0.755906 0.486893 0.437654
868 1 -18.432125 10.933971 10.444764 0 1.000000 1.000000 1.000000 -0.773222 0.458893 0.437658
869 1 -18.364710 10.430758 11.059952 0 1.000000 1.000000 1.000000 -0.770105 0.437291 0.464452
870 1 -18.733889 9.750997 11.061619 0 1.000000 1.000000 1.000000 -0.785757 0.409548 0.463526
871 1 -18.636249 9.234456 11.654014 0 1.000000 1.000000 1.000000 -0.781600 0.386890 0.489304
872 1 -18.970663 8.556070 11.632912 0 1.000000 1.000000 1.000000 -0.795553 0.359714 0.487545
873 1 -18.843440 8.032271 12.199528 0 1.000000 1.000000 1.000000 -0.790406 0.336233 0.512060
874 1 -19.143829 7.361550 12.155653 0 1.000000 1.000000 1.000000 -0.802675 0.309901 0.509583
875 1 -18.988492 6.836373 12.694347 0 1.000000 1.000000 1.000000 -0.796612 0.285837 0.532641
876 1 -19.256388 6.178962 12.628357 0 1.000000 1.000000 1.000000 -0.807251 0.260583 0.529568
877 1 -19.075084 5.657843 13.137824 0 1.000000 1.000000 1.000000 -0.800368 0.236177 0.551028
878 1 -19.312634 5.018563 13.050941 0 1.000000 1.000000 1.000000 -0.809467 0.212183 0.547486
879 1 -19.108015 4.506299 13.530656 0 1.000000 1.000000 1.000000 -0.801870 0.187661 0.567263
880 1 -19.317790 3.889049 13.424535 0 1.000000 1.000000 1.000000 -0.809546 0.165060 0.563374
881 1 -19.092823 3.389685 13.874652 0 1.000000 1.000000 1.000000 -0.801349 0.140627 0.581433
882 1 -19.277632 2.797414 13.751250 0 1.000000 1.000000 1.000000 -0.807733 0.119504 0.577310
883 1 -19.035429 2.314192 14.172481 0 1.000000 1.000000 1.000000 -0.799049 0.095340 0.593659
884 1 -19.198158 1.748944 14.033924 0 1.000000 1.000000 1.000000 -0.804281 0.075733 0.589404
885 1 -12.390854 20.319294 1.482677 0 1.000000 1.000000 1.000000 -0.520164 0.851585 0.065062
886 1 -12.513059 20.196041 2.032898 0 1.000000 1.000000 1.000000 -0.524438 0.847390 0.083038
887 1 -13.068592 19.830928 2.126904 0 1.000000 1.000000 1.000000 -0.548637 0.831012 0.091744
888 1 -13.192644 19.678191 2.698810 0 1.000000 1.000000 1.000000 -0.552881 0.825794 0.111299
889 1 -13.751250 19.277632 2.797414 0 1.000000 1.000000 1.000000 -0.577310 0.807733 0.119504
890 1 -13.874652 19.092823 3.389685 0 1.000000 1.000000 1.000000 -0.581433 0.801349 0.140627
891 1 -14.432624 18.655634 3.491206 0 1.000000 1.000000 1.000000 -0.605921 0.781595 0.148221
892 1 -14.552419 18.436515 4.101912 0 1.000000 1.000000 1.000000 -0.609816 0.773906 0.170864
893 1 -15.105594 17.962192 4.204281 0 1.000000 1.000000 1.000000 -0.634167 0.752490 0.177738
894 1 -15.218414 17.707056 4.830845 0 1.000000 1.000000 1.000000 -0.637718 0.743364 0.201804
895 1 -15.762282 17.195937 4.931625 0 1.000000 1.000000 1.000000 -0.661716 0.720367 0.207855
896 1 -15.864440 16.903794 5.570821 0 1.000000 1.000000 1.000000 -0.664797 0.709692 0.233199
897 1 -16.394299 16.357199 5.667271 0 1.000000 1.000000 1.000000 -0.688214 0.685243 0.238334
898 1 -16.481931 16.027951 6.315267 0 1.000000 1.000000 1.000000 -0.690697 0.672935 0.264757
899 1 -16.993085 15.448270 6.404442 0 1.000000 1.000000 1.000000 -0.713299 0.647221 0.268905
900 1 -17.062333 15.082845 7.056899 0 1.000000 1.000000 1.000000 -0.715060 0.633228 0.296162
901 1 -17.550322 14.473567 7.135781 0 1.000000 1.000000 1.000000 -0.736622 0.606485 0.299273
902 1 -17.597543 14.073988 7.788004 0 1.000000 1.000000 1.000000 -0.737546 0.590802 0.327076
903 1 -18.058378 13.439638 7.853662 0 1.000000 1.000000 1.000000 -0.757862 0.563310 0.329129
904 1 -18.080369 13.009020 8.500789 0 1.000000 1.000000 1.000000 -0.757855 0.545978 0.357161
905 1 -18.510750 12.355009 8.550551 0 1.000000 1.000000 1.000000 -0.776748 0.518052 0.358168
906 1 -18.504947 11.897459 9.187771 0 1.000000 1.000000 1.000000 -0.775738 0.499160 0.386096
907 1 -18.902439 11.229859 9.219381 0 1.000000 1.000000 1.000000 -0.793072 0.471130 0.386100
908 1 -18.867080 10.750297 9.842158 0 1.000000 1.000000 1.000000 -0.791016 0.450815 0.413592
909 1 -19.230215 10.075551 9.853905 0 1.000000 1.000000 1.000000 -0.806702 0.423013 0.412664
910 1 -19.164438 9.579462 10.458177 0 1.000000 1.000000 1.000000 -0.803590 0.401452 0.439408
911 1 -19.492748 8.904067 10.448982 0 1.000000 1.000000 1.000000 -0.817585 0.374196 0.437643
912 1 -19.396613 8.397215 11.031322 0 1.000000 1.000000 1.000000 -0.813438 0.351594 0.463357
913 1 -19.690582 7.727416 11.000770 0 1.000000 1.000000 1.000000 -0.825749 0.325171 0.460871
914 1 -19.565021 7.215549 11.558486 0 1.000000 1.000000 1.000000 -0.820616 0.301753 0.485318
915 1 -19.825966 6.557073 11.506805 0 1.000000 1.000000 1.000000 -0.831292 0.276411 0.482235
916 1 -19.672670 6.045662 12.037983 0 1.000000 1.000000 1.000000 -0.825246 0.252410 0.505231
917 1 -19.902584 5.403509 11.965974 0 1.000000 1.000000 1.000000 -0.834373 0.228344 0.501678
918 1 -19.723851 4.897530 12.469465 0 1.000000 1.000000 1.000000 -0.827504 0.203990 0.523091
919 1 -19.925213 4.275849 12.378402 0 1.000000 1.000000 1.000000 -0.835195 0.181348 0.519194
920 1 -19.723771 3.779632 12.853757 0 1.000000 1.000000 1.000000 -0.827607 0.156856 0.538946
921 1 -19.899363 3.181665 12.745268 0 1.000000 1.000000 1.000000 -0.833991 0.135732 0.534823
922 1 -19.678191 2.698810 13.192644 0 1.000000 1.000000 1.000000 -0.825794 0.111299 0.552881
923 1 -19.830928 2.126904 13.068592 0 1.000000 1.000000 1.000000 -0.831012 0.091744 0.548637
924 1 -19.593098 1.660259 13.488641 0 1.000000 1.000000 1.000000 -0.822314 0.067540 0.565012
925 1 -19.725886 1.115930 13.351008 0 1.000000 1.000000 1.000000 -0.826508 0.049563 0.560738
926 1 -12.674323 20.192393 0.509831 0 1.000000 1.000000 1.000000 -0.532327 0.846185 0.024494
927 1 -12.808754 20.086969 1.032354 0 1.000000 1.000000 1.000000 -0.536538 0.842886 0.040856
928 1 -13.351008 19.725886 1.115930 0 1.000000 1.000000 1.000000 -0.560738 0.826508 0.049563
929 1 -13.488641 19.593098 1.660259 0 1.000000 1.000000 1.000000 -0.565012 0.822314 0.067540
930 1 -14.033924 19.198158 1.748944 0 1.000000 1.000000 1.000000 -0.589404 0.804281 0.075733
931 1 -14.172481 19.035429 2.314192 0 1.000000 1.000000 1.000000 -0.593659 0.799049 0.095340
932 1 -14.717307 18.605434 2.406611 0 1.000000 1.000000 1.000000 -0.618080 0.779350 0.102913
933 1 -14.854048 18.410448 2.991353 0 1.000000 1.000000 1.000000 -0.622220 0.772938 0.124131
934 1 -15.394486 17.944793 3.085769 0 1.000000 1.000000 1.000000 -0.646484 0.751600 0.130981
935 1 -15.526237 17.715657 3.687990 0 1.000000 1.000000 1.000000 -0.650400 0.743869 0.153748
936 1 -16.058003 17.214487 3.782316 0 1.000000 1.000000 1.000000 -0.674301 0.720965 0.159774
937 1 -16.181228 16.949904 4.399386 0 1.000000 1.000000 1.000000 -0.677872 0.711787 0.183980
938 1 -16.699815 16.414248 4.491220 0 1.000000 1.000000 1.000000 -0.701194 0.687438 0.189094
939 1 -16.810727 16.113685 5.119910 0 1.000000 1.000000 1.000000 -0.704291 0.676706 0.214577
940 1 -17.311585 15.545551 5.206613 0 1.000000 1.000000 1.000000 -0.726809 0.651087 0.218709
941 1 -17.406310 15.209384 5.843149 0 1.000000 1.000000 1.000000 -0.729304 0.638722 0.245257
942 1 -17.885050 14.611806 5.921943 0 1.000000 1.000000 1.000000 -0.750801 0.612059 0.248358
943 1 -17.959814 14.241415 6.562118 0 1.000000 1.000000 1.000000 -0.752568 0.598017 0.275713
944 1 -18.412436 13.618423 6.630227 0 1.000000 1.000000 1.000000 -0.772844 0.570579 0.277762
945 1 -18.463779 13.216225 7.269548 0 1.000000 1.000000 1.000000 -0.773770 0.554862 0.305627
946 1 -18.886882 12.572735 7.324341 0 1.000000 1.000000 1.000000 -0.792651 0.526955 0.306633
947 1 -18.911863 12.142138 7.958217 0 1.000000 1.000000 1.000000 -0.792643 0.509610 0.334686
948 1 -19.302830 11.483768 7.997359 0 1.000000 1.000000 1.000000 -0.809990 0.481559 0.334689
949 1 -19.299209 11.029039 8.621303 0 1.000000 1.000000 1.000000 -0.808980 0.462680 0.362598
950 1 -19.656332 10.361860 8.642894 0 1.000000 1.000000 1.000000 -0.824700 0.434817 0.361667
951 1 -19.622696 9.887933 9.252718 0 1.000000 1.000000 1.000000 -0.822649 0.414543 0.389106
952 1 -19.945231 9.218181 9.255387 0 1.000000 1.000000 1.000000 -0.836693 0.387190 0.387335
953 1 -19.881060 8.730403 9.847379 0 1.000000 1.000000 1.000000 -0.833591 0.365693 0.413998
954 1 -20.169210 8.064191 9.830348 0 1.000000 1.000000 1.000000 -0.845960 0.339147 0.411499
955 1 -20.074868 7.568055 10.401400 0 1.000000 1.000000 1.000000 -0.841828 0.316628 0.437117
956 1 -20.329695 6.911100 10.364489 0 1.000000 1.000000 1.000000 -0.852563 0.291147 0.434015
957 1 -20.206355 6.411984 10.912179 0 1.000000 1.000000 1.000000 -0.847451 0.267825 0.458363
958 1 -20.429642 5.769390 10.855775 0 1.000000 1.000000 1.000000 -0.856631 0.243620 0.454789
959 1 -20.279167 5.272327 11.378391 0 1.000000 1.000000 1.000000 -0.850609 0.219716 0.477692
960 1 -20.473242 4.648437 11.303369 0 1.000000 1.000000 1.000000 -0.858341 0.196950 0.473773
961 1 -20.298022 4.157938 11.799888 0 1.000000 1.000000 1.000000 -0.851497 0.172683 0.495109
962 1 -20.465585 3.556247 11.707519 0 1.000000 1.000000 1.000000 -0.857910 0.151466 0.490967
963 1 -20.268368 3.076190 12.177544 0 1.000000 1.000000 1.000000 -0.850343 0.127041 0.510664
964 1 -20.412309 2.499330 12.069387 0 1.000000 1.000000 1.000000 -0.855575 0.107435 0.506408
965 1 -20.196041 2.032898 12.513059 0 1.000000 1.000000 1.000000 -0.847390 0.083038 0.524438
966 1 -20.319294 1.482677 12.390854 0 1.000000 1.000000 1.000000 -0.851585 0.065062 0.520164
967 1 -20.086969 1.032354 12.808754 0 1.000000 1.000000 1.000000 -0.842886 0.040856 0.536538
968 1 -20.192393 0.509831 12.674323 0 1.000000 1.000000 1.000000 -0.846185 0.024494 0.532327
969 1 0.000000 12.989417 19.997655 0 1.000000 1.000000 1.000000 0.000000 0.547465 0.836829
970 1 0.593408 13.673945 19.526300 0 1.000000 1.000000 1.000000 0.025077 0.575872 0.817155
971 1 0.000000 13.446784 19.692645 0 1.000000 1.000000 1.000000 0.000000 0.561789 0.827281
972 1 -0.593408 13.673945 19.526300 0 1.000000 1.000000 1.000000 -0.025077 0.575872 0.817155
973 1 1.214150 14.364445 18.993885 0 1.000000 1.000000 1.000000 0.051294 0.604507 0.794946
974 1 0.602943 14.142099 19.189239 0 1.000000 1.000000 1.000000 0.025076 0.591256 0.806094
975 1 0.000000 14.383091 19.018523 0 1.000000 1.000000 1.000000 0.000000 0.605338 0.795969
976 1 -0.602943 14.142099 19.189239 0 1.000000 1.000000 1.000000 -0.025076 0.591256 0.806094
977 1 -1.214150 14.364445 18.993885 0 1.000000 1.000000 1.000000 -0.051294 0.604507 0.794946
978 1 1.860151 15.055038 18.396705 0 1.000000 1.000000 1.000000 0.078560 0.633131 0.770048
979 1 1.232939 14.840733 18.622427 0 1.000000 1.000000 1.000000 0.051294 0.620881 0.782225
980 1 0.621731 15.095896 18.446595 0 1.000000 1.000000 1.000000 0.026259 0.634939 0.772116
981 1 0.000000 14.860601 18.647337 0 1.000000 1.000000 1.000000 0.000000 0.621667 0.783281
982 1 -0.621731 15.095896 18.446595 0 1.000000 1.000000 1.000000 -0.026259 0.634939 0.772116
983 1 -1.232939 14.840733 18.622427 0 1.000000 1.000000 1.000000 -0.051294 0.620881 0.782225
984 1 -1.860151 15.055038 18.396705 0 1.000000 1.000000 1.000000 -0.078560 0.633131 0.770048
985 1 2.528450 15.738929 17.731916 0 1.000000 1.000000 1.000000 0.106741 0.661465 0.742341
986 1 1.887574 15.536221 17.988842 0 1.000000 1.000000 1.000000 0.078559 0.650386 0.755531
987 1 1.269579 15.805665 17.807048 0 1.000000 1.000000 1.000000 0.053600 0.664400 0.745453
988 1 0.630948 15.579645 18.039079 0 1.000000 1.000000 1.000000 0.026258 0.652117 0.757664
989 1 0.000000 15.828099 17.832305 0 1.000000 1.000000 1.000000 0.000000 0.665387 0.746499
990 1 -0.630948 15.579645 18.039079 0 1.000000 1.000000 1.000000 -0.026258 0.652117 0.757664
991 1 -1.269579 15.805665 17.807048 0 1.000000 1.000000 1.000000 -0.053600 0.664400 0.745453
992 1 -1.887574 15.536221 17.988842 0 1.000000 1.000000 1.000000 -0.078559 0.650386 0.755531
993 1 -2.528450 15.738929 17.731916 0 1.000000 1.000000 1.000000 -0.106741 0.661465 0.742341
994 1 3.215154 16.408528 16.997851 0 1.000000 1.000000 1.000000 0.135666 0.689201 0.711756
995 1 2.563510 16.221205 17.286143 0 1.000000 1.000000 1.000000 0.106739 0.679453 0.725914
996 1 1.940392 16.504755 17.097464 0 1.000000 1.000000 1.000000 0.081883 0.693409 0.715877
997 1 1.287336 16.291923 17.361443 0 1.000000 1.000000 1.000000 0.053599 0.682290 0.729114
998 1 0.648705 16.553506 17.147930 0 1.000000 1.000000 1.000000 0.027376 0.695542 0.717964
999 1 0.000000 16.315702 17.386762 0 1.000000 1.000000 1.000000 0.000000 0.683244 0.730190
1000 1 -0.648705 16.553506 17.147930 0 1.000000 1.000000 1.000000 -0.027376 0.695542 0.717964
1001 1 -1.287336 16.291923 17.361443 0 1.000000 1.000000 1.000000 -0.053599 0.682290 0.729114
1002 1 -1.940392 16.504755 17.097464 0 1.000000 1.000000 1.000000 -0.081883 0.693409 0.715877
1003 1 -2.563510 16.221205 17.286143 0 1.000000 1.000000 1.000000 -0.106739 0.679453 0.725914
1004 1 -3.215154 16.408528 16.997851 0 1.000000 1.000000 1.000000 -0.135666 0.689201 0.711756
1005 1 3.915447 17.055663 16.194322 0 1.000000 1.000000 1.000000 0.165125 0.716007 0.678283
1006 1 3.256451 16.887601 16.513342 0 1.000000 1.000000 1.000000 0.135664 0.707733 0.693332
1007 1 2.630029 17.184746 16.316806 0 1.000000 1.000000 1.000000 0.110926 0.721622 0.683343
1008 1 1.965614 16.989224 16.612635 0 1.000000 1.000000 1.000000 0.081882 0.711835 0.697558
1009 1 1.321042 17.263615 16.391641 0 1.000000 1.000000 1.000000 0.055720 0.725054 0.686434
1010 1 0.657189 17.040728 16.662957 0 1.000000 1.000000 1.000000 0.027375 0.713912 0.699700
1011 1 0.000000 17.290147 16.416815 0 1.000000 1.000000 1.000000 0.000000 0.726209 0.687474
1012 1 -0.657189 17.040728 16.662957 0 1.000000 1.000000 1.000000 -0.027375 0.713912 0.699700
1013 1 -1.321042 17.263615 16.391641 0 1.000000 1.000000 1.000000 -0.055720 0.725054 0.686434
1014 1 -1.965614 16.989224 16.612635 0 1.000000 1.000000 1.000000 -0.081882 0.711835 0.697558
1015 1 -2.630029 17.184746 16.316806 0 1.000000 1.000000 1.000000 -0.110926 0.721622 0.683343
1016 1 -3.256451 16.887601 16.513342 0 1.000000 1.000000 1.000000 -0.135664 0.707733 0.693332
1017 1 -3.915447 17.055663 16.194322 0 1.000000 1.000000 1.000000 -0.165125 0.716007 0.678283
1018 1 4.623659 17.671870 15.322883 0 1.000000 1.000000 1.000000 0.194872 0.741541 0.641983
1019 1 3.961182 17.526861 15.671091 0 1.000000 1.000000 1.000000 0.165123 0.734856 0.657816
1020 1 3.333384 17.836721 15.465733 0 1.000000 1.000000 1.000000 0.140506 0.748675 0.647876
1021 1 2.661226 17.662669 15.792428 0 1.000000 1.000000 1.000000 0.110924 0.740367 0.662987
1022 1 2.012628 17.949214 15.563212 0 1.000000 1.000000 1.000000 0.084841 0.753547 0.651897
1023 1 1.336859 17.745682 15.866595 0 1.000000 1.000000 1.000000 0.055719 0.743734 0.666149
1024 1 0.673006 18.006263 15.612646 0 1.000000 1.000000 1.000000 0.028371 0.756018 0.653935
1025 1 0.000000 17.773614 15.891550 0 1.000000 1.000000 1.000000 0.000000 0.744867 0.667213
1026 1 -0.673006 18.006263 15.612646 0 1.000000 1.000000 1.000000 -0.028371 0.756018 0.653935
1027 1 -1.336859 17.745682 15.866595 0 1.000000 1.000000 1.000000 -0.055719 0.743734 0.666149
1028 1 -2.012628 17.949214 15.563212 0 1.000000 1.000000 1.000000 -0.084841 0.753547 0.651897
1029 1 -2.661226 17.662669 15.792428 0 1.000000 1.000000 1.000000 -0.110924 0.740367 0.662987
1030 1 -3.333384 17.836721 15.465733 0 1.000000 1.000000 1.000000 -0.140506 0.748675 0.647876
1031 1 -3.961182 17.526861 15.671091 0 1.000000 1.000000 1.000000 -0.165123 0.734856 0.657816
1032 1 -4.623659 17.671870 15.322883 0 1.000000 1.000000 1.000000 -0.194872 0.741541 0.641983
1033 1 5.333425 18.248774 14.387012 0 1.000000 1.000000 1.000000 0.224635 0.765463 0.602997
1034 1 4.671676 18.130320 14.761921 0 1.000000 1.000000 1.000000 0.194870 0.760445 0.619475
1035 1 4.044478 18.451623 14.546844 0 1.000000 1.000000 1.000000 0.170365 0.774200 0.609582
1036 1 3.368662 18.303033 14.902448 0 1.000000 1.000000 1.000000 0.140504 0.767490 0.625474
1037 1 2.718079 18.600719 14.664321 0 1.000000 1.000000 1.000000 0.114502 0.780627 0.614419
1038 1 2.034203 18.420952 14.998389 0 1.000000 1.000000 1.000000 0.084839 0.772297 0.629571
1039 1 1.365695 18.691927 14.736186 0 1.000000 1.000000 1.000000 0.057534 0.784561 0.617377
1040 1 0.680267 18.480770 15.047059 0 1.000000 1.000000 1.000000 0.028371 0.774734 0.631650
1041 1 0.000000 18.722628 14.760376 0 1.000000 1.000000 1.000000 0.000000 0.785885 0.618372
1042 1 -0.680267 18.480770 15.047059 0 1.000000 1.000000 1.000000 -0.028371 0.774734 0.631650
1043 1 -1.365695 18.691927 14.736186 0 1.000000 1.000000 1.000000 -0.057534 0.784561 0.617377
1044 1 -2.034203 18.420952 14.998389 0 1.000000 1.000000 1.000000 -0.084839 0.772297 0.629571
1045 1 -2.718079 18.600719 14.664321 0 1.000000 1.000000 1.000000 -0.114502 0.780627 0.614419
1046 1 -3.368662 18.303033 14.902448 0 1.000000 1.000000 1.000000 -0.140504 0.767490 0.625474
1047 1 -4.044478 18.451623 14.546844 0 1.000000 1.000000 1.000000 -0.170365 0.774200 0.609582
1048 1 -4.671676 18.130320 14.761921 0 1.000000 1.000000 1.000000 -0.194870 0.760445 0.619475
1049 1 -5.333425 18.248774 14.387012 0 1.000000 1.000000 1.000000 -0.224635 0.765463 0.602997
1050 1 6.037909 18.778508 13.392178 0 1.000000 1.000000 1.000000 0.254121 0.787455 0.561549
1051 1 5.381281 18.689611 13.790375 0 1.000000 1.000000 1.000000 0.224632 0.784138 0.578506
1052 1 4.756647 19.020707 13.564819 0 1.000000 1.000000 1.000000 0.200217 0.797842 0.568649
1053 1 4.081593 18.901173 13.946379 0 1.000000 1.000000 1.000000 0.170362 0.792808 0.585177
1054 1 3.431130 19.208621 13.698764 0 1.000000 1.000000 1.000000 0.144435 0.805907 0.574154
1055 1 2.743433 19.056757 14.061102 0 1.000000 1.000000 1.000000 0.114501 0.799180 0.590085
1056 1 2.072423 19.337029 13.790292 0 1.000000 1.000000 1.000000 0.087245 0.811421 0.577913
1057 1 1.378561 19.151968 14.131307 0 1.000000 1.000000 1.000000 0.057533 0.803078 0.593090
1058 1 0.693133 19.402205 13.836749 0 1.000000 1.000000 1.000000 0.029180 0.814221 0.579821
1059 1 0.000000 19.184022 14.154943 0 1.000000 1.000000 1.000000 0.000000 0.804390 0.594102
1060 1 -0.693133 19.402205 13.836749 0 1.000000 1.000000 1.000000 -0.029180 0.814221 0.579821
1061 1 -1.378561 19.151968 14.131307 0 1.000000 1.000000 1.000000 -0.057533 0.803078 0.593090
1062 1 -2.072423 19.337029 13.790292 0 1.000000 1.000000 1.000000 -0.087245 0.811421 0.577913
1063 1 -2.743433 19.056757 14.061102 0 1.000000 1.000000 1.000000 -0.114501 0.799180 0.590085
1064 1 -3.431130 19.208621 13.698764 0 1.000000 1.000000 1.000000 -0.144435 0.805907 0.574154
1065 1 -4.081593 18.901173 13.946379 0 1.000000 1.000000 1.000000 -0.170362 0.792808 0.585177
1066 1 -4.756647 19.020707 13.564819 0 1.000000 1.000000 1.000000 -0.200217 0.797842 0.568649
1067 1 -5.381281 18.689611 13.790375 0 1.000000 1.000000 1.000000 -0.224632 0.784138 0.578506
1068 1 -6.037909 18.778508 13.392178 0 1.000000 1.000000 1.000000 -0.254121 0.787455 0.561549
1069 1 6.730095 19.254146 12.345754 0 1.000000 1.000000 1.000000 0.283036 0.807235 0.517941
1070 1 6.082984 19.197115 12.762998 0 1.000000 1.000000 1.000000 0.254118 0.805604 0.535188
1071 1 5.462801 19.536012 12.526410 0 1.000000 1.000000 1.000000 0.229762 0.819275 0.525355
1072 1 4.793091 19.448501 12.930034 0 1.000000 1.000000 1.000000 0.200215 0.815951 0.542345
1073 1 4.144854 19.763990 12.672526 0 1.000000 1.000000 1.000000 0.174344 0.829020 0.531347
1074 1 3.457948 19.643644 13.059697 0 1.000000 1.000000 1.000000 0.144433 0.823977 0.547905
1075 1 2.786668 19.931795 12.780075 0 1.000000 1.000000 1.000000 0.117222 0.836198 0.535754
1076 1 2.088841 19.777045 13.148333 0 1.000000 1.000000 1.000000 0.087244 0.829461 0.551708
1077 1 1.400508 20.034549 12.845931 0 1.000000 1.000000 1.000000 0.058915 0.840595 0.538451
1078 1 0.698662 19.844770 13.193332 0 1.000000 1.000000 1.000000 0.029180 0.832245 0.553640
1079 1 0.000000 20.069154 12.868110 0 1.000000 1.000000 1.000000 0.000000 0.842076 0.539359
1080 1 -0.698662 19.844770 13.193332 0 1.000000 1.000000 1.000000 -0.029180 0.832245 0.553640
1081 1 -1.400508 20.034549 12.845931 0 1.000000 1.000000 1.000000 -0.058915 0.840595 0.538451
1082 1 -2.088841 19.777045 13.148333 0 1.000000 1.000000 1.000000 -0.087244 0.829461 0.551708
1083 1 -2.786668 19.931795 12.780075 0 1.000000 1.000000 1.000000 -0.117222 0.836198 0.535754
1084 1 -3.457948 19.643644 13.059697 0 1.000000 1.000000 1.000000 -0.144433 0.823977 0.547905
1085 1 -4.144854 19.763990 12.672526 0 1.000000 1.000000 1.000000 -0.174344 0.829020 0.531347
1086 1 -4.793091 19.448501 12.930034 0 1.000000 1.000000 1.000000 -0.200215 0.815951 0.542345
1087 1 -5.462801 19.536012 12.526410 0 1.000000 1.000000 1.000000 -0.229762 0.819275 0.525355
1088 1 -6.082984 19.197115 12.762998 0 1.000000 1.000000 1.000000 -0.254118 0.805604 0.535188
1089 1 -6.730095 19.254146 12.345754 0 1.000000 1.000000 1.000000 -0.283036 0.807235 0.517941
1090 1 7.403114 19.670094 11.256786 0 1.000000 1.000000 1.000000 0.311092 0.824574 0.472545
1091 1 6.769726 19.646391 11.688174 0 1.000000 1.000000 1.000000 0.283033 0.824566 0.489880
1092 1 6.155742 19.990824 11.440273 0 1.000000 1.000000 1.000000 0.258696 0.838225 0.480057
1093 1 5.495927 19.937475 11.861265 0 1.000000 1.000000 1.000000 0.229759 0.836593 0.497315
1094 1 4.851949 20.258995 11.593689 0 1.000000 1.000000 1.000000 0.203919 0.849647 0.486330
1095 1 4.170585 20.173021 12.001327 0 1.000000 1.000000 1.000000 0.174342 0.846319 0.503337
1096 1 3.501276 20.467343 11.712881 0 1.000000 1.000000 1.000000 0.147160 0.858526 0.491200
1097 1 2.804266 20.346462 12.104458 0 1.000000 1.000000 1.000000 0.117220 0.853478 0.507775
1098 1 2.115375 20.609858 11.794411 0 1.000000 1.000000 1.000000 0.088914 0.864602 0.494528
1099 1 1.409444 20.452695 12.167625 0 1.000000 1.000000 1.000000 0.058914 0.857861 0.510494
1100 1 0.707598 20.682239 11.835818 0 1.000000 1.000000 1.000000 0.029742 0.867688 0.496218
1101 1 0.000000 20.488476 12.188901 0 1.000000 1.000000 1.000000 0.000000 0.859337 0.511410
1102 1 -0.707598 20.682239 11.835818 0 1.000000 1.000000 1.000000 -0.029742 0.867688 0.496218
1103 1 -1.409444 20.452695 12.167625 0 1.000000 1.000000 1.000000 -0.058914 0.857861 0.510494
1104 1 -2.115375 20.609858 11.794411 0 1.000000 1.000000 1.000000 -0.088914 0.864602 0.494528
1105 1 -2.804266 20.346462 12.104458 0 1.000000 1.000000 1.000000 -0.117220 0.853478 0.507775
1106 1 -3.501276 20.467343 11.712881 0 1.000000 1.000000 1.000000 -0.147160 0.858526 0.491200
1107 1 -4.170585 20.173021 12.001327 0 1.000000 1.000000 1.000000 -0.174342 0.846319 0.503337
1108 1 -4.851949 20.258995 11.593689 0 1.000000 1.000000 1.000000 -0.203919 0.849647 0.486330
1109 1 -5.495927 19.937475 11.861265 0 1.000000 1.000000 1.000000 -0.229759 0.836593 0.497315
1110 1 -6.155742 19.990824 11.440273 0 1.000000 1.000000 1.000000 -0.258696 0.838225 0.480057
1111 1 -6.769726 19.646391 11.688174 0 1.000000 1.000000 1.000000 -0.283033 0.824566 0.489880
1112 1 -7.403114 19.670094 11.256786 0 1.000000 1.000000 1.000000 -0.311092 0.824574 0.472545
1113 1 8.050576 20.022405 10.135615 0 1.000000 1.000000 1.000000 0.338026 0.839311 0.425787
1114 1 7.434739 20.032546 10.575812 0 1.000000 1.000000 1.000000 0.311090 0.840815 0.443006
1115 1 6.828519 20.380072 10.316631 0 1.000000 1.000000 1.000000 0.286732 0.854485 0.433175
1116 1 6.182910 20.362053 10.749704 0 1.000000 1.000000 1.000000 0.258695 0.854476 0.450497
1117 1 5.545093 20.687381 10.472160 0 1.000000 1.000000 1.000000 0.232853 0.867530 0.439513
1118 1 4.873946 20.637672 10.895153 0 1.000000 1.000000 1.000000 0.203917 0.865897 0.456771
1119 1 4.208786 20.936230 10.598101 0 1.000000 1.000000 1.000000 0.176746 0.878099 0.444639
1120 1 3.517480 20.851875 11.008191 0 1.000000 1.000000 1.000000 0.147159 0.874770 0.461652
1121 1 2.830398 21.119568 10.690887 0 1.000000 1.000000 1.000000 0.118865 0.885888 0.448412
1122 1 2.125303 20.998431 11.085529 0 1.000000 1.000000 1.000000 0.088913 0.880838 0.464994
1123 1 1.422717 21.231903 10.747740 0 1.000000 1.000000 1.000000 0.059750 0.890662 0.450722
1124 1 0.710943 21.072875 11.124813 0 1.000000 1.000000 1.000000 0.029742 0.883920 0.466692
1125 1 0.000000 21.269748 10.766892 0 1.000000 1.000000 1.000000 0.000000 0.892271 0.451500
1126 1 -0.710943 21.072875 11.124813 0 1.000000 1.000000 1.000000 -0.029742 0.883920 0.466692
1127 1 -1.422717 21.231903 10.747740 0 1.000000 1.000000 1.000000 -0.059750 0.890662 0.450722
1128 1 -2.125303 20.998431 11.085529 0 1.000000 1.000000 1.000000 -0.088913 0.880838 0.464994
1129 1 -2.830398 21.119568 10.690887 0 1.000000 1.000000 1.000000 -0.118865 0.885888 0.448412
1130 1 -3.517480 20.851875 11.008191 0 1.000000 1.000000 1.000000 -0.147159 0.874770 0.461652
1131 1 -4.208786 20.936230 10.598101 0 1.000000 1.000000 1.000000 -0.176746 0.878099 0.444639
1132 1 -4.873946 20.637672 10.895153 0 1.000000 1.000000 1.000000 -0.203917 0.865897 0.456771
1133 1 -5.545093 20.687381 10.472160 0 1.000000 1.000000 1.000000 -0.232853 0.867530 0.439513
1134 1 -6.182910 20.362053 10.749704 0 1.000000 1.000000 1.000000 -0.258695 0.854476 0.450497
1135 1 -6.828519 20.380072 10.316631 0 1.000000 1.000000 1.000000 -0.286732 0.854485 0.433175
1136 1 -7.434739 20.032546 10.575812 0 1.000000 1.000000 1.000000 -0.311090 0.840815 0.443006
1137 1 -8.050576 20.022405 10.135615 0 1.000000 1.000000 1.000000 -0.338026 0.839311 0.425787
1138 1 8.666869 20.308956 8.993387 0 1.000000 1.000000 1.000000 0.363611 0.851355 0.378129
1139 1 8.071881 20.352494 9.436893 0 1.000000 1.000000 1.000000 0.338025 0.854218 0.395032
1140 1 7.474771 20.700600 9.166803 0 1.000000 1.000000 1.000000 0.313609 0.867922 0.385178
1141 1 6.847246 20.718038 9.606343 0 1.000000 1.000000 1.000000 0.286731 0.869421 0.402359
1142 1 6.217307 21.044836 9.319226 0 1.000000 1.000000 1.000000 0.260859 0.882490 0.391362
1143 1 5.560764 21.032199 9.751971 0 1.000000 1.000000 1.000000 0.232852 0.882481 0.408666
1144 1 4.901801 21.332915 9.446784 0 1.000000 1.000000 1.000000 0.205670 0.894687 0.396529
1145 1 4.220970 21.286656 9.869921 0 1.000000 1.000000 1.000000 0.176745 0.893055 0.413781
1146 1 3.538003 21.556891 9.545958 0 1.000000 1.000000 1.000000 0.148451 0.904173 0.400541
1147 1 2.838737 21.474158 9.956834 0 1.000000 1.000000 1.000000 0.118865 0.900844 0.417554
1148 1 2.137879 21.710179 9.613832 0 1.000000 1.000000 1.000000 0.089704 0.910667 0.403284
1149 1 1.426954 21.589061 10.010095 0 1.000000 1.000000 1.000000 0.059749 0.905616 0.419868
1150 1 0.715179 21.788057 9.648315 0 1.000000 1.000000 1.000000 0.030009 0.913967 0.404677
1151 1 0.000000 21.627773 10.028039 0 1.000000 1.000000 1.000000 0.000000 0.907224 0.420648
1152 1 -0.715179 21.788057 9.648315 0 1.000000 1.000000 1.000000 -0.030009 0.913967 0.404677
1153 1 -1.426954 21.589061 10.010095 0 1.000000 1.000000 1.000000 -0.059749 0.905616 0.419868
1154 1 -2.137879 21.710179 9.613832 0 1.000000 1.000000 1.000000 -0.089704 0.910667 0.403284
1155 1 -2.838737 21.474158 9.956834 0 1.000000 1.000000 1.000000 -0.118865 0.900844 0.417554
1156 1 -3.538003 21.556891 9.545958 0 1.000000 1.000000 1.000000 -0.148451 0.904173 0.400541
1157 1 -4.220970 21.286656 9.869921 0 1.000000 1.000000 1.000000 -0.176745 0.893055 0.413781
1158 1 -4.901801 21.332915 9.446784 0 1.000000 1.000000 1.000000 -0.205670 0.894687 0.396529
1159 1 -5.560764 21.032199 9.751971 0 1.000000 1.000000 1.000000 -0.232852 0.882481 0.408666
1160 1 -6.217307 21.044836 9.319226 0 1.000000 1.000000 1.000000 -0.260859 0.882490 0.391362
1161 1 -6.847246 20.718038 9.606343 0 1.000000 1.000000 1.000000 -0.286731 0.869421 0.402359
1162 1 -7.474771 20.700600 9.166803 0 1.000000 1.000000 1.000000 -0.313609 0.867922 0.385178
1163 1 -8.071881 20.352494 9.436893 0 1.000000 1.000000 1.000000 -0.338025 0.854218 0.395032
1164 1 -8.666869 20.308956 8.993387 0 1.000000 1.000000 1.000000 -0.363611 0.851355 0.378129
1165 1 9.247394 20.529495 7.841522 0 1.000000 1.000000 1.000000 0.387662 0.860692 0.330042
1166 1 8.675906 20.605070 8.282941 0 1.000000 1.000000 1.000000 0.363610 0.864732 0.346447
1167 1 8.089018 20.951286 8.002641 0 1.000000 1.000000 1.000000 0.339103 0.878486 0.336557
1168 1 7.482870 21.003279 8.442996 0 1.000000 1.000000 1.000000 0.313608 0.881339 0.353401
1169 1 6.862308 21.329206 8.147002 0 1.000000 1.000000 1.000000 0.287679 0.894436 0.342381
1170 1 6.224270 21.353326 8.583692 0 1.000000 1.000000 1.000000 0.260859 0.895932 0.359526
1171 1 5.573368 21.654071 8.271099 0 1.000000 1.000000 1.000000 0.233645 0.908152 0.347376
1172 1 4.907443 21.646297 8.701446 0 1.000000 1.000000 1.000000 0.205670 0.908142 0.364661
1173 1 4.230770 21.917244 8.371630 0 1.000000 1.000000 1.000000 0.177362 0.919266 0.351416
1174 1 3.542161 21.874097 8.793005 0 1.000000 1.000000 1.000000 0.148451 0.917634 0.368660
1175 1 2.845444 22.111197 8.445720 0 1.000000 1.000000 1.000000 0.119287 0.927458 0.354389
1176 1 2.140427 22.030012 8.855671 0 1.000000 1.000000 1.000000 0.089704 0.924129 0.371400
1177 1 1.430361 22.230063 8.491127 0 1.000000 1.000000 1.000000 0.059964 0.932480 0.356209
1178 1 0.716038 22.109227 8.887509 0 1.000000 1.000000 1.000000 0.030009 0.927429 0.372793
1179 1 0.000000 22.270112 8.506426 0 1.000000 1.000000 1.000000 0.000000 0.934172 0.356822
1180 1 -0.716038 22.109227 8.887509 0 1.000000 1.000000 1.000000 -0.030009 0.927429 0.372793
1181 1 -1.430361 22.230063 8.491127 0 1.000000 1.000000 1.000000 -0.059964 0.932480 0.356209
1182 1 -2.140427 22.030012 8.855671 0 1.000000 1.000000 1.000000 -0.089704 0.924129 0.371400
1183 1 -2.845444 22.111197 8.445720 0 1.000000 1.000000 1.000000 -0.119287 0.927458 0.354389
1184 1 -3.542161 21.874097 8.793005 0 1.000000 1.000000 1.000000 -0.148451 0.917634 0.368660
1185 1 -4.230770 21.917244 8.371630 0 1.000000 1.000000 1.000000 -0.177362 0.919266 0.351416
1186 1 -4.907443 21.646297 8.701446 0 1.000000 1.000000 1.000000 -0.205670 0.908142 0.364661
1187 1 -5.573368 21.654071 8.271099 0 1.000000 1.000000 1.000000 -0.233645 0.908152 0.347376
1188 1 -6.224270 21.353326 8.583692 0 1.000000 1.000000 1.000000 -0.260859 0.895932 0.359526
1189 1 -6.862308 21.329206 8.147002 0 1.000000 1.000000 1.000000 -0.287679 0.894436 0.342381
1190 1 -7.482870 21.003279 8.442996 0 1.000000 1.000000 1.000000 -0.313608 0.881339 0.353401
1191 1 -8.089018 20.951286 8.002641 0 1.000000 1.000000 1.000000 -0.339103 0.878486 0.336557
1192 1 -8.675906 20.605070 8.282941 0 1.000000 1.000000 1.000000 -0.363610 0.864732 0.346447
1193 1 -9.247394 20.529495 7.841522 0 1.000000 1.000000 1.000000 -0.387662 0.860692 0.330042
1194 1 9.788715 20.685542 6.691173 0 1.000000 1.000000 1.000000 0.410046 0.867377 0.281992
1195 1 9.242672 20.791001 7.125461 0 1.000000 1.000000 1.000000 0.387663 0.872393 0.297739
1196 1 8.666883 21.133004 6.835950 0 1.000000 1.000000 1.000000 0.363043 0.886210 0.287804
1197 1 8.084716 21.217715 7.271712 0 1.000000 1.000000 1.000000 0.339103 0.890231 0.304133
1198 1 7.474786 21.540526 6.967807 0 1.000000 1.000000 1.000000 0.313099 0.903367 0.293082
1199 1 6.858525 21.600024 7.402742 0 1.000000 1.000000 1.000000 0.287679 0.906210 0.309877
1200 1 6.217322 21.898718 7.083705 0 1.000000 1.000000 1.000000 0.260421 0.918450 0.297708
1201 1 5.570202 21.928644 7.515372 0 1.000000 1.000000 1.000000 0.233646 0.919943 0.314825
1202 1 4.901814 22.198475 7.180698 0 1.000000 1.000000 1.000000 0.205315 0.931075 0.301570
1203 1 4.228308 22.194848 7.606609 0 1.000000 1.000000 1.000000 0.177362 0.931065 0.318841
1204 1 3.538014 22.431532 7.256110 0 1.000000 1.000000 1.000000 0.148189 0.940893 0.304567
1205 1 2.843758 22.391027 7.673846 0 1.000000 1.000000 1.000000 0.119287 0.939261 0.321806
1206 1 2.137885 22.591034 7.307721 0 1.000000 1.000000 1.000000 0.089544 0.947612 0.306614
1207 1 1.429505 22.511255 7.715052 0 1.000000 1.000000 1.000000 0.059964 0.944284 0.323625
1208 1 0.715182 22.672068 7.333943 0 1.000000 1.000000 1.000000 0.029955 0.951027 0.307654
1209 1 0.000000 22.551762 7.728935 0 1.000000 1.000000 1.000000 0.000000 0.945976 0.324238
1210 1 -0.715182 22.672068 7.333943 0 1.000000 1.000000 1.000000 -0.029955 0.951027 0.307654
1211 1 -1.429505 22.511255 7.715052 0 1.000000 1.000000 1.000000 -0.059964 0.944284 0.323625
1212 1 -2.137885 22.591034 7.307721 0 1.000000 1.000000 1.000000 -0.089544 0.947612 0.306614
1213 1 -2.843758 22.391027 7.673846 0 1.000000 1.000000 1.000000 -0.119287 0.939261 0.321806
1214 1 -3.538014 22.431532 7.256110 0 1.000000 1.000000 1.000000 -0.148189 0.940893 0.304567
1215 1 -4.228308 22.194848 7.606609 0 1.000000 1.000000 1.000000 -0.177362 0.931065 0.318841
1216 1 -4.901814 22.198475 7.180698 0 1.000000 1.000000 1.000000 -0.205315 0.931075 0.301570
1217 1 -5.570202 21.928644 7.515372 0 1.000000 1.000000 1.000000 -0.233646 0.919943 0.314825
1218 1 -6.217322 21.898718 7.083705 0 1.000000 1.000000 1.000000 -0.260421 0.918450 0.297708
1219 1 -6.858525 21.600024 7.402742 0 1.000000 1.000000 1.000000 -0.287679 0.906210 0.309877
1220 1 -7.474786 21.540526 6.967807 0 1.000000 1.000000 1.000000 -0.313099 0.903367 0.293082
1221 1 -8.084716 21.217715 7.271712 0 1.000000 1.000000 1.000000 -0.339103 0.890231 0.304133
1222 1 -8.666883 21.133004 6.835950 0 1.000000 1.000000 1.000000 -0.363043 0.886210 0.287804
1223 1 -9.242672 20.791001 7.125461 0 1.000000 1.000000 1.000000 -0.387663 0.872393 0.297739
1224 1 -9.788715 20.685542 6.691173 0 1.000000 1.000000 1.000000 -0.410046 0.867377 0.281992
1225 1 10.288613 20.780167 5.552754 0 1.000000 1.000000 1.000000 0.430681 0.871530 0.234412
1226 1 9.769244 20.912728 5.975421 0 1.000000 1.000000 1.000000 0.410048 0.877312 0.249370
1227 1 9.205209 21.248431 5.677941 0 1.000000 1.000000 1.000000 0.385306 0.891198 0.239387
1228 1 8.648891 21.363249 6.104183 0 1.000000 1.000000 1.000000 0.363044 0.896186 0.255049
1229 1 8.050605 21.680889 5.793561 0 1.000000 1.000000 1.000000 0.336957 0.909363 0.243964
1230 1 7.458666 21.773454 6.221423 0 1.000000 1.000000 1.000000 0.313100 0.913370 0.260237
1231 1 6.828549 22.068156 5.897102 0 1.000000 1.000000 1.000000 0.285793 0.925632 0.248047
1232 1 6.203465 22.133922 6.324449 0 1.000000 1.000000 1.000000 0.260422 0.928470 0.264809
1233 1 5.545120 22.400898 5.986068 0 1.000000 1.000000 1.000000 0.232067 0.939612 0.251543
1234 1 4.890589 22.435524 6.410651 0 1.000000 1.000000 1.000000 0.205316 0.941103 0.268645
1235 1 4.208810 22.670341 6.058112 0 1.000000 1.000000 1.000000 0.176135 0.950933 0.254367
1236 1 3.529741 22.669976 6.477661 0 1.000000 1.000000 1.000000 0.148190 0.950923 0.271634
1237 1 2.830415 22.868851 6.111191 0 1.000000 1.000000 1.000000 0.118447 0.959275 0.256442
1238 1 2.132815 22.830414 6.523516 0 1.000000 1.000000 1.000000 0.089545 0.957643 0.273682
1239 1 1.422726 22.990484 6.143715 0 1.000000 1.000000 1.000000 0.059537 0.964386 0.257712
1240 1 0.713473 22.911918 6.546811 0 1.000000 1.000000 1.000000 0.029955 0.961057 0.274724
1241 1 0.000000 23.031461 6.154672 0 1.000000 1.000000 1.000000 0.000000 0.966108 0.258140
1242 1 -0.713473 22.911918 6.546811 0 1.000000 1.000000 1.000000 -0.029955 0.961057 0.274724
1243 1 -1.422726 22.990484 6.143715 0 1.000000 1.000000 1.000000 -0.059537 0.964386 0.257712
1244 1 -2.132815 22.830414 6.523516 0 1.000000 1.000000 1.000000 -0.089545 0.957643 0.273682
1245 1 -2.830415 22.868851 6.111191 0 1.000000 1.000000 1.000000 -0.118447 0.959275 0.256442
1246 1 -3.529741 22.669976 6.477661 0 1.000000 1.000000 1.000000 -0.148190 0.950923 0.271634
1247 1 -4.208810 22.670341 6.058112 0 1.000000 1.000000 1.000000 -0.176135 0.950933 0.254367
1248 1 -4.890589 22.435524 6.410651 0 1.000000 1.000000 1.000000 -0.205316 0.941103 0.268645
1249 1 -5.545120 22.400898 5.986068 0 1.000000 1.000000 1.000000 -0.232067 0.939612 0.251543
1250 1 -6.203465 22.133922 6.324449 0 1.000000 1.000000 1.000000 -0.260422 0.928470 0.264809
1251 1 -6.828549 22.068156 5.897102 0 1.000000 1.000000 1.000000 -0.285793 0.925632 0.248047
1252 1 -7.458666 21.773454 6.221423 0 1.000000 1.000000 1.000000 -0.313100 0.913370 0.260237
1253 1 -8.050605 21.680889 5.793561 0 1.000000 1.000000 1.000000 -0.336957 0.909363 0.243964
1254 1 -8.648891 21.363249 6.104183 0 1.000000 1.000000 1.000000 -0.363044 0.896186 0.255049
1255 1 -9.205209 21.248431 5.677941 0 1.000000 1.000000 1.000000 -0.385306 0.891198 0.239387
1256 1 -9.769244 20.912728 5.975421 0 1.000000 1.000000 1.000000 -0.410048 0.877312 0.249370
1257 1 -10.288613 20.780167 5.552754 0 1.000000 1.000000 1.000000 -0.430681 0.871530 0.234412
1258 1 10.746050 20.817685 4.435560 0 1.000000 1.000000 1.000000 0.449533 0.873322 0.187692
1259 1 10.253911 20.974134 4.842813 0 1.000000 1.000000 1.000000 0.430684 0.879661 0.201761
1260 1 9.702085 21.301745 4.538780 0 1.000000 1.000000 1.000000 0.405823 0.893615 0.191731
1261 1 9.172752 21.443481 4.951241 0 1.000000 1.000000 1.000000 0.385308 0.899362 0.206604
1262 1 8.586887 21.754154 4.635258 0 1.000000 1.000000 1.000000 0.359143 0.912580 0.195486
1263 1 8.021057 21.876744 5.051336 0 1.000000 1.000000 1.000000 0.336959 0.917550 0.211094
1264 1 7.403158 22.165726 4.723032 0 1.000000 1.000000 1.000000 0.309608 0.929832 0.198885
1265 1 6.802588 22.264572 5.140936 0 1.000000 1.000000 1.000000 0.285795 0.933831 0.215129
1266 1 6.155784 22.527112 4.800107 0 1.000000 1.000000 1.000000 0.257422 0.944981 0.201855
1267 1 5.523401 22.597672 5.217893 0 1.000000 1.000000 1.000000 0.232069 0.947816 0.218607
1268 1 4.851987 22.829277 4.864555 0 1.000000 1.000000 1.000000 0.202887 0.957646 0.204329
1269 1 4.191927 22.867321 5.280192 0 1.000000 1.000000 1.000000 0.176136 0.959137 0.221431
1270 1 3.501306 23.064037 4.914629 0 1.000000 1.000000 1.000000 0.146401 0.967487 0.206244
1271 1 2.818863 23.065933 5.326080 0 1.000000 1.000000 1.000000 0.118448 0.967476 0.223516
1272 1 2.115395 23.224618 4.948881 0 1.000000 1.000000 1.000000 0.088448 0.974217 0.207551
1273 1 1.416858 23.187607 5.354192 0 1.000000 1.000000 1.000000 0.059538 0.972585 0.224796
1274 1 0.707605 23.306174 4.966278 0 1.000000 1.000000 1.000000 0.029586 0.977636 0.208213
1275 1 0.000000 23.228594 5.363662 0 1.000000 1.000000 1.000000 0.000000 0.974306 0.225227
1276 1 -0.707605 23.306174 4.966278 0 1.000000 1.000000 1.000000 -0.029586 0.977636 0.208213
1277 1 -1.416858 23.187607 5.354192 0 1.000000 1.000000 1.000000 -0.059538 0.972585 0.224796
1278 1 -2.115395 23.224618 4.948881 0 1.000000 1.000000 1.000000 -0.088448 0.974217 0.207551
1279 1 -2.818863 23.065933 5.326080 0 1.000000 1.000000 1.000000 -0.118448 0.967476 0.223516
1280 1 -3.501306 23.064037 4.914629 0 1.000000 1.000000 1.000000 -0.146401 0.967487 0.206244
1281 1 -4.191927 22.867321 5.280192 0 1.000000 1.000000 1.000000 -0.176136 0.959137 0.221431
1282 1 -4.851987 22.829277 4.864555 0 1.000000 1.000000 1.000000 -0.202887 0.957646 0.204329
1283 1 -5.523401 22.597672 5.217893 0 1.000000 1.000000 1.000000 -0.232069 0.947816 0.218607
1284 1 -6.155784 22.527112 4.800107 0 1.000000 1.000000 1.000000 -0.257422 0.944981 0.201855
1285 1 -6.802588 22.264572 5.140936 0 1.000000 1.000000 1.000000 -0.285795 0.933831 0.215129
1286 1 -7.403158 22.165726 4.723032 0 1.000000 1.000000 1.000000 -0.309608 0.929832 0.198885
1287 1 -8.021057 21.876744 5.051336 0 1.000000 1.000000 1.000000 -0.336959 0.917550 0.211094
1288 1 -8.586887 21.754154 4.635258 0 1.000000 1.000000 1.000000 -0.359143 0.912580 0.195486
1289 1 -9.172752 21.443481 4.951241 0 1.000000 1.000000 1.000000 -0.385308 0.899362 0.206604
1290 1 -9.702085 21.301745 4.538780 0 1.000000 1.000000 1.000000 -0.405823 0.893615 0.191731
1291 1 -10.253911 20.974134 4.842813 0 1.000000 1.000000 1.000000 -0.430684 0.879661 0.201761
1292 1 -10.746050 20.817685 4.435560 0 1.000000 1.000000 1.000000 -0.449533 0.873322 0.187692
1293 1 11.161060 20.803315 3.347518 0 1.000000 1.000000 1.000000 0.466614 0.872961 0.142164
1294 1 10.696109 20.980195 3.736332 0 1.000000 1.000000 1.000000 0.449537 0.879663 0.155276
1295 1 10.156775 21.298254 3.427263 0 1.000000 1.000000 1.000000 0.424573 0.893674 0.145205
1296 1 9.654889 21.463355 3.822458 0 1.000000 1.000000 1.000000 0.405826 0.899978 0.159199
1297 1 9.082005 21.765572 3.502565 0 1.000000 1.000000 1.000000 0.379599 0.913227 0.148055
1298 1 8.543335 21.914635 3.902904 0 1.000000 1.000000 1.000000 0.359146 0.918958 0.162884
1299 1 7.938533 22.196430 3.571998 0 1.000000 1.000000 1.000000 0.331767 0.931252 0.150664
1300 1 7.364185 22.324931 3.976048 0 1.000000 1.000000 1.000000 0.309610 0.936216 0.166253
1301 1 6.730152 22.581666 3.634085 0 1.000000 1.000000 1.000000 0.281237 0.947366 0.152979
1302 1 6.122321 22.685000 4.040241 0 1.000000 1.000000 1.000000 0.257424 0.951365 0.169224
1303 1 5.462854 22.912202 3.687361 0 1.000000 1.000000 1.000000 0.228259 0.961191 0.154954
1304 1 4.824904 22.985920 4.093890 0 1.000000 1.000000 1.000000 0.202889 0.964027 0.171718
1305 1 4.144899 23.179546 3.730455 0 1.000000 1.000000 1.000000 0.173177 0.972370 0.156543
1306 1 3.481361 23.219619 4.135556 0 1.000000 1.000000 1.000000 0.146402 0.973862 0.173662
1307 1 2.786700 23.376326 3.762176 0 1.000000 1.000000 1.000000 0.116424 0.980599 0.157708
1308 1 2.103177 23.379429 4.164049 0 1.000000 1.000000 1.000000 0.088449 0.980588 0.174994
1309 1 1.400525 23.496823 3.781600 0 1.000000 1.000000 1.000000 0.058510 0.985637 0.158419
1310 1 0.703490 23.460578 4.178518 0 1.000000 1.000000 1.000000 0.029586 0.984004 0.175672
1311 1 0.000000 23.537403 3.788142 0 1.000000 1.000000 1.000000 0.000000 0.987334 0.158658
1312 1 -0.703490 23.460578 4.178518 0 1.000000 1.000000 1.000000 -0.029586 0.984004 0.175672
1313 1 -1.400525 23.496823 3.781600 0 1.000000 1.000000 1.000000 -0.058510 0.985637 0.158419
1314 1 -2.103177 23.379429 4.164049 0 1.000000 1.000000 1.000000 -0.088449 0.980588 0.174994
1315 1 -2.786700 23.376326 3.762176 0 1.000000 1.000000 1.000000 -0.116424 0.980599 0.157708
1316 1 -3.481361 23.219619 4.135556 0 1.000000 1.000000 1.000000 -0.146402 0.973862 0.173662
1317 1 -4.144899 23.179546 3.730455 0 1.000000 1.000000 1.000000 -0.173177 0.972370 0.156543
1318 1 -4.824904 22.985920 4.093890 0 1.000000 1.000000 1.000000 -0.202889 0.964027 0.171718
1319 1 -5.462854 22.912202 3.687361 0 1.000000 1.000000 1.000000 -0.228259 0.961191 0.154954
1320 1 -6.122321 22.685000 4.040241 0 1.000000 1.000000 1.000000 -0.257424 0.951365 0.169224
1321 1 -6.730152 22.581666 3.634085 0 1.000000 1.000000 1.000000 -0.281237 0.947366 0.152979
1322 1 -7.364185 22.324931 3.976048 0 1.000000 1.000000 1.000000 -0.309610 0.936216 0.166253
1323 1 -7.938533 22.196430 3.571998 0 1.000000 1.000000 1.000000 -0.331767 0.931252 0.150664
1324 1 -8.543335 21.914635 3.902904 0 1.000000 1.000000 1.000000 -0.359146 0.918958 0.162884
1325 1 -9.082005 21.765572 3.502565 0 1.000000 1.000000 1.000000 -0.379599 0.913227 0.148055
1326 1 -9.654889 21.463355 3.822458 0 1.000000 1.000000 1.000000 -0.405826 0.899978 0.159199
1327 1 -10.156775 21.298254 3.427263 0 1.000000 1.000000 1.000000 -0.424573 0.893674 0.145205
1328 1 -10.696109 20.980195 3.736332 0 1.000000 1.000000 1.000000 -0.449537 0.879663 0.155276
1329 1 -11.161060 20.803315 3.347518 0 1.000000 1.000000 1.000000 -0.466614 0.872961 0.142164
1330 1 11.534594 20.742830 2.295057 0 1.000000 1.000000 1.000000 0.481969 0.870679 0.098100
1331 1 11.096291 20.936619 2.663188 0 1.000000 1.000000 1.000000 0.466618 0.877565 0.110217
1332 1 10.569586 21.244008 2.350628 0 1.000000 1.000000 1.000000 0.441578 0.891620 0.100116
1333 1 10.095020 21.428764 2.725888 0 1.000000 1.000000 1.000000 0.424577 0.898291 0.113171
1334 1 9.535486 21.721354 2.403564 0 1.000000 1.000000 1.000000 0.398314 0.911559 0.102013
1335 1 9.024357 21.893061 2.785046 0 1.000000 1.000000 1.000000 0.379603 0.917851 0.115981
1336 1 8.433300 22.166494 2.452937 0 1.000000 1.000000 1.000000 0.352223 0.930147 0.103760
1337 1 7.886146 22.320800 2.839550 0 1.000000 1.000000 1.000000 0.331770 0.935877 0.118590
1338 1 7.265844 22.570603 2.497766 0 1.000000 1.000000 1.000000 0.303423 0.947017 0.105329
1339 1 6.684198 22.702969 2.888252 0 1.000000 1.000000 1.000000 0.281240 0.951986 0.120938
1340 1 6.037976 22.924761 2.537059 0 1.000000 1.000000 1.000000 0.252117 0.961798 0.106689
1341 1 5.424463 23.030661 2.930014 0 1.000000 1.000000 1.000000 0.228261 0.965804 0.122964
1342 1 4.756707 23.220391 2.569863 0 1.000000 1.000000 1.000000 0.198597 0.974133 0.107814
1343 1 4.115093 23.295558 2.963775 0 1.000000 1.000000 1.000000 0.173179 0.976976 0.124611
1344 1 3.431177 23.449761 2.595317 0 1.000000 1.000000 1.000000 0.143244 0.983702 0.108680
1345 1 2.766323 23.490455 2.988616 0 1.000000 1.000000 1.000000 0.116425 0.985197 0.125827
1346 1 2.072453 23.606497 2.612712 0 1.000000 1.000000 1.000000 0.086515 0.990240 0.109268
1347 1 1.390179 23.609762 3.003823 0 1.000000 1.000000 1.000000 0.058510 0.990230 0.126574
1348 1 0.693144 23.686051 2.621541 0 1.000000 1.000000 1.000000 0.028935 0.993558 0.109566
1349 1 0.000000 23.649936 3.008943 0 1.000000 1.000000 1.000000 0.000000 0.991925 0.126826
1350 1 -0.693144 23.686051 2.621541 0 1.000000 1.000000 1.000000 -0.028935 0.993558 0.109566
1351 1 -1.390179 23.609762 3.003823 0 1.000000 1.000000 1.000000 -0.058510 0.990230 0.126574
1352 1 -2.072453 23.606497 2.612712 0 1.000000 1.000000 1.000000 -0.086515 0.990240 0.109268
1353 1 -2.766323 23.490455 2.988616 0 1.000000 1.000000 1.000000 -0.116425 0.985197 0.125827
1354 1 -3.431177 23.449761 2.595317 0 1.000000 1.000000 1.000000 -0.143244 0.983702 0.108680
1355 1 -4.115093 23.295558 2.963775 0 1.000000 1.000000 1.000000 -0.173179 0.976976 0.124611
1356 1 -4.756707 23.220391 2.569863 0 1.000000 1.000000 1.000000 -0.198597 0.974133 0.107814
1357 1 -5.424463 23.030661 2.930014 0 1.000000 1.000000 1.000000 -0.228261 0.965804 0.122964
1358 1 -6.037976 22.924761 2.537059 0 1.000000 1.000000 1.000000 -0.252117 0.961798 0.106689
1359 1 -6.684198 22.702969 2.888252 0 1.000000 1.000000 1.000000 -0.281240 0.951986 0.120938
1360 1 -7.265844 22.570603 2.497766 0 1.000000 1.000000 1.000000 -0.303423 0.947017 0.105329
1361 1 -7.886146 22.320800 2.839550 0 1.000000 1.000000 1.000000 -0.331770 0.935877 0.118590
1362 1 -8.433300 22.166494 2.452937 0 1.000000 1.000000 1.000000 -0.352223 0.930147 0.103760
1363 1 -9.024357 21.893061 2.785046 0 1.000000 1.000000 1.000000 -0.379603 0.917851 0.115981
1364 1 -9.535486 21.721354 2.403564 0 1.000000 1.000000 1.000000 -0.398314 0.911559 0.102013
1365 1 -10.095020 21.428764 2.725888 0 1.000000 1.000000 1.000000 -0.424577 0.898291 0.113171
1366 1 -10.569586 21.244008 2.350628 0 1.000000 1.000000 1.000000 -0.441578 0.891620 0.100116
1367 1 -11.096291 20.936619 2.663188 0 1.000000 1.000000 1.000000 -0.466618 0.877565 0.110217
1368 1 -11.534594 20.742830 2.295057 0 1.000000 1.000000 1.000000 -0.481969 0.870679 0.098100
1369 1 11.868331 20.642231 1.283091 0 1.000000 1.000000 1.000000 0.495677 0.866719 0.055708
1370 1 11.455743 20.849498 1.629039 0 1.000000 1.000000 1.000000 0.481974 0.873634 0.066818
1371 1 10.941688 21.145427 1.314499 0 1.000000 1.000000 1.000000 0.456893 0.887713 0.056701
1372 1 10.493834 21.346147 1.667957 0 1.000000 1.000000 1.000000 0.441582 0.894580 0.068786
1373 1 9.947855 21.628259 1.344646 0 1.000000 1.000000 1.000000 0.415319 0.907849 0.057629
1374 1 9.464072 21.818711 1.704993 0 1.000000 1.000000 1.000000 0.398319 0.914520 0.070684
1375 1 8.887196 22.082897 1.373041 0 1.000000 1.000000 1.000000 0.370973 0.926800 0.058479
1376 1 8.367553 22.258973 1.739504 0 1.000000 1.000000 1.000000 0.352227 0.933104 0.072474
1377 1 7.761693 22.500973 1.399161 0 1.000000 1.000000 1.000000 0.323940 0.944221 0.059242
1378 1 7.207138 22.658297 1.770810 0 1.000000 1.000000 1.000000 0.303426 0.949968 0.074116
1379 1 6.575180 22.873879 1.422465 0 1.000000 1.000000 1.000000 0.274380 0.959754 0.059905
1380 1 5.987665 23.007977 1.798228 0 1.000000 1.000000 1.000000 0.252120 0.964741 0.075570
1381 1 5.333499 23.193149 1.442422 0 1.000000 1.000000 1.000000 0.222537 0.973048 0.060461
1382 1 4.716055 23.299663 1.821102 0 1.000000 1.000000 1.000000 0.198600 0.977068 0.076793
1383 1 4.044540 23.450911 1.458538 0 1.000000 1.000000 1.000000 0.168738 0.983778 0.060901
1384 1 3.401278 23.525842 1.838841 0 1.000000 1.000000 1.000000 0.143246 0.986629 0.077748
1385 1 2.718124 23.640370 1.470385 0 1.000000 1.000000 1.000000 0.113392 0.991662 0.061220
1386 1 2.054154 23.680331 1.850958 0 1.000000 1.000000 1.000000 0.086517 0.993160 0.078405
1387 1 1.365719 23.756269 1.477634 0 1.000000 1.000000 1.000000 0.056971 0.996485 0.061413
1388 1 0.686982 23.758723 1.857106 0 1.000000 1.000000 1.000000 0.028935 0.996475 0.078739
1389 1 0.000000 23.795282 1.480074 0 1.000000 1.000000 1.000000 0.000000 0.998108 0.061477
1390 1 -0.686982 23.758723 1.857106 0 1.000000 1.000000 1.000000 -0.028935 0.996475 0.078739
1391 1 -1.365719 23.756269 1.477634 0 1.000000 1.000000 1.000000 -0.056971 0.996485 0.061413
1392 1 -2.054154 23.680331 1.850958 0 1.000000 1.000000 1.000000 -0.086517 0.993160 0.078405
1393 1 -2.718124 23.640370 1.470385 0 1.000000 1.000000 1.000000 -0.113392 0.991662 0.061220
1394 1 -3.401278 23.525842 1.838841 0 1.000000 1.000000 1.000000 -0.143246 0.986629 0.077748
1395 1 -4.044540 23.450911 1.458538 0 1.000000 1.000000 1.000000 -0.168738 0.983778 0.060901
1396 1 -4.716055 23.299663 1.821102 0 1.000000 1.000000 1.000000 -0.198600 0.977068 0.076793
1397 1 -5.333499 23.193149 1.442422 0 1.000000 1.000000 1.000000 -0.222537 0.973048 0.060461
1398 1 -5.987665 23.007977 1.798228 0 1.000000 1.000000 1.000000 -0.252120 0.964741 0.075570
1399 1 -6.575180 22.873879 1.422465 0 1.000000 1.000000 1.000000 -0.274380 0.959754 0.059905
1400 1 -7.207138 22.658297 1.770810 0 1.000000 1.000000 1.000000 -0.303426 0.949968 0.074116
1401 1 -7.761693 22.500973 1.399161 0 1.000000 1.000000 1.000000 -0.323940 0.944221 0.059242
1402 1 -8.367553 22.258973 1.739504 0 1.000000 1.000000 1.000000 -0.352227 0.933104 0.072474
1403 1 -8.887196 22.082897 1.373041 0 1.000000 1.000000 1.000000 -0.370973 0.926800 0.058479
1404 1 -9.464072 21.818711 1.704993 0 1.000000 1.000000 1.000000 -0.398319 0.914520 0.070684
1405 1 -9.947855 21.628259 1.344646 0 1.000000 1.000000 1.000000 -0.415319 0.907849 0.057629
1406 1 -10.493834 21.346147 1.667957 0 1.000000 1.000000 1.000000 -0.441582 0.894580 0.068786
1407 1 -10.941688 21.145427 1.314499 0 1.000000 1.000000 1.000000 -0.456893 0.887713 0.056701
1408 1 -11.455743 20.849498 1.629039 0 1.000000 1.000000 1.000000 -0.481974 0.873634 0.066818
1409 1 -11.868331 20.642231 1.283091 0 1.000000 1.000000 1.000000 -0.495677 0.866719 0.055708
1410 1 12.164492 20.507486 0.315093 0 1.000000 1.000000 1.000000 0.507833 0.861323 0.015138
1411 1 11.776400 20.724999 0.638030 0 1.000000 1.000000 1.000000 0.495682 0.868137 0.025251
1412 1 11.274924 21.008977 0.322937 0 1.000000 1.000000 1.000000 0.470600 0.882217 0.015134
1413 1 10.852800 21.222137 0.653457 0 1.000000 1.000000 1.000000 0.456898 0.889132 0.026244
1414 1 10.320443 21.493216 0.330521 0 1.000000 1.000000 1.000000 0.430675 0.902381 0.015104
1415 1 9.863352 21.698618 0.668251 0 1.000000 1.000000 1.000000 0.415324 0.909266 0.027222
1416 1 9.300909 21.952952 0.337731 0 1.000000 1.000000 1.000000 0.388054 0.921514 0.015051
1417 1 8.808535 22.146780 0.682173 0 1.000000 1.000000 1.000000 0.370978 0.928214 0.028165
1418 1 8.217600 22.380353 0.344442 0 1.000000 1.000000 1.000000 0.342792 0.939292 0.014981
1419 1 7.690401 22.558470 0.694967 0 1.000000 1.000000 1.000000 0.323944 0.945630 0.029053
1420 1 7.073459 22.767241 0.350525 0 1.000000 1.000000 1.000000 0.295015 0.955376 0.014899
1421 1 6.512793 22.925325 0.706373 0 1.000000 1.000000 1.000000 0.274384 0.961157 0.029861
1422 1 5.873269 23.105422 0.355848 0 1.000000 1.000000 1.000000 0.244921 0.969430 0.014814
1423 1 5.281490 23.239146 0.716133 0 1.000000 1.000000 1.000000 0.222540 0.974444 0.030565
1424 1 4.623735 23.387074 0.360285 0 1.000000 1.000000 1.000000 0.192790 0.981129 0.014732
1425 1 4.004230 23.492325 0.724010 0 1.000000 1.000000 1.000000 0.168741 0.985168 0.031141
1426 1 3.333444 23.605194 0.363724 0 1.000000 1.000000 1.000000 0.138976 0.990187 0.014662
1427 1 2.690600 23.678308 0.729797 0 1.000000 1.000000 1.000000 0.113393 0.993049 0.031570
1428 1 2.012667 23.754038 0.366073 0 1.000000 1.000000 1.000000 0.083905 0.996367 0.014611
1429 1 1.351755 23.792037 0.733337 0 1.000000 1.000000 1.000000 0.056972 0.997868 0.031834
1430 1 0.673019 23.829522 0.367264 0 1.000000 1.000000 1.000000 0.028056 0.999500 0.014584
1431 1 0.000000 23.830312 0.734528 0 1.000000 1.000000 1.000000 0.000000 0.999490 0.031923
1432 1 -0.673019 23.829522 0.367264 0 1.000000 1.000000 1.000000 -0.028056 0.999500 0.014584
1433 1 -1.351755 23.792037 0.733337 0 1.000000 1.000000 1.000000 -0.056972 0.997868 0.031834
1434 1 -2.012667 23.754038 0.366073 0 1.000000 1.000000 1.000000 -0.083905 0.996367 0.014611
1435 1 -2.690600 23.678308 0.729797 0 1.000000 1.000000 1.000000 -0.113393 0.993049 0.031570
1436 1 -3.333444 23.605194 0.363724 0 1.000000 1.000000 1.000000 -0.138976 0.990187 0.014662
1437 1 -4.004230 23.492325 0.724010 0 1.000000 1.000000 1.000000 -0.168741 0.985168 0.031141
1438 1 -4.623735 23.387074 0.360285 0 1.000000 1.000000 1.000000 -0.192790 0.981129 0.014732
1439 1 -5.281490 23.239146 0.716133 0 1.000000 1.000000 1.000000 -0.222540 0.974444 0.030565
1440 1 -5.873269 23.105422 0.355848 0 1.000000 1.000000 1.000000 -0.244921 0.969430 0.014814
1441 1 -6.512793 22.925325 0.706373 0 1.000000 1.000000 1.000000 -0.274384 0.961157 0.029861
1442 1 -7.073459 22.767241 0.350525 0 1.000000 1.000000 1.000000 -0.295015 0.955376 0.014899
1443 1 -7.690401 22.558470 0.694967 0 1.000000 1.000000 1.000000 -0.323944 0.945630 0.029053
1444 1 -8.217600 22.380353 0.344442 0 1.000000 1.000000 1.000000 -0.342792 0.939292 0.014981
1445 1 -8.808535 22.146780 0.682173 0 1.000000 1.000000 1.000000 -0.370978 0.928214 0.028165
1446 1 -9.300909 21.952952 0.337731 0 1.000000 1.000000 1.000000 -0.388054 0.921514 0.015051
1447 1 -9.863352 21.698618 0.668251 0 1.000000 1.000000 1.000000 -0.415324 0.909266 0.027222
1448 1 -10.320443 21.493216 0.330521 0 1.000000 1.000000 1.000000 -0.430675 0.902381 0.015104
1449 1 -10.852800 21.222137 0.653457 0 1.000000 1.000000 1.000000 -0.456898 0.889132 0.026244
1450 1 -11.274924 21.008977 0.322937 0 1.000000 1.000000 1.000000 -0.470600 0.882217 0.015134
1451 1 -11.776400 20.724999 0.638030 0 1.000000 1.000000 1.000000 -0.495682 0.868137 0.025251
1452 1 -12.164492 20.507486 0.315093 0 1.000000 1.000000 1.000000 -0.507833 0.861323 0.015138
1453 1 0.509831 12.674323 20.192393 0 1.000000 1.000000 1.000000 0.024494 0.532327 0.846185
1454 1 1.482677 12.390854 20.319294 0 1.000000 1.000000 1.000000 0.065062 0.520164 0.851585
1455 1 1.032354 12.808754 20.086969 0 1.000000 1.000000 1.000000 0.040856 0.536538 0.842886
1456 1 1.115930 13.351008 19.725886 0 1.000000 1.000000 1.000000 0.049563 0.560738 0.826508
1457 1 2.499330 12.069387 20.412309 0 1.000000 1.000000 1.000000 0.107435 0.506408 0.855575
1458 1 2.032898 12.513059 20.196041 0 1.000000 1.000000 1.000000 0.083038 0.524438 0.847390
1459 1 2.126904 13.068592 19.830928 0 1.000000 1.000000 1.000000 0.091744 0.548637 0.831012
1460 1 1.660259 13.488641 19.593098 0 1.000000 1.000000 1.000000 0.067540 0.565012 0.822314
1461 1 1.748944 14.033924 19.198158 0 1.000000 1.000000 1.000000 0.075733 0.589404 0.804281
1462 1 3.556247 11.707519 20.465585 0 1.000000 1.000000 1.000000 0.151466 0.490967 0.857910
1463 1 3.076190 12.177544 20.268368 0 1.000000 1.000000 1.000000 0.127041 0.510664 0.850343
1464 1 3.181665 12.745268 19.899363 0 1.000000 1.000000 1.000000 0.135732 0.534823 0.833991
1465 1 2.698810 13.192644 19.678191 0 1.000000 1.000000 1.000000 0.111299 0.552881 0.825794
1466 1 2.797414 13.751250 19.277632 0 1.000000 1.000000 1.000000 0.119504 0.577310 0.807733
1467 1 2.314192 14.172481 19.035429 0 1.000000 1.000000 1.000000 0.095340 0.593659 0.799049
1468 1 2.406611 14.717307 18.605434 0 1.000000 1.000000 1.000000 0.102913 0.618080 0.779350
1469 1 4.648437 11.303369 20.473242 0 1.000000 1.000000 1.000000 0.196950 0.473773 0.858341
1470 1 4.157938 11.799888 20.298022 0 1.000000 1.000000 1.000000 0.172683 0.495109 0.851497
1471 1 4.275849 12.378402 19.925213 0 1.000000 1.000000 1.000000 0.181348 0.519194 0.835195
1472 1 3.779632 12.853757 19.723771 0 1.000000 1.000000 1.000000 0.156856 0.538946 0.827607
1473 1 3.889049 13.424535 19.317790 0 1.000000 1.000000 1.000000 0.165060 0.563374 0.809546
1474 1 3.389685 13.874652 19.092823 0 1.000000 1.000000 1.000000 0.140627 0.581433 0.801349
1475 1 3.491206 14.432624 18.655634 0 1.000000 1.000000 1.000000 0.148221 0.605921 0.781595
1476 1 2.991353 14.854048 18.410448 0 1.000000 1.000000 1.000000 0.124131 0.622220 0.772938
1477 1 3.085769 15.394486 17.944793 0 1.000000 1.000000 1.000000 0.130981 0.646484 0.751600
1478 1 5.769390 10.855775 20.429642 0 1.000000 1.000000 1.000000 0.243620 0.454789 0.856631
1479 1 5.272327 11.378391 20.279167 0 1.000000 1.000000 1.000000 0.219716 0.477692 0.850609
1480 1 5.403509 11.965974 19.902584 0 1.000000 1.000000 1.000000 0.228344 0.501678 0.834373
1481 1 4.897530 12.469465 19.723851 0 1.000000 1.000000 1.000000 0.203990 0.523091 0.827504
1482 1 5.018563 13.050941 19.312634 0 1.000000 1.000000 1.000000 0.212183 0.547486 0.809467
1483 1 4.506299 13.530656 19.108015 0 1.000000 1.000000 1.000000 0.187661 0.567263 0.801870
1484 1 4.617641 14.100568 18.663929 0 1.000000 1.000000 1.000000 0.195263 0.591781 0.782091
1485 1 4.101912 14.552419 18.436515 0 1.000000 1.000000 1.000000 0.170864 0.609816 0.773906
1486 1 4.204281 15.105594 17.962192 0 1.000000 1.000000 1.000000 0.177738 0.634167 0.752490
1487 1 3.687990 15.526237 17.715657 0 1.000000 1.000000 1.000000 0.153748 0.650400 0.743869
1488 1 3.782316 16.058003 17.214487 0 1.000000 1.000000 1.000000 0.159774 0.674301 0.720965
1489 1 6.911100 10.364489 20.329695 0 1.000000 1.000000 1.000000 0.291147 0.434015 0.852563
1490 1 6.411984 10.912179 20.206355 0 1.000000 1.000000 1.000000 0.267825 0.458363 0.847451
1491 1 6.557073 11.506805 19.825966 0 1.000000 1.000000 1.000000 0.276411 0.482235 0.831292
1492 1 6.045662 12.037983 19.672670 0 1.000000 1.000000 1.000000 0.252410 0.505231 0.825246
1493 1 6.178962 12.628357 19.256388 0 1.000000 1.000000 1.000000 0.260583 0.529568 0.807251
1494 1 5.657843 13.137824 19.075084 0 1.000000 1.000000 1.000000 0.236177 0.551028 0.800368
1495 1 5.779615 13.718148 18.624432 0 1.000000 1.000000 1.000000 0.243779 0.575546 0.780589
1496 1 5.251678 14.201178 18.417896 0 1.000000 1.000000 1.000000 0.219258 0.595322 0.772992
1497 1 5.362513 14.765849 17.935345 0 1.000000 1.000000 1.000000 0.226146 0.619726 0.751531
1498 1 4.830845 15.218414 17.707056 0 1.000000 1.000000 1.000000 0.201804 0.637718 0.743364
1499 1 4.931625 15.762282 17.195937 0 1.000000 1.000000 1.000000 0.207855 0.661716 0.720367
1500 1 4.399386 16.181228 16.949904 0 1.000000 1.000000 1.000000 0.183980 0.677872 0.711787
1501 1 4.491220 16.699815 16.414248 0 1.000000 1.000000 1.000000 0.189094 0.701194 0.687438
1502 1 8.064191 9.830348 20.169210 0 1.000000 1.000000 1.000000 0.339147 0.411499 0.845960
1503 1 7.568055 10.401400 20.074868 0 1.000000 1.000000 1.000000 0.316628 0.437117 0.841828
1504 1 7.727416 11.000770 19.690582 0 1.000000 1.000000 1.000000 0.325171 0.460871 0.825749
1505 1 7.215549 11.558486 19.565021 0 1.000000 1.000000 1.000000 0.301753 0.485318 0.820616
1506 1 7.361550 12.155653 19.143829 0 1.000000 1.000000 1.000000 0.309901 0.509583 0.802675
1507 1 6.836373 12.694347 18.988492 0 1.000000 1.000000 1.000000 0.285837 0.532641 0.796612
1508 1 6.969020 13.283231 18.531640 0 1.000000 1.000000 1.000000 0.293431 0.557134 0.776853
1509 1 6.433381 13.797566 18.348883 0 1.000000 1.000000 1.000000 0.269003 0.578614 0.769963
1510 1 6.553080 14.372178 17.858634 0 1.000000 1.000000 1.000000 0.275897 0.603039 0.748482
1511 1 6.010149 14.857431 17.651633 0 1.000000 1.000000 1.000000 0.251401 0.622796 0.740893
1512 1 6.117677 15.412155 17.131201 0 1.000000 1.000000 1.000000 0.257466 0.646858 0.717834
1513 1 5.570821 15.864440 16.903794 0 1.000000 1.000000 1.000000 0.233199 0.664797 0.709692
1514 1 5.667271 16.394299 16.357199 0 1.000000 1.000000 1.000000 0.238334 0.688214 0.685243
1515 1 5.119910 16.810727 16.113685 0 1.000000 1.000000 1.000000 0.214577 0.704291 0.676706
1516 1 5.206613 17.311585 15.545551 0 1.000000 1.000000 1.000000 0.218709 0.726809 0.651087
1517 1 9.218181 9.255387 19.945231 0 1.000000 1.000000 1.000000 0.387190 0.387335 0.836693
1518 1 8.730403 9.847379 19.881060 0 1.000000 1.000000 1.000000 0.365693 0.413998 0.833591
1519 1 8.904067 10.448982 19.492748 0 1.000000 1.000000 1.000000 0.374196 0.437643 0.817585
1520 1 8.397215 11.031322 19.396613 0 1.000000 1.000000 1.000000 0.351594 0.463357 0.813438
1521 1 8.556070 11.632912 18.970663 0 1.000000 1.000000 1.000000 0.359714 0.487545 0.795553
1522 1 8.032271 12.199528 18.843440 0 1.000000 1.000000 1.000000 0.336233 0.512060 0.790406
1523 1 8.176017 12.794825 18.380795 0 1.000000 1.000000 1.000000 0.343814 0.536514 0.770678
1524 1 7.637942 13.339834 18.224332 0 1.000000 1.000000 1.000000 0.319715 0.559606 0.764607
1525 1 7.766737 13.922521 17.727005 0 1.000000 1.000000 1.000000 0.326608 0.584030 0.743126
1526 1 7.217514 14.440529 17.544065 0 1.000000 1.000000 1.000000 0.302181 0.605510 0.736236
1527 1 7.331971 15.004566 17.015100 0 1.000000 1.000000 1.000000 0.308255 0.629607 0.713144
1528 1 6.775065 15.490938 16.809237 0 1.000000 1.000000 1.000000 0.283799 0.649333 0.705567
1529 1 6.876205 16.030856 16.252584 0 1.000000 1.000000 1.000000 0.288948 0.672814 0.681051
1530 1 6.315267 16.481931 16.027951 0 1.000000 1.000000 1.000000 0.264757 0.690697 0.672935
1531 1 6.404442 16.993085 15.448270 0 1.000000 1.000000 1.000000 0.268905 0.713299 0.647221
1532 1 5.843149 17.406310 15.209384 0 1.000000 1.000000 1.000000 0.245257 0.729304 0.638722
1533 1 5.921943 17.885050 14.611806 0 1.000000 1.000000 1.000000 0.248358 0.750801 0.612059
1534 1 10.361860 8.642894 19.656332 0 1.000000 1.000000 1.000000 0.434817 0.361667 0.824700
1535 1 9.887933 9.252718 19.622696 0 1.000000 1.000000 1.000000 0.414543 0.389106 0.822649
1536 1 10.075551 9.853905 19.230215 0 1.000000 1.000000 1.000000 0.423013 0.412664 0.806702
1537 1 9.579462 10.458177 19.164438 0 1.000000 1.000000 1.000000 0.401452 0.439408 0.803590
1538 1 9.750997 11.061619 18.733889 0 1.000000 1.000000 1.000000 0.409548 0.463526 0.785757
1539 1 9.234456 11.654014 18.636249 0 1.000000 1.000000 1.000000 0.386890 0.489304 0.781600
1540 1 9.389253 12.253324 18.168263 0 1.000000 1.000000 1.000000 0.394457 0.513713 0.761907
1541 1 8.854612 12.827518 18.040032 0 1.000000 1.000000 1.000000 0.370937 0.538268 0.756752
1542 1 8.992529 13.416136 17.536342 0 1.000000 1.000000 1.000000 0.377825 0.562678 0.735284
1543 1 8.442728 13.966129 17.379779 0 1.000000 1.000000 1.000000 0.353714 0.585782 0.729209
1544 1 8.564149 14.537649 16.843209 0 1.000000 1.000000 1.000000 0.359791 0.609893 0.706103
1545 1 8.002615 15.058077 16.661471 0 1.000000 1.000000 1.000000 0.335379 0.631359 0.699218
1546 1 8.108425 15.606575 16.095840 0 1.000000 1.000000 1.000000 0.340537 0.654878 0.674662
1547 1 7.538921 16.092982 15.892816 0 1.000000 1.000000 1.000000 0.316125 0.674569 0.667099
1548 1 7.630441 16.613304 15.302758 0 1.000000 1.000000 1.000000 0.320283 0.697227 0.641321
1549 1 7.056899 17.062333 15.082845 0 1.000000 1.000000 1.000000 0.296162 0.715060 0.633228
1550 1 7.135781 17.550322 14.473567 0 1.000000 1.000000 1.000000 0.299273 0.736622 0.606485
1551 1 6.562118 17.959814 14.241415 0 1.000000 1.000000 1.000000 0.275713 0.752568 0.598017
1552 1 6.630227 18.412436 13.618423 0 1.000000 1.000000 1.000000 0.277762 0.772844 0.570579
1553 1 11.483768 7.997359 19.302830 0 1.000000 1.000000 1.000000 0.481559 0.334689 0.809990
1554 1 11.029039 8.621303 19.299209 0 1.000000 1.000000 1.000000 0.462680 0.362598 0.808980
1555 1 11.229859 9.219381 18.902439 0 1.000000 1.000000 1.000000 0.471130 0.386100 0.793072
1556 1 10.750297 9.842158 18.867080 0 1.000000 1.000000 1.000000 0.450815 0.413592 0.791016
1557 1 10.933971 10.444764 18.432125 0 1.000000 1.000000 1.000000 0.458893 0.437658 0.773222
1558 1 10.430758 11.059952 18.364710 0 1.000000 1.000000 1.000000 0.437291 0.464452 0.770105
1559 1 10.596251 11.660696 17.891895 0 1.000000 1.000000 1.000000 0.444845 0.488822 0.750444
1560 1 10.071286 12.261673 17.793088 0 1.000000 1.000000 1.000000 0.422154 0.514636 0.746281
1561 1 10.218106 12.853851 17.283846 0 1.000000 1.000000 1.000000 0.429036 0.539025 0.724831
1562 1 9.673989 13.434120 17.155332 0 1.000000 1.000000 1.000000 0.405497 0.563599 0.719672
1563 1 9.802232 14.011041 16.612229 0 1.000000 1.000000 1.000000 0.411574 0.587709 0.696566
1564 1 9.242192 14.564578 16.456670 0 1.000000 1.000000 1.000000 0.387463 0.610814 0.690492
1565 1 9.352544 15.119920 15.883338 0 1.000000 1.000000 1.000000 0.392624 0.634351 0.665917
1566 1 8.780312 15.641489 15.704247 0 1.000000 1.000000 1.000000 0.368234 0.655800 0.659037
1567 1 8.873996 16.169620 15.105227 0 1.000000 1.000000 1.000000 0.372398 0.678490 0.633222
1568 1 8.293629 16.655029 14.906763 0 1.000000 1.000000 1.000000 0.348027 0.698150 0.625671
1569 1 8.372310 17.151278 14.287271 0 1.000000 1.000000 1.000000 0.351143 0.719752 0.598878
1570 1 7.788004 17.597543 14.073988 0 1.000000 1.000000 1.000000 0.327076 0.737546 0.590802
1571 1 7.853662 18.058378 13.439638 0 1.000000 1.000000 1.000000 0.329129 0.757862 0.563310
1572 1 7.269548 18.463779 13.216225 0 1.000000 1.000000 1.000000 0.305627 0.773770 0.554862
1573 1 7.324341 18.886882 12.572735 0 1.000000 1.000000 1.000000 0.306633 0.792651 0.526955
1574 1 12.572735 7.324341 18.886882 0 1.000000 1.000000 1.000000 0.526955 0.306633 0.792651
1575 1 12.142138 7.958217 18.911863 0 1.000000 1.000000 1.000000 0.509610 0.334686 0.792643
1576 1 12.355009 8.550551 18.510750 0 1.000000 1.000000 1.000000 0.518052 0.358168 0.776748
1577 1 11.897459 9.187771 18.504947 0 1.000000 1.000000 1.000000 0.499160 0.386096 0.775738
1578 1 12.092361 9.786835 18.065840 0 1.000000 1.000000 1.000000 0.507228 0.410134 0.757964
1579 1 11.608435 10.421051 18.028376 0 1.000000 1.000000 1.000000 0.486893 0.437654 0.755906
1580 1 11.783942 11.020559 17.551315 0 1.000000 1.000000 1.000000 0.494437 0.461997 0.736268
1581 1 11.274970 11.645016 17.482248 0 1.000000 1.000000 1.000000 0.472814 0.488817 0.733148
1582 1 11.430207 12.238228 16.968363 0 1.000000 1.000000 1.000000 0.479689 0.513186 0.711715
1583 1 10.898307 12.846086 16.868768 0 1.000000 1.000000 1.000000 0.456982 0.539019 0.707549
1584 1 11.033034 13.426129 16.320340 0 1.000000 1.000000 1.000000 0.463057 0.563122 0.684450
1585 1 10.481075 14.010816 16.192316 0 1.000000 1.000000 1.000000 0.439513 0.587703 0.679289
1586 1 10.595714 14.571047 15.612742 0 1.000000 1.000000 1.000000 0.444675 0.611246 0.654708
1587 1 10.027223 15.126615 15.459324 0 1.000000 1.000000 1.000000 0.420571 0.634344 0.648635
1588 1 10.122833 15.660977 14.852988 0 1.000000 1.000000 1.000000 0.424738 0.657051 0.622801
1589 1 9.541839 16.182413 14.677983 0 1.000000 1.000000 1.000000 0.400367 0.678483 0.615927
1590 1 9.620034 16.685743 14.050039 0 1.000000 1.000000 1.000000 0.403487 0.700107 0.589108
1591 1 9.030872 17.169199 13.857792 0 1.000000 1.000000 1.000000 0.379144 0.719745 0.581564
1592 1 9.093692 17.637454 13.213891 0 1.000000 1.000000 1.000000 0.381199 0.740081 0.554046
1593 1 8.500789 18.080369 13.009020 0 1.000000 1.000000 1.000000 0.357161 0.757855 0.545978
1594 1 8.550551 18.510750 12.355009 0 1.000000 1.000000 1.000000 0.358168 0.776748 0.518052
1595 1 7.958217 18.911863 12.142138 0 1.000000 1.000000 1.000000 0.334686 0.792643 0.509610
1596 1 7.997359 19.302830 11.483768 0 1.000000 1.000000 1.000000 0.334689 0.809990 0.481559
1597 1 13.618423 6.630227 18.412436 0 1.000000 1.000000 1.000000 0.570579 0.277762 0.772844
1598 1 13.216225 7.269548 18.463779 0 1.000000 1.000000 1.000000 0.554862 0.305627 0.773770
1599 1 13.439638 7.853662 18.058378 0 1.000000 1.000000 1.000000 0.563310 0.329129 0.757862
1600 1 13.009020 8.500789 18.080369 0 1.000000 1.000000 1.000000 0.545978 0.357161 0.757855
1601 1 13.213891 9.093692 17.637454 0 1.000000 1.000000 1.000000 0.554046 0.381199 0.740081
1602 1 12.754783 9.742518 17.628729 0 1.000000 1.000000 1.000000 0.535154 0.409126 0.739071
1603 1 12.939302 10.338129 17.148088 0 1.000000 1.000000 1.000000 0.542695 0.433460 0.719441
1604 1 12.452387 10.981954 17.108138 0 1.000000 1.000000 1.000000 0.522352 0.460989 0.717382
1605 1 12.615287 11.573609 16.590614 0 1.000000 1.000000 1.000000 0.529224 0.485347 0.695960
1606 1 12.102078 12.205426 16.519905 0 1.000000 1.000000 1.000000 0.507591 0.512178 0.692838
1607 1 12.242745 12.786183 15.967482 0 1.000000 1.000000 1.000000 0.513664 0.536274 0.669746
1608 1 11.705600 13.399029 15.867511 0 1.000000 1.000000 1.000000 0.490951 0.562114 0.665579
1609 1 11.824141 13.962027 15.283313 0 1.000000 1.000000 1.000000 0.496112 0.585657 0.640998
1610 1 11.266214 14.549359 15.156568 0 1.000000 1.000000 1.000000 0.472569 0.610238 0.635837
1611 1 11.363457 15.088188 14.544764 0 1.000000 1.000000 1.000000 0.476736 0.632950 0.609997
1612 1 10.788568 15.644239 14.394602 0 1.000000 1.000000 1.000000 0.452640 0.656042 0.603925
1613 1 10.866004 16.153290 13.760216 0 1.000000 1.000000 1.000000 0.455761 0.677675 0.577095
1614 1 10.278465 16.673357 13.590657 0 1.000000 1.000000 1.000000 0.431403 0.699097 0.570223
1615 1 10.338129 17.148088 12.939302 0 1.000000 1.000000 1.000000 0.433460 0.719441 0.542695
1616 1 9.742518 17.628729 12.754783 0 1.000000 1.000000 1.000000 0.409126 0.739071 0.535154
1617 1 9.786835 18.065840 12.092361 0 1.000000 1.000000 1.000000 0.410134 0.757964 0.507228
1618 1 9.187771 18.504947 11.897459 0 1.000000 1.000000 1.000000 0.386096 0.775738 0.499160
1619 1 9.219381 18.902439 11.229859 0 1.000000 1.000000 1.000000 0.386100 0.793072 0.471130
1620 1 8.621303 19.299209 11.029039 0 1.000000 1.000000 1.000000 0.362598 0.808980 0.462680
1621 1 8.642894 19.656332 10.361860 0 1.000000 1.000000 1.000000 0.361667 0.824700 0.434817
1622 1 14.611806 5.921943 17.885050 0 1.000000 1.000000 1.000000 0.612059 0.248358 0.750801
1623 1 14.241415 6.562118 17.959814 0 1.000000 1.000000 1.000000 0.598017 0.275713 0.752568
1624 1 14.473567 7.135781 17.550322 0 1.000000 1.000000 1.000000 0.606485 0.299273 0.736622
1625 1 14.073988 7.788004 17.597543 0 1.000000 1.000000 1.000000 0.590802 0.327076 0.737546
1626 1 14.287271 8.372310 17.151278 0 1.000000 1.000000 1.000000 0.598878 0.351143 0.719752
1627 1 13.857792 9.030872 17.169199 0 1.000000 1.000000 1.000000 0.581564 0.379144 0.719745
1628 1 14.050039 9.620034 16.685743 0 1.000000 1.000000 1.000000 0.589108 0.403487 0.700107
1629 1 13.590657 10.278465 16.673357 0 1.000000 1.000000 1.000000 0.570223 0.431403 0.699097
1630 1 13.760216 10.866004 16.153290 0 1.000000 1.000000 1.000000 0.577095 0.455761 0.677675
1631 1 13.271760 11.517324 16.110497 0 1.000000 1.000000 1.000000 0.556752 0.483290 0.675617
1632 1 13.417629 12.096347 15.555507 0 1.000000 1.000000 1.000000 0.562823 0.507383 0.652528
1633 1 12.901823 12.733390 15.483201 0 1.000000 1.000000 1.000000 0.541188 0.534216 0.649406
1634 1 13.023753 13.296929 14.896121 0 1.000000 1.000000 1.000000 0.546350 0.557758 0.624826
1635 1 12.483216 13.912721 14.796203 0 1.000000 1.000000 1.000000 0.523636 0.583599 0.620659
1636 1 12.581748 14.454114 14.180941 0 1.000000 1.000000 1.000000 0.527803 0.606313 0.594818
1637 1 12.019917 15.042250 14.056247 0 1.000000 1.000000 1.000000 0.504261 0.630893 0.589657
1638 1 12.096347 15.555507 13.417629 0 1.000000 1.000000 1.000000 0.507383 0.652528 0.562823
1639 1 11.517324 16.110497 13.271760 0 1.000000 1.000000 1.000000 0.483290 0.675617 0.556752
1640 1 11.573609 16.590614 12.615287 0 1.000000 1.000000 1.000000 0.485347 0.695960 0.529224
1641 1 10.981954 17.108138 12.452387 0 1.000000 1.000000 1.000000 0.460989 0.717382 0.522352
1642 1 11.020559 17.551315 11.783942 0 1.000000 1.000000 1.000000 0.461997 0.736268 0.494437
1643 1 10.421051 18.028376 11.608435 0 1.000000 1.000000 1.000000 0.437654 0.755906 0.486893
1644 1 10.444764 18.432125 10.933971 0 1.000000 1.000000 1.000000 0.437658 0.773222 0.458893
1645 1 9.842158 18.867080 10.750297 0 1.000000 1.000000 1.000000 0.413592 0.791016 0.450815
1646 1 9.853905 19.230215 10.075551 0 1.000000 1.000000 1.000000 0.412664 0.806702 0.423013
1647 1 9.252718 19.622696 9.887933 0 1.000000 1.000000 1.000000 0.389106 0.822649 0.414543
1648 1 9.255387 19.945231 9.218181 0 1.000000 1.000000 1.000000 0.387335 0.836693 0.387190
1649 1 15.545551 5.206613 17.311585 0 1.000000 1.000000 1.000000 0.651087 0.218709 0.726809
1650 1 15.209384 5.843149 17.406310 0 1.000000 1.000000 1.000000 0.638722 0.245257 0.729304
1651 1 15.448270 6.404442 16.993085 0 1.000000 1.000000 1.000000 0.647221 0.268905 0.713299
1652 1 15.082845 7.056899 17.062333 0 1.000000 1.000000 1.000000 0.633228 0.296162 0.715060
1653 1 15.302758 7.630441 16.613304 0 1.000000 1.000000 1.000000 0.641321 0.320283 0.697227
1654 1 14.906763 8.293629 16.655029 0 1.000000 1.000000 1.000000 0.625671 0.348027 0.698150
1655 1 15.105227 8.873996 16.169620 0 1.000000 1.000000 1.000000 0.633222 0.372398 0.678490
1656 1 14.677983 9.541839 16.182413 0 1.000000 1.000000 1.000000 0.615927 0.400367 0.678483
1657 1 14.852988 10.122833 15.660977 0 1.000000 1.000000 1.000000 0.622801 0.424738 0.657051
1658 1 14.394602 10.788568 15.644239 0 1.000000 1.000000 1.000000 0.603925 0.452640 0.656042
1659 1 14.544764 11.363457 15.088188 0 1.000000 1.000000 1.000000 0.609997 0.476736 0.632950
1660 1 14.056247 12.019917 15.042250 0 1.000000 1.000000 1.000000 0.589657 0.504261 0.630893
1661 1 14.180941 12.581748 14.454114 0 1.000000 1.000000 1.000000 0.594818 0.527803 0.606313
1662 1 13.664254 13.221718 14.380292 0 1.000000 1.000000 1.000000 0.573183 0.554636 0.603192
1663 1 13.763686 13.763686 13.763686 0 1.000000 1.000000 1.000000 0.577350 0.577350 0.577350
1664 1 13.221718 14.380292 13.664254 0 1.000000 1.000000 1.000000 0.554636 0.603192 0.573183
1665 1 13.296929 14.896121 13.023753 0 1.000000 1.000000 1.000000 0.557758 0.624826 0.546350
1666 1 12.733390 15.483201 12.901823 0 1.000000 1.000000 1.000000 0.534216 0.649406 0.541188
1667 1 12.786183 15.967482 12.242745 0 1.000000 1.000000 1.000000 0.536274 0.669746 0.513664
1668 1 12.205426 16.519905 12.102078 0 1.000000 1.000000 1.000000 0.512178 0.692838 0.507591
1669 1 12.238228 16.968363 11.430207 0 1.000000 1.000000 1.000000 0.513186 0.711715 0.479689
1670 1 11.645016 17.482248 11.274970 0 1.000000 1.000000 1.000000 0.488817 0.733148 0.472814
1671 1 11.660696 17.891895 10.596251 0 1.000000 1.000000 1.000000 0.488822 0.750444 0.444845
1672 1 11.059952 18.364710 10.430758 0 1.000000 1.000000 1.000000 0.464452 0.770105 0.437291
1673 1 11.061619 18.733889 9.750997 0 1.000000 1.000000 1.000000 0.463526 0.785757 0.409548
1674 1 10.458177 19.164438 9.579462 0 1.000000 1.000000 1.000000 0.439408 0.803590 0.401452
1675 1 10.448982 19.492748 8.904067 0 1.000000 1.000000 1.000000 0.437643 0.817585 0.374196
1676 1 9.847379 19.881060 8.730403 0 1.000000 1.000000 1.000000 0.413998 0.833591 0.365693
1677 1 9.830348 20.169210 8.064191 0 1.000000 1.000000 1.000000 0.411499 0.845960 0.339147
1678 1 16.414248 4.491220 16.699815 0 1.000000 1.000000 1.000000 0.687438 0.189094 0.701194
1679 1 16.113685 5.119910 16.810727 0 1.000000 1.000000 1.000000 0.676706 0.214577 0.704291
1680 1 16.357199 5.667271 16.394299 0 1.000000 1.000000 1.000000 0.685243 0.238334 0.688214
1681 1 16.027951 6.315267 16.481931 0 1.000000 1.000000 1.000000 0.672935 0.264757 0.690697
1682 1 16.252584 6.876205 16.030856 0 1.000000 1.000000 1.000000 0.681051 0.288948 0.672814
1683 1 15.892816 7.538921 16.092982 0 1.000000 1.000000 1.000000 0.667099 0.316125 0.674569
1684 1 16.095840 8.108425 15.606575 0 1.000000 1.000000 1.000000 0.674662 0.340537 0.654878
1685 1 15.704247 8.780312 15.641489 0 1.000000 1.000000 1.000000 0.659037 0.368234 0.655800
1686 1 15.883338 9.352544 15.119920 0 1.000000 1.000000 1.000000 0.665917 0.392624 0.634351
1687 1 15.459324 10.027223 15.126615 0 1.000000 1.000000 1.000000 0.648635 0.420571 0.634344
1688 1 15.612742 10.595714 14.571047 0 1.000000 1.000000 1.000000 0.654708 0.444675 0.611246
1689 1 15.156568 11.266214 14.549359 0 1.000000 1.000000 1.000000 0.635837 0.472569 0.610238
1690 1 15.283313 11.824141 13.962027 0 1.000000 1.000000 1.000000 0.640998 0.496112 0.585657
1691 1 14.796203 12.483216 13.912721 0 1.000000 1.000000 1.000000 0.620659 0.523636 0.583599
1692 1 14.896121 13.023753 13.296929 0 1.000000 1.000000 1.000000 0.624826 0.546350 0.557758
1693 1 14.380292 13.664254 13.221718 0 1.000000 1.000000 1.000000 0.603192 0.573183 0.554636
1694 1 14.454114 14.180941 12.581748 0 1.000000 1.000000 1.000000 0.606313 0.594818 0.527803
1695 1 13.912721 14.796203 12.483216 0 1.000000 1.000000 1.000000 0.583599 0.620659 0.523636
1696 1 13.962027 15.283313 11.824141 0 1.000000 1.000000 1.000000 0.585657 0.640998 0.496112
1697 1 13.399029 15.867511 11.705600 0 1.000000 1.000000 1.000000 0.562114 0.665579 0.490951
1698 1 13.426129 16.320340 11.033034 0 1.000000 1.000000 1.000000 0.563122 0.684450 0.463057
1699 1 12.846086 16.868768 10.898307 0 1.000000 1.000000 1.000000 0.539019 0.707549 0.456982
1700 1 12.853851 17.283846 10.218106 0 1.000000 1.000000 1.000000 0.539025 0.724831 0.429036
1701 1 12.261673 17.793088 10.071286 0 1.000000 1.000000 1.000000 0.514636 0.746281 0.422154
1702 1 12.253324 18.168263 9.389253 0 1.000000 1.000000 1.000000 0.513713 0.761907 0.394457
1703 1 11.654014 18.636249 9.234456 0 1.000000 1.000000 1.000000 0.489304 0.781600 0.386890
1704 1 11.632912 18.970663 8.556070 0 1.000000 1.000000 1.000000 0.487545 0.795553 0.359714
1705 1 11.031322 19.396613 8.397215 0 1.000000 1.000000 1.000000 0.463357 0.813438 0.351594
1706 1 11.000770 19.690582 7.727416 0 1.000000 1.000000 1.000000 0.460871 0.825749 0.325171
1707 1 10.401400 20.074868 7.568055 0 1.000000 1.000000 1.000000 0.437117 0.841828 0.316628
1708 1 10.364489 20.329695 6.911100 0 1.000000 1.000000 1.000000 0.434015 0.852563 0.291147
1709 1 17.214487 3.782316 16.058003 0 1.000000 1.000000 1.000000 0.720965 0.159774 0.674301
1710 1 16.949904 4.399386 16.181228 0 1.000000 1.000000 1.000000 0.711787 0.183980 0.677872
1711 1 17.195937 4.931625 15.762282 0 1.000000 1.000000 1.000000 0.720367 0.207855 0.661716
1712 1 16.903794 5.570821 15.864440 0 1.000000 1.000000 1.000000 0.709692 0.233199 0.664797
1713 1 17.131201 6.117677 15.412155 0 1.000000 1.000000 1.000000 0.717834 0.257466 0.646858
1714 1 16.809237 6.775065 15.490938 0 1.000000 1.000000 1.000000 0.705567 0.283799 0.649333
1715 1 17.015100 7.331971 15.004566 0 1.000000 1.000000 1.000000 0.713144 0.308255 0.629607
1716 1 16.661471 8.002615 15.058077 0 1.000000 1.000000 1.000000 0.699218 0.335379 0.631359
1717 1 16.843209 8.564149 14.537649 0 1.000000 1.000000 1.000000 0.706103 0.359791 0.609893
1718 1 16.456670 9.242192 14.564578 0 1.000000 1.000000 1.000000 0.690492 0.387463 0.610814
1719 1 16.612229 9.802232 14.011041 0 1.000000 1.000000 1.000000 0.696566 0.411574 0.587709
1720 1 16.192316 10.481075 14.010816 0 1.000000 1.000000 1.000000 0.679289 0.439513 0.587703
1721 1 16.320340 11.033034 13.426129 0 1.000000 1.000000 1.000000 0.684450 0.463057 0.563122
1722 1 15.867511 11.705600 13.399029 0 1.000000 1.000000 1.000000 0.665579 0.490951 0.562114
1723 1 15.967482 12.242745 12.786183 0 1.000000 1.000000 1.000000 0.669746 0.513664 0.536274
1724 1 15.483201 12.901823 12.733390 0 1.000000 1.000000 1.000000 0.649406 0.541188 0.534216
1725 1 15.555507 13.417629 12.096347 0 1.000000 1.000000 1.000000 0.652528 0.562823 0.507383
1726 1 15.042250 14.056247 12.019917 0 1.000000 1.000000 1.000000 0.630893 0.589657 0.504261
1727 1 15.088188 14.544764 11.363457 0 1.000000 1.000000 1.000000 0.632950 0.609997 0.476736
1728 1 14.549359 15.156568 11.266214 0 1.000000 1.000000 1.000000 0.610238 0.635837 0.472569
1729 1 14.571047 15.612742 10.595714 0 1.000000 1.000000 1.000000 0.611246 0.654708 0.444675
1730 1 14.010816 16.192316 10.481075 0 1.000000 1.000000 1.000000 0.587703 0.679289 0.439513
1731 1 14.011041 16.612229 9.802232 0 1.000000 1.000000 1.000000 0.587709 0.696566 0.411574
1732 1 13.434120 17.155332 9.673989 0 1.000000 1.000000 1.000000 0.563599 0.719672 0.405497
1733 1 13.416136 17.536342 8.992529 0 1.000000 1.000000 1.000000 0.562678 0.735284 0.377825
1734 1 12.827518 18.040032 8.854612 0 1.000000 1.000000 1.000000 0.538268 0.756752 0.370937
1735 1 12.794825 18.380795 8.176017 0 1.000000 1.000000 1.000000 0.536514 0.770678 0.343814
1736 1 12.199528 18.843440 8.032271 0 1.000000 1.000000 1.000000 0.512060 0.790406 0.336233
1737 1 12.155653 19.143829 7.361550 0 1.000000 1.000000 1.000000 0.509583 0.802675 0.309901
1738 1 11.558486 19.565021 7.215549 0 1.000000 1.000000 1.000000 0.485318 0.820616 0.301753
1739 1 11.506805 19.825966 6.557073 0 1.000000 1.000000 1.000000 0.482235 0.831292 0.276411
1740 1 10.912179 20.206355 6.411984 0 1.000000 1.000000 1.000000 0.458363 0.847451 0.267825
1741 1 10.855775 20.429642 5.769390 0 1.000000 1.000000 1.000000 0.454789 0.856631 0.243620
1742 1 17.944793 3.085769 15.394486 0 1.000000 1.000000 1.000000 0.751600 0.130981 0.646484
1743 1 17.715657 3.687990 15.526237 0 1.000000 1.000000 1.000000 0.743869 0.153748 0.650400
1744 1 17.962192 4.204281 15.105594 0 1.000000 1.000000 1.000000 0.752490 0.177738 0.634167
1745 1 17.707056 4.830845 15.218414 0 1.000000 1.000000 1.000000 0.743364 0.201804 0.637718
1746 1 17.935345 5.362513 14.765849 0 1.000000 1.000000 1.000000 0.751531 0.226146 0.619726
1747 1 17.651633 6.010149 14.857431 0 1.000000 1.000000 1.000000 0.740893 0.251401 0.622796
1748 1 17.858634 6.553080 14.372178 0 1.000000 1.000000 1.000000 0.748482 0.275897 0.603039
1749 1 17.544065 7.217514 14.440529 0 1.000000 1.000000 1.000000 0.736236 0.302181 0.605510
1750 1 17.727005 7.766737 13.922521 0 1.000000 1.000000 1.000000 0.743126 0.326608 0.584030
1751 1 17.379779 8.442728 13.966129 0 1.000000 1.000000 1.000000 0.729209 0.353714 0.585782
1752 1 17.536342 8.992529 13.416136 0 1.000000 1.000000 1.000000 0.735284 0.377825 0.562678
1753 1 17.155332 9.673989 13.434120 0 1.000000 1.000000 1.000000 0.719672 0.405497 0.563599
1754 1 17.283846 10.218106 12.853851 0 1.000000 1.000000 1.000000 0.724831 0.429036 0.539025
1755 1 16.868768 10.898307 12.846086 0 1.000000 1.000000 1.000000 0.707549 0.456982 0.539019
1756 1 16.968363 11.430207 12.238228 0 1.000000 1.000000 1.000000 0.711715 0.479689 0.513186
1757 1 16.519905 12.102078 12.205426 0 1.000000 1.000000 1.000000 0.692838 0.507591 0.512178
1758 1 16.590614 12.615287 11.573609 0 1.000000 1.000000 1.000000 0.695960 0.529224 0.485347
1759 1 16.110497 13.271760 11.517324 0 1.000000 1.000000 1.000000 0.675617 0.556752 0.483290
1760 1 16.153290 13.760216 10.866004 0 1.000000 1.000000 1.000000 0.677675 0.577095 0.455761
1761 1 15.644239 14.394602 10.788568 0 1.000000 1.000000 1.000000 0.656042 0.603925 0.452640
1762 1 15.660977 14.852988 10.122833 0 1.000000 1.000000 1.000000 0.657051 0.622801 0.424738
1763 1 15.126615 15.459324 10.027223 0 1.000000 1.000000 1.000000 0.634344 0.648635 0.420571
1764 1 15.119920 15.883338 9.352544 0 1.000000 1.000000 1.000000 0.634351 0.665917 0.392624
1765 1 14.564578 16.456670 9.242192 0 1.000000 1.000000 1.000000 0.610814 0.690492 0.387463
1766 1 14.537649 16.843209 8.564149 0 1.000000 1.000000 1.000000 0.609893 0.706103 0.359791
1767 1 13.966129 17.379779 8.442728 0 1.000000 1.000000 1.000000 0.585782 0.729209 0.353714
1768 1 13.922521 17.727005 7.766737 0 1.000000 1.000000 1.000000 0.584030 0.743126 0.326608
1769 1 13.339834 18.224332 7.637942 0 1.000000 1.000000 1.000000 0.559606 0.764607 0.319715
1770 1 13.283231 18.531640 6.969020 0 1.000000 1.000000 1.000000 0.557134 0.776853 0.293431
1771 1 12.694347 18.988492 6.836373 0 1.000000 1.000000 1.000000 0.532641 0.796612 0.285837
1772 1 12.628357 19.256388 6.178962 0 1.000000 1.000000 1.000000 0.529568 0.807251 0.260583
1773 1 12.037983 19.672670 6.045662 0 1.000000 1.000000 1.000000 0.505231 0.825246 0.252410
1774 1 11.965974 19.902584 5.403509 0 1.000000 1.000000 1.000000 0.501678 0.834373 0.228344
1775 1 11.378391 20.279167 5.272327 0 1.000000 1.000000 1.000000 0.477692 0.850609 0.219716
1776 1 11.303369 20.473242 4.648437 0 1.000000 1.000000 1.000000 0.473773 0.858341 0.196950
1777 1 18.605434 2.406611 14.717307 0 1.000000 1.000000 1.000000 0.779350 0.102913 0.618080
1778 1 18.410448 2.991353 14.854048 0 1.000000 1.000000 1.000000 0.772938 0.124131 0.622220
1779 1 18.655634 3.491206 14.432624 0 1.000000 1.000000 1.000000 0.781595 0.148221 0.605921
1780 1 18.436515 4.101912 14.552419 0 1.000000 1.000000 1.000000 0.773906 0.170864 0.609816
1781 1 18.663929 4.617641 14.100568 0 1.000000 1.000000 1.000000 0.782091 0.195263 0.591781
1782 1 18.417896 5.251678 14.201178 0 1.000000 1.000000 1.000000 0.772992 0.219258 0.595322
1783 1 18.624432 5.779615 13.718148 0 1.000000 1.000000 1.000000 0.780589 0.243779 0.575546
1784 1 18.348883 6.433381 13.797566 0 1.000000 1.000000 1.000000 0.769963 0.269003 0.578614
1785 1 18.531640 6.969020 13.283231 0 1.000000 1.000000 1.000000 0.776853 0.293431 0.557134
1786 1 18.224332 7.637942 13.339834 0 1.000000 1.000000 1.000000 0.764607 0.319715 0.559606
1787 1 18.380795 8.176017 12.794825 0 1.000000 1.000000 1.000000 0.770678 0.343814 0.536514
1788 1 18.040032 8.854612 12.827518 0 1.000000 1.000000 1.000000 0.756752 0.370937 0.538268
1789 1 18.168263 9.389253 12.253324 0 1.000000 1.000000 1.000000 0.761907 0.394457 0.513713
1790 1 17.793088 10.071286 12.261673 0 1.000000 1.000000 1.000000 0.746281 0.422154 0.514636
1791 1 17.891895 10.596251 11.660696 0 1.000000 1.000000 1.000000 0.750444 0.444845 0.488822
1792 1 17.482248 11.274970 11.645016 0 1.000000 1.000000 1.000000 0.733148 0.472814 0.488817
1793 1 17.551315 11.783942 11.020559 0 1.000000 1.000000 1.000000 0.736268 0.494437 0.461997
1794 1 17.108138 12.452387 10.981954 0 1.000000 1.000000 1.000000 0.717382 0.522352 0.460989
1795 1 17.148088 12.939302 10.338129 0 1.000000 1.000000 1.000000 0.719441 0.542695 0.433460
1796 1 16.673357 13.590657 10.278465 0 1.000000 1.000000 1.000000 0.699097 0.570223 0.431403
1797 1 16.685743 14.050039 9.620034 0 1.000000 1.000000 1.000000 0.700107 0.589108 0.403487
1798 1 16.182413 14.677983 9.541839 0 1.000000 1.000000 1.000000 0.678483 0.615927 0.400367
1799 1 16.169620 15.105227 8.873996 0 1.000000 1.000000 1.000000 0.678490 0.633222 0.372398
1800 1 15.641489 15.704247 8.780312 0 1.000000 1.000000 1.000000 0.655800 0.659037 0.368234
1801 1 15.606575 16.095840 8.108425 0 1.000000 1.000000 1.000000 0.654878 0.674662 0.340537
1802 1 15.058077 16.661471 8.002615 0 1.000000 1.000000 1.000000 0.631359 0.699218 0.335379
1803 1 15.004566 17.015100 7.331971 0 1.000000 1.000000 1.000000 0.629607 0.713144 0.308255
1804 1 14.440529 17.544065 7.217514 0 1.000000 1.000000 1.000000 0.605510 0.736236 0.302181
1805 1 14.372178 17.858634 6.553080 0 1.000000 1.000000 1.000000 0.603039 0.748482 0.275897
1806 1 13.797566 18.348883 6.433381 0 1.000000 1.000000 1.000000 0.578614 0.769963 0.269003
1807 1 13.718148 18.624432 5.779615 0 1.000000 1.000000 1.000000 0.575546 0.780589 0.243779
1808 1 13.137824 19.075084 5.657843 0 1.000000 1.000000 1.000000 0.551028 0.800368 0.236177
1809 1 13.050941 19.312634 5.018563 0 1.000000 1.000000 1.000000 0.547486 0.809467 0.212183
1810 1 12.469465 19.723851 4.897530 0 1.000000 1.000000 1.000000 0.523091 0.827504 0.203990
1811 1 12.378402 19.925213 4.275849 0 1.000000 1.000000 1.000000 0.519194 0.835195 0.181348
1812 1 11.799888 20.298022 4.157938 0 1.000000 1.000000 1.000000 0.495109 0.851497 0.172683
1813 1 11.707519 20.465585 3.556247 0 1.000000 1.000000 1.000000 0.490967 0.857910 0.151466
1814 1 19.198158 1.748944 14.033924 0 1.000000 1.000000 1.000000 0.804281 0.075733 0.589404
1815 1 19.035429 2.314192 14.172481 0 1.000000 1.000000 1.000000 0.799049 0.095340 0.593659
1816 1 19.277632 2.797414 13.751250 0 1.000000 1.000000 1.000000 0.807733 0.119504 0.577310
1817 1 19.092823 3.389685 13.874652 0 1.000000 1.000000 1.000000 0.801349 0.140627 0.581433
1818 1 19.317790 3.889049 13.424535 0 1.000000 1.000000 1.000000 0.809546 0.165060 0.563374
1819 1 19.108015 4.506299 13.530656 0 1.000000 1.000000 1.000000 0.801870 0.187661 0.567263
1820 1 19.312634 5.018563 13.050941 0 1.000000 1.000000 1.000000 0.809467 0.212183 0.547486
1821 1 19.075084 5.657843 13.137824 0 1.000000 1.000000 1.000000 0.800368 0.236177 0.551028
1822 1 19.256388 6.178962 12.628357 0 1.000000 1.000000 1.000000 0.807251 0.260583 0.529568
1823 1 18.988492 6.836373 12.694347 0 1.000000 1.000000 1.000000 0.796612 0.285837 0.532641
1824 1 19.143829 7.361550 12.155653 0 1.000000 1.000000 1.000000 0.802675 0.309901 0.509583
1825 1 18.843440 8.032271 12.199528 0 1.000000 1.000000 1.000000 0.790406 0.336233 0.512060
1826 1 18.970663 8.556070 11.632912 0 1.000000 1.000000 1.000000 0.795553 0.359714 0.487545
1827 1 18.636249 9.234456 11.654014 0 1.000000 1.000000 1.000000 0.781600 0.386890 0.489304
1828 1 18.733889 9.750997 11.061619 0 1.000000 1.000000 1.000000 0.785757 0.409548 0.463526
1829 1 18.364710 10.430758 11.059952 0 1.000000 1.000000 1.000000 0.770105 0.437291 0.464452
1830 1 18.432125 10.933971 10.444764 0 1.000000 1.000000 1.000000 0.773222 0.458893 0.437658
1831 1 18.028376 11.608435 10.421051 0 1.000000 1.000000 1.000000 0.755906 0.486893 0.437654
1832 1 18.065840 12.092361 9.786835 0 1.000000 1.000000 1.000000 0.757964 0.507228 0.410134
1833 1 17.628729 12.754783 9.742518 0 1.000000 1.000000 1.000000 0.739071 0.535154 0.409126
1834 1 17.637454 13.213891 9.093692 0 1.000000 1.000000 1.000000 0.740081 0.554046 0.381199
1835 1 17.169199 13.857792 9.030872 0 1.000000 1.000000 1.000000 0.719745 0.581564 0.379144
1836 1 17.151278 14.287271 8.372310 0 1.000000 1.000000 1.000000 0.719752 0.598878 0.351143
1837 1 16.655029 14.906763 8.293629 0 1.000000 1.000000 1.000000 0.698150 0.625671 0.348027
1838 1 16.613304 15.302758 7.630441 0 1.000000 1.000000 1.000000 0.697227 0.641321 0.320283
1839 1 16.092982 15.892816 7.538921 0 1.000000 1.000000 1.000000 0.674569 0.667099 0.316125
1840 1 16.030856 16.252584 6.876205 0 1.000000 1.000000 1.000000 0.672814 0.681051 0.288948
1841 1 15.490938 16.809237 6.775065 0 1.000000 1.000000 1.000000 0.649333 0.705567 0.283799
1842 1 15.412155 17.131201 6.117677 0 1.000000 1.000000 1.000000 0.646858 0.717834 0.257466
1843 1 14.857431 17.651633 6.010149 0 1.000000 1.000000 1.000000 0.622796 0.740893 0.251401
1844 1 14.765849 17.935345 5.362513 0 1.000000 1.000000 1.000000 0.619726 0.751531 0.226146
1845 1 14.201178 18.417896 5.251678 0 1.000000 1.000000 1.000000 0.595322 0.772992 0.219258
1846 1 14.100568 18.663929 4.617641 0 1.000000 1.000000 1.000000 0.591781 0.782091 0.195263
1847 1 13.530656 19.108015 4.506299 0 1.000000 1.000000 1.000000 0.567263 0.801870 0.187661
1848 1 13.424535 19.317790 3.889049 0 1.000000 1.000000 1.000000 0.563374 0.809546 0.165060
1849 1 12.853757 19.723771 3.779632 0 1.000000 1.000000 1.000000 0.538946 0.827607 0.156856
1850 1 12.745268 19.899363 3.181665 0 1.000000 1.000000 1.000000 0.534823 0.833991 0.135732
1851 1 12.177544 20.268368 3.076190 0 1.000000 1.000000 1.000000 0.510664 0.850343 0.127041
1852 1 12.069387 20.412309 2.499330 0 1.000000 1.000000 1.000000 0.506408 0.855575 0.107435
1853 1 19.725886 1.115930 13.351008 0 1.000000 1.000000 1.000000 0.826508 0.049563 0.560738
1854 1 19.593098 1.660259 13.488641 0 1.000000 1.000000 1.000000 0.822314 0.067540 0.565012
1855 1 19.830928 2.126904 13.068592 0 1.000000 1.000000 1.000000 0.831012 0.091744 0.548637
1856 1 19.678191 2.698810 13.192644 0 1.000000 1.000000 1.000000 0.825794 0.111299 0.552881
1857 1 19.899363 3.181665 12.745268 0 1.000000 1.000000 1.000000 0.833991 0.135732 0.534823
1858 1 19.723771 3.779632 12.853757 0 1.000000 1.000000 1.000000 0.827607 0.156856 0.538946
1859 1 19.925213 4.275849 12.378402 0 1.000000 1.000000 1.000000 0.835195 0.181348 0.519194
1860 1 19.723851 4.897530 12.469465 0 1.000000 1.000000 1.000000 0.827504 0.203990 0.523091
1861 1 19.902584 5.403509 11.965974 0 1.000000 1.000000 1.000000 0.834373 0.228344 0.501678
1862 1 19.672670 6.045662 12.037983 0 1.000000 1.000000 1.000000 0.825246 0.252410 0.505231
1863 1 19.825966 6.557073 11.506805 0 1.000000 1.000000 1.000000 0.831292 0.276411 0.482235
1864 1 19.565021 7.215549 11.558486 0 1.000000 1.000000 1.000000 0.820616 0.301753 0.485318
1865 1 19.690582 7.727416 11.000770 0 1.000000 1.000000 1.000000 0.825749 0.325171 0.460871
1866 1 19.396613 8.397215 11.031322 0 1.000000 1.000000 1.000000 0.813438 0.351594 0.463357
1867 1 19.492748 8.904067 10.448982 0 1.000000 1.000000 1.000000 0.817585 0.374196 0.437643
1868 1 19.164438 9.579462 10.458177 0 1.000000 1.000000 1.000000 0.803590 0.401452 0.439408
1869 1 19.230215 10.075551 9.853905 0 1.000000 1.000000 1.000000 0.806702 0.423013 0.412664
1870 1 18.867080 10.750297 9.842158 0 1.000000 1.000000 1.000000 0.791016 0.450815 0.413592
1871 1 18.902439 11.229859 9.219381 0 1.000000 1.000000 1.000000 0.793072 0.471130 0.386100
1872 1 18.504947 11.897459 9.187771 0 1.000000 1.000000 1.000000 0.775738 0.499160 0.386096
1873 1 18.510750 12.355009 8.550551 0 1.000000 1.000000 1.000000 0.776748 0.518052 0.358168
1874 1 18.080369 13.009020 8.500789 0 1.000000 1.000000 1.000000 0.757855 0.545978 0.357161
1875 1 18.058378 13.439638 7.853662 0 1.000000 1.000000 1.000000 0.757862 0.563310 0.329129
1876 1 17.597543 14.073988 7.788004 0 1.000000 1.000000 1.000000 0.737546 0.590802 0.327076
1877 1 17.550322 14.473567 7.135781 0 1.000000 1.000000 1.000000 0.736622 0.606485 0.299273
1878 1 17.062333 15.082845 7.056899 0 1.000000 1.000000 1.000000 0.715060 0.633228 0.296162
1879 1 16.993085 15.448270 6.404442 0 1.000000 1.000000 1.000000 0.713299 0.647221 0.268905
1880 1 16.481931 16.027951 6.315267 0 1.000000 1.000000 1.000000 0.690697 0.672935 0.264757
1881 1 16.394299 16.357199 5.667271 0 1.000000 1.000000 1.000000 0.688214 0.685243 0.238334
1882 1 15.864440 16.903794 5.570821 0 1.000000 1.000000 1.000000 0.664797 0.709692 0.233199
1883 1 15.762282 17.195937 4.931625 0 1.000000 1.000000 1.000000 0.661716 0.720367 0.207855
1884 1 15.218414 17.707056 4.830845 0 1.000000 1.000000 1.000000 0.637718 0.743364 0.201804
1885 1 15.105594 17.962192 4.204281 0 1.000000 1.000000 1.000000 0.634167 0.752490 0.177738
1886 1 14.552419 18.436515 4.101912 0 1.000000 1.000000 1.000000 0.609816 0.773906 0.170864
1887 1 14.432624 18.655634 3.491206 0 1.000000 1.000000 1.000000 0.605921 0.781595 0.148221
1888 1 13.874652 19.092823 3.389685 0 1.000000 1.000000 1.000000 0.581433 0.801349 0.140627
1889 1 13.751250 19.277632 2.797414 0 1.000000 1.000000 1.000000 0.577310 0.807733 0.119504
1890 1 13.192644 19.678191 2.698810 0 1.000000 1.000000 1.000000 0.552881 0.825794 0.111299
1891 1 13.068592 19.830928 2.126904 0 1.000000 1.000000 1.000000 0.548637 0.831012 0.091744
1892 1 12.513059 20.196041 2.032898 0 1.000000 1.000000 1.000000 0.524438 0.847390 0.083038
1893 1 12.390854 20.319294 1.482677 0 1.000000 1.000000 1.000000 0.520164 0.851585 0.065062
1894 1 20.192393 0.509831 12.674323 0 1.000000 1.000000 1.000000 0.846185 0.024494 0.532327
1895 1 20.086969 1.032354 12.808754 0 1.000000 1.000000 1.000000 0.842886 0.040856 0.536538
1896 1 20.319294 1.482677 12.390854 0 1.000000 1.000000 1.000000 0.851585 0.065062 0.520164
1897 1 20.196041 2.032898 12.513059 0 1.000000 1.000000 1.000000 0.847390 0.083038 0.524438
1898 1 20.412309 2.499330 12.069387 0 1.000000 1.000000 1.000000 0.855575 0.107435 0.506408
1899 1 20.268368 3.076190 12.177544 0 1.000000 1.000000 1.000000 0.850343 0.127041 0.510664
1900 1 20.465585 3.556247 11.707519 0 1.000000 1.000000 1.000000 0.857910 0.151466 0.490967
1901 1 20.298022 4.157938 11.799888 0 1.000000 1.000000 1.000000 0.851497 0.172683 0.495109
1902 1 20.473242 4.648437 11.303369 0 1.000000 1.000000 1.000000 0.858341 0.196950 0.473773
1903 1 20.279167 5.272327 11.378391 0 1.000000 1.000000 1.000000 0.850609 0.219716 0.477692
1904 1 20.429642 5.769390 10.855775 0 1.000000 1.000000 1.000000 0.856631 0.243620 0.454789
1905 1 20.206355 6.411984 10.912179 0 1.000000 1.000000 1.000000 0.847451 0.267825 0.458363
1906 1 20.329695 6.911100 10.364489 0 1.000000 1.000000 1.000000 0.852563 0.291147 0.434015
1907 1 20.074868 7.568055 10.401400 0 1.000000 1.000000 1.000000 0.841828 0.316628 0.437117
1908 1 20.169210 8.064191 9.830348 0 1.000000 1.000000 1.000000 0.845960 0.339147 0.411499
1909 1 19.881060 8.730403 9.847379 0 1.000000 1.000000 1.000000 0.833591 0.365693 0.413998
1910 1 19.945231 9.218181 9.255387 0 1.000000 1.000000 1.000000 0.836693 0.387190 0.387335
1911 1 19.622696 9.887933 9.252718 0 1.000000 1.000000 1.000000 0.822649 0.414543 0.389106
1912 1 19.656332 10.361860 8.642894 0 1.000000 1.000000 1.000000 0.824700 0.434817 0.361667
1913 1 19.299209 11.029039 8.621303 0 1.000000 1.000000 1.000000 0.808980 0.462680 0.362598
1914 1 19.302830 11.483768 7.997359 0 1.000000 1.000000 1.000000 0.809990 0.481559 0.334689
1915 1 18.911863 12.142138 7.958217 0 1.000000 1.000000 1.000000 0.792643 0.509610 0.334686
1916 1 18.886882 12.572735 7.324341 0 1.000000 1.000000 1.000000 0.792651 0.526955 0.306633
1917 1 18.463779 13.216225 7.269548 0 1.000000 1.000000 1.000000 0.773770 0.554862 0.305627
1918 1 18.412436 13.618423 6.630227 0 1.000000 1.000000 1.000000 0.772844 0.570579 0.277762
1919 1 17.959814 14.241415 6.562118 0 1.000000 1.000000 1.000000 0.752568 0.598017 0.275713
1920 1 17.885050 14.611806 5.921943 0 1.000000 1.000000 1.000000 0.750801 0.612059 0.248358
1921 1 17.406310 15.209384 5.843149 0 1.000000 1.000000 1.000000 0.729304 0.638722 0.245257
1922 1 17.311585 15.545551 5.206613 0 1.000000 1.000000 1.000000 0.726809 0.651087 0.218709
1923 1 16.810727 16.113685 5.119910 0 1.000000 1.000000 1.000000 0.704291 0.676706 0.214577
1924 1 16.699815 16.414248 4.491220 0 1.000000 1.000000 1.000000 0.701194 0.687438 0.189094
1925 1 16.181228 16.949904 4.399386 0 1.000000 1.000000 1.000000 0.677872 0.711787 0.183980
1926 1 16.058003 17.214487 3.782316 0 1.000000 1.000000 1.000000 0.674301 0.720965 0.159774
1927 1 15.526237 17.715657 3.687990 0 1.000000 1.000000 1.000000 0.650400 0.743869 0.153748
1928 1 15.394486 17.944793 3.085769 0 1.000000 1.000000 1.000000 0.646484 0.751600 0.130981
1929 1 14.854048 18.410448 2.991353 0 1.000000 1.000000 1.000000 0.622220 0.772938 0.124131
1930 1 14.717307 18.605434 2.406611 0 1.000000 1.000000 1.000000 0.618080 0.779350 0.102913
1931 1 14.172481 19.035429 2.314192 0 1.000000 1.000000 1.000000 0.593659 0.799049 0.095340
1932 1 14.033924 19.198158 1.748944 0 1.000000 1.000000 1.000000 0.589404 0.804281 0.075733
1933 1 13.488641 19.593098 1.660259 0 1.000000 1.000000 1.000000 0.565012 0.822314 0.067540
1934 1 13.351008 19.725886 1.115930 0 1.000000 1.000000 1.000000 0.560738 0.826508 0.049563
1935 1 12.808754 20.086969 1.032354 0 1.000000 1.000000 1.000000 0.536538 0.842886 0.040856
1936 1 12.674323 20.192393 0.509831 0 1.000000 1.000000 1.000000 0.532327 0.846185 0.024494
1937 1 0.315093 12.164492 20.507486 0 1.000000 1.000000 1.000000 0.015138 0.507833 0.861323
1938 1 0.322937 11.274924 21.008977 0 1.000000 1.000000 1.000000 0.015134 0.470600 0.882217
1939 1 0.638030 11.776400 20.724999 0 1.000000 1.000000 1.000000 0.025251 0.495682 0.868137
1940 1 1.283091 11.868331 20.642231 0 1.000000 1.000000 1.000000 0.055708 0.495677 0.866719
1941 1 0.330521 10.320443 21.493216 0 1.000000 1.000000 1.000000 0.015104 0.430675 0.902381
1942 1 0.653457 10.852800 21.222137 0 1.000000 1.000000 1.000000 0.026244 0.456898 0.889132
1943 1 1.314499 10.941688 21.145427 0 1.000000 1.000000 1.000000 0.056701 0.456893 0.887713
1944 1 1.629039 11.455743 20.849498 0 1.000000 1.000000 1.000000 0.066818 0.481974 0.873634
1945 1 2.295057 11.534594 20.742830 0 1.000000 1.000000 1.000000 0.098100 0.481969 0.870679
1946 1 0.337731 9.300909 21.952952 0 1.000000 1.000000 1.000000 0.015051 0.388054 0.921514
1947 1 0.668251 9.863352 21.698618 0 1.000000 1.000000 1.000000 0.027222 0.415324 0.909266
1948 1 1.344646 9.947855 21.628259 0 1.000000 1.000000 1.000000 0.057629 0.415319 0.907849
1949 1 1.667957 10.493834 21.346147 0 1.000000 1.000000 1.000000 0.068786 0.441582 0.894580
1950 1 2.350628 10.569586 21.244008 0 1.000000 1.000000 1.000000 0.100116 0.441578 0.891620
1951 1 2.663188 11.096291 20.936619 0 1.000000 1.000000 1.000000 0.110217 0.466618 0.877565
1952 1 3.347518 11.161060 20.803315 0 1.000000 1.000000 1.000000 0.142164 0.466614 0.872961
1953 1 0.344442 8.217600 22.380353 0 1.000000 1.000000 1.000000 0.014981 0.342792 0.939292
1954 1 0.682173 8.808535 22.146780 0 1.000000 1.000000 1.000000 0.028165 0.370978 0.928214
1955 1 1.373041 8.887196 22.082897 0 1.000000 1.000000 1.000000 0.058479 0.370973 0.926800
1956 1 1.704993 9.464072 21.818711 0 1.000000 1.000000 1.000000 0.070684 0.398319 0.914520
1957 1 2.403564 9.535486 21.721354 0 1.000000 1.000000 1.000000 0.102013 0.398314 0.911559
1958 1 2.725888 10.095020 21.428764 0 1.000000 1.000000 1.000000 0.113171 0.424577 0.898291
1959 1 3.427263 10.156775 21.298254 0 1.000000 1.000000 1.000000 0.145205 0.424573 0.893674
1960 1 3.736332 10.696109 20.980195 0 1.000000 1.000000 1.000000 0.155276 0.449537 0.879663
1961 1 4.435560 10.746050 20.817685 0 1.000000 1.000000 1.000000 0.187692 0.449533 0.873322
1962 1 0.350525 7.073459 22.767241 0 1.000000 1.000000 1.000000 0.014899 0.295015 0.955376
1963 1 0.694967 7.690401 22.558470 0 1.000000 1.000000 1.000000 0.029053 0.323944 0.945630
1964 1 1.399161 7.761693 22.500973 0 1.000000 1.000000 1.000000 0.059242 0.323940 0.944221
1965 1 1.739504 8.367553 22.258973 0 1.000000 1.000000 1.000000 0.072474 0.352227 0.933104
1966 1 2.452937 8.433300 22.166494 0 1.000000 1.000000 1.000000 0.103760 0.352223 0.930147
1967 1 2.785046 9.024357 21.893061 0 1.000000 1.000000 1.000000 0.115981 0.379603 0.917851
1968 1 3.502565 9.082005 21.765572 0 1.000000 1.000000 1.000000 0.148055 0.379599 0.913227
1969 1 3.822458 9.654889 21.463355 0 1.000000 1.000000 1.000000 0.159199 0.405826 0.899978
1970 1 4.538780 9.702085 21.301745 0 1.000000 1.000000 1.000000 0.191731 0.405823 0.893615
1971 1 4.842813 10.253911 20.974134 0 1.000000 1.000000 1.000000 0.201761 0.430684 0.879661
1972 1 5.552754 10.288613 20.780167 0 1.000000 1.000000 1.000000 0.234412 0.430681 0.871530
1973 1 0.355848 5.873269 23.105422 0 1.000000 1.000000 1.000000 0.014814 0.244921 0.969430
1974 1 0.706373 6.512793 22.925325 0 1.000000 1.000000 1.000000 0.029861 0.274384 0.961157
1975 1 1.422465 6.575180 22.873879 0 1.000000 1.000000 1.000000 0.059905 0.274380 0.959754
1976 1 1.770810 7.207138 22.658297 0 1.000000 1.000000 1.000000 0.074116 0.303426 0.949968
1977 1 2.497766 7.265844 22.570603 0 1.000000 1.000000 1.000000 0.105329 0.303423 0.947017
1978 1 2.839550 7.886146 22.320800 0 1.000000 1.000000 1.000000 0.118590 0.331770 0.935877
1979 1 3.571998 7.938533 22.196430 0 1.000000 1.000000 1.000000 0.150664 0.331767 0.931252
1980 1 3.902904 8.543335 21.914635 0 1.000000 1.000000 1.000000 0.162884 0.359146 0.918958
1981 1 4.635258 8.586887 21.754154 0 1.000000 1.000000 1.000000 0.195486 0.359143 0.912580
1982 1 4.951241 9.172752 21.443481 0 1.000000 1.000000 1.000000 0.206604 0.385308 0.899362
1983 1 5.677941 9.205209 21.248431 0 1.000000 1.000000 1.000000 0.239387 0.385306 0.891198
1984 1 5.975421 9.769244 20.912728 0 1.000000 1.000000 1.000000 0.249370 0.410048 0.877312
1985 1 6.691173 9.788715 20.685542 0 1.000000 1.000000 1.000000 0.281992 0.410046 0.867377
1986 1 0.360285 4.623735 23.387074 0 1.000000 1.000000 1.000000 0.014732 0.192790 0.981129
1987 1 0.716133 5.281490 23.239146 0 1.000000 1.000000 1.000000 0.030565 0.222540 0.974444
1988 1 1.442422 5.333499 23.193149 0 1.000000 1.000000 1.000000 0.060461 0.222537 0.973048
1989 1 1.798228 5.987665 23.007977 0 1.000000 1.000000 1.000000 0.075570 0.252120 0.964741
1990 1 2.537059 6.037976 22.924761 0 1.000000 1.000000 1.000000 0.106689 0.252117 0.961798
1991 1 2.888252 6.684198 22.702969 0 1.000000 1.000000 1.000000 0.120938 0.281240 0.951986
1992 1 3.634085 6.730152 22.581666 0 1.000000 1.000000 1.000000 0.152979 0.281237 0.947366
1993 1 3.976048 7.364185 22.324931 0 1.000000 1.000000 1.000000 0.166253 0.309610 0.936216
1994 1 4.723032 7.403158 22.165726 0 1.000000 1.000000 1.000000 0.198885 0.309608 0.929832
1995 1 5.051336 8.021057 21.876744 0 1.000000 1.000000 1.000000 0.211094 0.336959 0.917550
1996 1 5.793561 8.050605 21.680889 0 1.000000 1.000000 1.000000 0.243964 0.336957 0.909363
1997 1 6.104183 8.648891 21.363249 0 1.000000 1.000000 1.000000 0.255049 0.363044 0.896186
1998 1 6.835950 8.666883 21.133004 0 1.000000 1.000000 1.000000 0.287804 0.363043 0.886210
1999 1 7.125461 9.242672 20.791001 0 1.000000 1.000000 1.000000 0.297739 0.387663 0.872393
2000 1 7.841522 9.247394 20.529495 0 1.000000 1.000000 1.000000 0.330042 0.387662 0.860692
2001 1 0.363724 3.333444 23.605194 0 1.000000 1.000000 1.000000 0.014662 0.138976 0.990187
2002 1 0.724010 4.004230 23.492325 0 1.000000 1.000000 1.000000 0.031141 0.168741 0.985168
2003 1 1.458538 4.044540 23.450911 0 1.000000 1.000000 1.000000 0.060901 0.168738 0.983778
2004 1 1.821102 4.716055 23.299663 0 1.000000 1.000000 1.000000 0.076793 0.198600 0.977068
2005 1 2.569863 4.756707 23.220391 0 1.000000 1.000000 1.000000 0.107814 0.198597 0.974133
2006 1 2.930014 5.424463 23.030661 0 1.000000 1.000000 1.000000 0.122964 0.228261 0.965804
2007 1 3.687361 5.462854 22.912202 0 1.000000 1.000000 1.000000 0.154954 0.228259 0.961191
2008 1 4.040241 6.122321 22.685000 0 1.000000 1.000000 1.000000 0.169224 0.257424 0.951365
2009 1 4.800107 6.155784 22.527112 0 1.000000 1.000000 1.000000 0.201855 0.257422 0.944981
2010 1 5.140936 6.802588 22.264572 0 1.000000 1.000000 1.000000 0.215129 0.285795 0.933831
2011 1 5.897102 6.828549 22.068156 0 1.000000 1.000000 1.000000 0.248047 0.285793 0.925632
2012 1 6.221423 7.458666 21.773454 0 1.000000 1.000000 1.000000 0.260237 0.313100 0.913370
2013 1 6.967807 7.474786 21.540526 0 1.000000 1.000000 1.000000 0.293082 0.313099 0.903367
2014 1 7.271712 8.084716 21.217715 0 1.000000 1.000000 1.000000 0.304133 0.339103 0.890231
2015 1 8.002641 8.089018 20.951286 0 1.000000 1.000000 1.000000 0.336557 0.339103 0.878486
2016 1 8.282941 8.675906 20.605070 0 1.000000 1.000000 1.000000 0.346447 0.363610 0.864732
2017 1 8.993387 8.666869 20.308956 0 1.000000 1.000000 1.000000 0.378129 0.363611 0.851355
2018 1 0.366073 2.012667 23.754038 0 1.000000 1.000000 1.000000 0.014611 0.083905 0.996367
2019 1 0.729797 2.690600 23.678308 0 1.000000 1.000000 1.000000 0.031570 0.113393 0.993049
2020 1 1.470385 2.718124 23.640370 0 1.000000 1.000000 1.000000 0.061220 0.113392 0.991662
2021 1 1.838841 3.401278 23.525842 0 1.000000 1.000000 1.000000 0.077748 0.143246 0.986629
2022 1 2.595317 3.431177 23.449761 0 1.000000 1.000000 1.000000 0.108680 0.143244 0.983702
2023 1 2.963775 4.115093 23.295558 0 1.000000 1.000000 1.000000 0.124611 0.173179 0.976976
2024 1 3.730455 4.144899 23.179546 0 1.000000 1.000000 1.000000 0.156543 0.173177 0.972370
2025 1 4.093890 4.824904 22.985920 0 1.000000 1.000000 1.000000 0.171718 0.202889 0.964027
2026 1 4.864555 4.851987 22.829277 0 1.000000 1.000000 1.000000 0.204329 0.202887 0.957646
2027 1 5.217893 5.523401 22.597672 0 1.000000 1.000000 1.000000 0.218607 0.232069 0.947816
2028 1 5.986068 5.545120 22.400898 0 1.000000 1.000000 1.000000 0.251543 0.232067 0.939612
2029 1 6.324449 6.203465 22.133922 0 1.000000 1.000000 1.000000 0.264809 0.260422 0.928470
2030 1 7.083705 6.217322 21.898718 0 1.000000 1.000000 1.000000 0.297708 0.260421 0.918450
2031 1 7.402742 6.858525 21.600024 0 1.000000 1.000000 1.000000 0.309877 0.287679 0.906210
2032 1 8.147002 6.862308 21.329206 0 1.000000 1.000000 1.000000 0.342381 0.287679 0.894436
2033 1 8.442996 7.482870 21.003279 0 1.000000 1.000000 1.000000 0.353401 0.313608 0.881339
2034 1 9.166803 7.474771 20.700600 0 1.000000 1.000000 1.000000 0.385178 0.313609 0.867922
2035 1 9.436893 8.071881 20.352494 0 1.000000 1.000000 1.000000 0.395032 0.338025 0.854218
2036 1 10.135615 8.050576 20.022405 0 1.000000 1.000000 1.000000 0.425787 0.338026 0.839311
2037 1 0.367264 0.673019 23.829522 0 1.000000 1.000000 1.000000 0.014584 0.028056 0.999500
2038 1 0.733337 1.351755 23.792037 0 1.000000 1.000000 1.000000 0.031834 0.056972 0.997868
2039 1 1.477634 1.365719 23.756269 0 1.000000 1.000000 1.000000 0.061413 0.056971 0.996485
2040 1 1.850958 2.054154 23.680331 0 1.000000 1.000000 1.000000 0.078405 0.086517 0.993160
2041 1 2.612712 2.072453 23.606497 0 1.000000 1.000000 1.000000 0.109268 0.086515 0.990240
2042 1 2.988616 2.766323 23.490455 0 1.000000 1.000000 1.000000 0.125827 0.116425 0.985197
2043 1 3.762176 2.786700 23.376326 0 1.000000 1.000000 1.000000 0.157708 0.116424 0.980599
2044 1 4.135556 3.481361 23.219619 0 1.000000 1.000000 1.000000 0.173662 0.146402 0.973862
2045 1 4.914629 3.501306 23.064037 0 1.000000 1.000000 1.000000 0.206244 0.146401 0.967487
2046 1 5.280192 4.191927 22.867321 0 1.000000 1.000000 1.000000 0.221431 0.176136 0.959137
2047 1 6.058112 4.208810 22.670341 0 1.000000 1.000000 1.000000 0.254367 0.176135 0.950933
2048 1 6.410651 4.890589 22.435524 0 1.000000 1.000000 1.000000 0.268645 0.205316 0.941103
2049 1 7.180698 4.901814 22.198475 0 1.000000 1.000000 1.000000 0.301570 0.205315 0.931075
2050 1 7.515372 5.570202 21.928644 0 1.000000 1.000000 1.000000 0.314825 0.233646 0.919943
2051 1 8.271099 5.573368 21.654071 0 1.000000 1.000000 1.000000 0.347376 0.233645 0.908152
2052 1 8.583692 6.224270 21.353326 0 1.000000 1.000000 1.000000 0.359526 0.260859 0.895932
2053 1 9.319226 6.217307 21.044836 0 1.000000 1.000000 1.000000 0.391362 0.260859 0.882490
2054 1 9.606343 6.847246 20.718038 0 1.000000 1.000000 1.000000 0.402359 0.286731 0.869421
2055 1 10.316631 6.828519 20.380072 0 1.000000 1.000000 1.000000 0.433175 0.286732 0.854485
2056 1 10.575812 7.434739 20.032546 0 1.000000 1.000000 1.000000 0.443006 0.311090 0.840815
2057 1 11.256786 7.403114 19.670094 0 1.000000 1.000000 1.000000 0.472545 0.311092 0.824574
2058 1 0.367264 -0.673019 23.829522 0 1.000000 1.000000 1.000000 0.014584 -0.028056 0.999500
2059 1 0.734528 0.000000 23.830312 0 1.000000 1.000000 1.000000 0.031923 0.000000 0.999490
2060 1 1.480074 0.000000 23.795282 0 1.000000 1.000000 1.000000 0.061477 0.000000 0.998108
2061 1 1.857106 0.686982 23.758723 0 1.000000 1.000000 1.000000 0.078739 0.028935 0.996475
2062 1 2.621541 0.693144 23.686051 0 1.000000 1.000000 1.000000 0.109566 0.028935 0.993558
2063 1 3.003823 1.390179 23.609762 0 1.000000 1.000000 1.000000 0.126574 0.058510 0.990230
2064 1 3.781600 1.400525 23.496823 0 1.000000 1.000000 1.000000 0.158419 0.058510 0.985637
2065 1 4.164049 2.103177 23.379429 0 1.000000 1.000000 1.000000 0.174994 0.088449 0.980588
2066 1 4.948881 2.115395 23.224618 0 1.000000 1.000000 1.000000 0.207551 0.088448 0.974217
2067 1 5.326080 2.818863 23.065933 0 1.000000 1.000000 1.000000 0.223516 0.118448 0.967476
2068 1 6.111191 2.830415 22.868851 0 1.000000 1.000000 1.000000 0.256442 0.118447 0.959275
2069 1 6.477661 3.529741 22.669976 0 1.000000 1.000000 1.000000 0.271634 0.148190 0.950923
2070 1 7.256110 3.538014 22.431532 0 1.000000 1.000000 1.000000 0.304567 0.148189 0.940893
2071 1 7.606609 4.228308 22.194848 0 1.000000 1.000000 1.000000 0.318841 0.177362 0.931065
2072 1 8.371630 4.230770 21.917244 0 1.000000 1.000000 1.000000 0.351416 0.177362 0.919266
2073 1 8.701446 4.907443 21.646297 0 1.000000 1.000000 1.000000 0.364661 0.205670 0.908142
2074 1 9.446784 4.901801 21.332915 0 1.000000 1.000000 1.000000 0.396529 0.205670 0.894687
2075 1 9.751971 5.560764 21.032199 0 1.000000 1.000000 1.000000 0.408666 0.232852 0.882481
2076 1 10.472160 5.545093 20.687381 0 1.000000 1.000000 1.000000 0.439513 0.232853 0.867530
2077 1 10.749704 6.182910 20.362053 0 1.000000 1.000000 1.000000 0.450497 0.258695 0.854476
2078 1 11.440273 6.155742 19.990824 0 1.000000 1.000000 1.000000 0.480057 0.258696 0.838225
2079 1 11.688174 6.769726 19.646391 0 1.000000 1.000000 1.000000 0.489880 0.283033 0.824566
2080 1 12.345754 6.730095 19.254146 0 1.000000 1.000000 1.000000 0.517941 0.283036 0.807235
2081 1 0.366073 -2.012667 23.754038 0 1.000000 1.000000 1.000000 0.014611 -0.083905 0.996367
2082 1 0.733337 -1.351755 23.792037 0 1.000000 1.000000 1.000000 0.031834 -0.056972 0.997868
2083 1 1.477634 -1.365719 23.756269 0 1.000000 1.000000 1.000000 0.061413 -0.056971 0.996485
2084 1 1.857106 -0.686982 23.758723 0 1.000000 1.000000 1.000000 0.078739 -0.028935 0.996475
2085 1 2.621541 -0.693144 23.686051 0 1.000000 1.000000 1.000000 0.109566 -0.028935 0.993558
2086 1 3.008943 0.000000 23.649936 0 1.000000 1.000000 1.000000 0.126826 0.000000 0.991925
2087 1 3.788142 0.000000 23.537403 0 1.000000 1.000000 1.000000 0.158658 0.000000 0.987334
2088 1 4.178518 0.703490 23.460578 0 1.000000 1.000000 1.000000 0.175672 0.029586 0.984004
2089 1 4.966278 0.707605 23.306174 0 1.000000 1.000000 1.000000 0.208213 0.029586 0.977636
2090 1 5.354192 1.416858 23.187607 0 1.000000 1.000000 1.000000 0.224796 0.059538 0.972585
2091 1 6.143715 1.422726 22.990484 0 1.000000 1.000000 1.000000 0.257712 0.059537 0.964386
2092 1 6.523516 2.132815 22.830414 0 1.000000 1.000000 1.000000 0.273682 0.089545 0.957643
2093 1 7.307721 2.137885 22.591034 0 1.000000 1.000000 1.000000 0.306614 0.089544 0.947612
2094 1 7.673846 2.843758 22.391027 0 1.000000 1.000000 1.000000 0.321806 0.119287 0.939261
2095 1 8.445720 2.845444 22.111197 0 1.000000 1.000000 1.000000 0.354389 0.119287 0.927458
2096 1 8.793005 3.542161 21.874097 0 1.000000 1.000000 1.000000 0.368660 0.148451 0.917634
2097 1 9.545958 3.538003 21.556891 0 1.000000 1.000000 1.000000 0.400541 0.148451 0.904173
2098 1 9.869921 4.220970 21.286656 0 1.000000 1.000000 1.000000 0.413781 0.176745 0.893055
2099 1 10.598101 4.208786 20.936230 0 1.000000 1.000000 1.000000 0.444639 0.176746 0.878099
2100 1 10.895153 4.873946 20.637672 0 1.000000 1.000000 1.000000 0.456771 0.203917 0.865897
2101 1 11.593689 4.851949 20.258995 0 1.000000 1.000000 1.000000 0.486330 0.203919 0.849647
2102 1 11.861265 5.495927 19.937475 0 1.000000 1.000000 1.000000 0.497315 0.229759 0.836593
2103 1 12.526410 5.462801 19.536012 0 1.000000 1.000000 1.000000 0.525355 0.229762 0.819275
2104 1 12.762998 6.082984 19.197115 0 1.000000 1.000000 1.000000 0.535188 0.254118 0.805604
2105 1 13.392178 6.037909 18.778508 0 1.000000 1.000000 1.000000 0.561549 0.254121 0.787455
2106 1 0.363724 -3.333444 23.605194 0 1.000000 1.000000 1.000000 0.014662 -0.138976 0.990187
2107 1 0.729797 -2.690600 23.678308 0 1.000000 1.000000 1.000000 0.031570 -0.113393 0.993049
2108 1 1.470385 -2.718124 23.640370 0 1.000000 1.000000 1.000000 0.061220 -0.113392 0.991662
2109 1 1.850958 -2.054154 23.680331 0 1.000000 1.000000 1.000000 0.078405 -0.086517 0.993160
2110 1 2.612712 -2.072453 23.606497 0 1.000000 1.000000 1.000000 0.109268 -0.086515 0.990240
2111 1 3.003823 -1.390179 23.609762 0 1.000000 1.000000 1.000000 0.126574 -0.058510 0.990230
2112 1 3.781600 -1.400525 23.496823 0 1.000000 1.000000 1.000000 0.158419 -0.058510 0.985637
2113 1 4.178518 -0.703490 23.460578 0 1.000000 1.000000 1.000000 0.175672 -0.029586 0.984004
2114 1 4.966278 -0.707605 23.306174 0 1.000000 1.000000 1.000000 0.208213 -0.029586 0.977636
2115 1 5.363662 0.000000 23.228594 0 1.000000 1.000000 1.000000 0.225227 0.000000 0.974306
2116 1 6.154672 0.000000 23.031461 0 1.000000 1.000000 1.000000 0.258140 0.000000 0.966108
2117 1 6.546811 0.713473 22.911918 0 1.000000 1.000000 1.000000 0.274724 0.029955 0.961057
2118 1 7.333943 0.715182 22.672068 0 1.000000 1.000000 1.000000 0.307654 0.029955 0.951027
2119 1 7.715052 1.429505 22.511255 0 1.000000 1.000000 1.000000 0.323625 0.059964 0.944284
2120 1 8.491127 1.430361 22.230063 0 1.000000 1.000000 1.000000 0.356209 0.059964 0.932480
2121 1 8.855671 2.140427 22.030012 0 1.000000 1.000000 1.000000 0.371400 0.089704 0.924129
2122 1 9.613832 2.137879 21.710179 0 1.000000 1.000000 1.000000 0.403284 0.089704 0.910667
2123 1 9.956834 2.838737 21.474158 0 1.000000 1.000000 1.000000 0.417554 0.118865 0.900844
2124 1 10.690887 2.830398 21.119568 0 1.000000 1.000000 1.000000 0.448412 0.118865 0.885888
2125 1 11.008191 3.517480 20.851875 0 1.000000 1.000000 1.000000 0.461652 0.147159 0.874770
2126 1 11.712881 3.501276 20.467343 0 1.000000 1.000000 1.000000 0.491200 0.147160 0.858526
2127 1 12.001327 4.170585 20.173021 0 1.000000 1.000000 1.000000 0.503337 0.174342 0.846319
2128 1 12.672526 4.144854 19.763990 0 1.000000 1.000000 1.000000 0.531347 0.174344 0.829020
2129 1 12.930034 4.793091 19.448501 0 1.000000 1.000000 1.000000 0.542345 0.200215 0.815951
2130 1 13.564819 4.756647 19.020707 0 1.000000 1.000000 1.000000 0.568649 0.200217 0.797842
2131 1 13.790375 5.381281 18.689611 0 1.000000 1.000000 1.000000 0.578506 0.224632 0.784138
2132 1 14.387012 5.333425 18.248774 0 1.000000 1.000000 1.000000 0.602997 0.224635 0.765463
2133 1 0.360285 -4.623735 23.387074 0 1.000000 1.000000 1.000000 0.014732 -0.192790 0.981129
2134 1 0.724010 -4.004230 23.492325 0 1.000000 1.000000 1.000000 0.031141 -0.168741 0.985168
2135 1 1.458538 -4.044540 23.450911 0 1.000000 1.000000 1.000000 0.060901 -0.168738 0.983778
2136 1 1.838841 -3.401278 23.525842 0 1.000000 1.000000 1.000000 0.077748 -0.143246 0.986629
2137 1 2.595317 -3.431177 23.449761 0 1.000000 1.000000 1.000000 0.108680 -0.143244 0.983702
2138 1 2.988616 -2.766323 23.490455 0 1.000000 1.000000 1.000000 0.125827 -0.116425 0.985197
2139 1 3.762176 -2.786700 23.376326 0 1.000000 1.000000 1.000000 0.157708 -0.116424 0.980599
2140 1 4.164049 -2.103177 23.379429 0 1.000000 1.000000 1.000000 0.174994 -0.088449 0.980588
2141 1 4.948881 -2.115395 23.224618 0 1.000000 1.000000 1.000000 0.207551 -0.088448 0.974217
2142 1 5.354192 -1.416858 23.187607 0 1.000000 1.000000 1.000000 0.224796 -0.059538 0.972585
2143 1 6.143715 -1.422726 22.990484 0 1.000000 1.000000 1.000000 0.257712 -0.059537 0.964386
2144 1 6.546811 -0.713473 22.911918 0 1.000000 1.000000 1.000000 0.274724 -0.029955 0.961057
2145 1 7.333943 -0.715182 22.672068 0 1.000000 1.000000 1.000000 0.307654 -0.029955 0.951027
2146 1 7.728935 0.000000 22.551762 0 1.000000 1.000000 1.000000 0.324238 0.000000 0.945976
2147 1 8.506426 0.000000 22.270112 0 1.000000 1.000000 1.000000 0.356822 0.000000 0.934172
2148 1 8.887509 0.716038 22.109227 0 1.000000 1.000000 1.000000 0.372793 0.030009 0.927429
2149 1 9.648315 0.715179 21.788057 0 1.000000 1.000000 1.000000 0.404677 0.030009 0.913967
2150 1 10.010095 1.426954 21.589061 0 1.000000 1.000000 1.000000 0.419868 0.059749 0.905616
2151 1 10.747740 1.422717 21.231903 0 1.000000 1.000000 1.000000 0.450722 0.059750 0.890662
2152 1 11.085529 2.125303 20.998431 0 1.000000 1.000000 1.000000 0.464994 0.088913 0.880838
2153 1 11.794411 2.115375 20.609858 0 1.000000 1.000000 1.000000 0.494528 0.088914 0.864602
2154 1 12.104458 2.804266 20.346462 0 1.000000 1.000000 1.000000 0.507775 0.117220 0.853478
2155 1 12.780075 2.786668 19.931795 0 1.000000 1.000000 1.000000 0.535754 0.117222 0.836198
2156 1 13.059697 3.457948 19.643644 0 1.000000 1.000000 1.000000 0.547905 0.144433 0.823977
2157 1 13.698764 3.431130 19.208621 0 1.000000 1.000000 1.000000 0.574154 0.144435 0.805907
2158 1 13.946379 4.081593 18.901173 0 1.000000 1.000000 1.000000 0.585177 0.170362 0.792808
2159 1 14.546844 4.044478 18.451623 0 1.000000 1.000000 1.000000 0.609582 0.170365 0.774200
2160 1 14.761921 4.671676 18.130320 0 1.000000 1.000000 1.000000 0.619475 0.194870 0.760445
2161 1 15.322883 4.623659 17.671870 0 1.000000 1.000000 1.000000 0.641983 0.194872 0.741541
2162 1 0.355848 -5.873269 23.105422 0 1.000000 1.000000 1.000000 0.014814 -0.244921 0.969430
2163 1 0.716133 -5.281490 23.239146 0 1.000000 1.000000 1.000000 0.030565 -0.222540 0.974444
2164 1 1.442422 -5.333499 23.193149 0 1.000000 1.000000 1.000000 0.060461 -0.222537 0.973048
2165 1 1.821102 -4.716055 23.299663 0 1.000000 1.000000 1.000000 0.076793 -0.198600 0.977068
2166 1 2.569863 -4.756707 23.220391 0 1.000000 1.000000 1.000000 0.107814 -0.198597 0.974133
2167 1 2.963775 -4.115093 23.295558 0 1.000000 1.000000 1.000000 0.124611 -0.173179 0.976976
2168 1 3.730455 -4.144899 23.179546 0 1.000000 1.000000 1.000000 0.156543 -0.173177 0.972370
2169 1 4.135556 -3.481361 23.219619 0 1.000000 1.000000 1.000000 0.173662 -0.146402 0.973862
2170 1 4.914629 -3.501306 23.064037 0 1.000000 1.000000 1.000000 0.206244 -0.146401 0.967487
2171 1 5.326080 -2.818863 23.065933 0 1.000000 1.000000 1.000000 0.223516 -0.118448 0.967476
2172 1 6.111191 -2.830415 22.868851 0 1.000000 1.000000 1.000000 0.256442 -0.118447 0.959275
2173 1 6.523516 -2.132815 22.830414 0 1.000000 1.000000 1.000000 0.273682 -0.089545 0.957643
2174 1 7.307721 -2.137885 22.591034 0 1.000000 1.000000 1.000000 0.306614 -0.089544 0.947612
2175 1 7.715052 -1.429505 22.511255 0 1.000000 1.000000 1.000000 0.323625 -0.059964 0.944284
2176 1 8.491127 -1.430361 22.230063 0 1.000000 1.000000 1.000000 0.356209 -0.059964 0.932480
2177 1 8.887509 -0.716038 22.109227 0 1.000000 1.000000 1.000000 0.372793 -0.030009 0.927429
2178 1 9.648315 -0.715179 21.788057 0 1.000000 1.000000 1.000000 0.404677 -0.030009 0.913967
2179 1 10.028039 -0.000000 21.627773 0 1.000000 1.000000 1.000000 0.420648 0.000000 0.907224
2180 1 10.766892 -0.000000 21.269748 0 1.000000 1.000000 1.000000 0.451500 0.000000 0.892271
2181 1 11.124813 0.710943 21.072875 0 1.000000 1.000000 1.000000 0.466692 0.029742 0.883920
2182 1 11.835818 0.707598 20.682239 0 1.000000 1.000000 1.000000 0.496218 0.029742 0.867688
2183 1 12.167625 1.409444 20.452695 0 1.000000 1.000000 1.000000 0.510494 0.058914 0.857861
2184 1 12.845931 1.400508 20.034549 0 1.000000 1.000000 1.000000 0.538451 0.058915 0.840595
2185 1 13.148333 2.088841 19.777045 0 1.000000 1.000000 1.000000 0.551708 0.087244 0.829461
2186 1 13.790292 2.072423 19.337029 0 1.000000 1.000000 1.000000 0.577913 0.087245 0.811421
2187 1 14.061102 2.743433 19.056757 0 1.000000 1.000000 1.000000 0.590085 0.114501 0.799180
2188 1 14.664321 2.718079 18.600719 0 1.000000 1.000000 1.000000 0.614419 0.114502 0.780627
2189 1 14.902448 3.368662 18.303033 0 1.000000 1.000000 1.000000 0.625474 0.140504 0.767490
2190 1 15.465733 3.333384 17.836721 0 1.000000 1.000000 1.000000 0.647876 0.140506 0.748675
2191 1 15.671091 3.961182 17.526861 0 1.000000 1.000000 1.000000 0.657816 0.165123 0.734856
2192 1 16.194322 3.915447 17.055663 0 1.000000 1.000000 1.000000 0.678283 0.165125 0.716007
2193 1 0.350525 -7.073459 22.767241 0 1.000000 1.000000 1.000000 0.014899 -0.295015 0.955376
2194 1 0.706373 -6.512793 22.925325 0 1.000000 1.000000 1.000000 0.029861 -0.274384 0.961157
2195 1 1.422465 -6.575180 22.873879 0 1.000000 1.000000 1.000000 0.059905 -0.274380 0.959754
2196 1 1.798228 -5.987665 23.007977 0 1.000000 1.000000 1.000000 0.075570 -0.252120 0.964741
2197 1 2.537059 -6.037976 22.924761 0 1.000000 1.000000 1.000000 0.106689 -0.252117 0.961798
2198 1 2.930014 -5.424463 23.030661 0 1.000000 1.000000 1.000000 0.122964 -0.228261 0.965804
2199 1 3.687361 -5.462854 22.912202 0 1.000000 1.000000 1.000000 0.154954 -0.228259 0.961191
2200 1 4.093890 -4.824904 22.985920 0 1.000000 1.000000 1.000000 0.171718 -0.202889 0.964027
2201 1 4.864555 -4.851987 22.829277 0 1.000000 1.000000 1.000000 0.204329 -0.202887 0.957646
2202 1 5.280192 -4.191927 22.867321 0 1.000000 1.000000 1.000000 0.221431 -0.176136 0.959137
2203 1 6.058112 -4.208810 22.670341 0 1.000000 1.000000 1.000000 0.254367 -0.176135 0.950933
2204 1 6.477661 -3.529741 22.669976 0 1.000000 1.000000 1.000000 0.271634 -0.148190 0.950923
2205 1 7.256110 -3.538014 22.431532 0 1.000000 1.000000 1.000000 0.304567 -0.148189 0.940893
2206 1 7.673846 -2.843758 22.391027 0 1.000000 1.000000 1.000000 0.321806 -0.119287 0.939261
2207 1 8.445720 -2.845444 22.111197 0 1.000000 1.000000 1.000000 0.354389 -0.119287 0.927458
2208 1 8.855671 -2.140427 22.030012 0 1.000000 1.000000 1.000000 0.371400 -0.089704 0.924129
2209 1 9.613832 -2.137879 21.710179 0 1.000000 1.000000 1.000000 0.403284 -0.089704 0.910667
2210 1 10.010095 -1.426954 21.589061 0 1.000000 1.000000 1.000000 0.419868 -0.059749 0.905616
2211 1 10.747740 -1.422717 21.231903 0 1.000000 1.000000 1.000000 0.450722 -0.059750 0.890662
2212 1 11.124813 -0.710943 21.072875 0 1.000000 1.000000 1.000000 0.466692 -0.029742 0.883920
2213 1 11.835818 -0.707598 20.682239 0 1.000000 1.000000 1.000000 0.496218 -0.029742 0.867688
2214 1 12.188901 -0.000000 20.488476 0 1.000000 1.000000 1.000000 0.511410 0.000000 0.859337
2215 1 12.868110 -0.000000 20.069154 0 1.000000 1.000000 1.000000 0.539359 0.000000 0.842076
2216 1 13.193332 0.698662 19.844770 0 1.000000 1.000000 1.000000 0.553640 0.029180 0.832245
2217 1 13.836749 0.693133 19.402205 0 1.000000 1.000000 1.000000 0.579821 0.029180 0.814221
2218 1 14.131307 1.378561 19.151968 0 1.000000 1.000000 1.000000 0.593090 0.057533 0.803078
2219 1 14.736186 1.365695 18.691927 0 1.000000 1.000000 1.000000 0.617377 0.057534 0.784561
2220 1 14.998389 2.034203 18.420952 0 1.000000 1.000000 1.000000 0.629571 0.084839 0.772297
2221 1 15.563212 2.012628 17.949214 0 1.000000 1.000000 1.000000 0.651897 0.084841 0.753547
2222 1 15.792428 2.661226 17.662669 0 1.000000 1.000000 1.000000 0.662987 0.110924 0.740367
2223 1 16.316806 2.630029 17.184746 0 1.000000 1.000000 1.000000 0.683343 0.110926 0.721622
2224 1 16.513342 3.256451 16.887601 0 1.000000 1.000000 1.000000 0.693332 0.135664 0.707733
2225 1 16.997851 3.215154 16.408528 0 1.000000 1.000000 1.000000 0.711756 0.135666 0.689201
2226 1 0.344442 -8.217600 22.380353 0 1.000000 1.000000 1.000000 0.014981 -0.342792 0.939292
2227 1 0.694967 -7.690401 22.558470 0 1.000000 1.000000 1.000000 0.029053 -0.323944 0.945630
2228 1 1.399161 -7.761693 22.500973 0 1.000000 1.000000 1.000000 0.059242 -0.323940 0.944221
2229 1 1.770810 -7.207138 22.658297 0 1.000000 1.000000 1.000000 0.074116 -0.303426 0.949968
2230 1 2.497766 -7.265844 22.570603 0 1.000000 1.000000 1.000000 0.105329 -0.303423 0.947017
2231 1 2.888252 -6.684198 22.702969 0 1.000000 1.000000 1.000000 0.120938 -0.281240 0.951986
2232 1 3.634085 -6.730152 22.581666 0 1.000000 1.000000 1.000000 0.152979 -0.281237 0.947366
2233 1 4.040241 -6.122321 22.685000 0 1.000000 1.000000 1.000000 0.169224 -0.257424 0.951365
2234 1 4.800107 -6.155784 22.527112 0 1.000000 1.000000 1.000000 0.201855 -0.257422 0.944981
2235 1 5.217893 -5.523401 22.597672 0 1.000000 1.000000 1.000000 0.218607 -0.232069 0.947816
2236 1 5.986068 -5.545120 22.400898 0 1.000000 1.000000 1.000000 0.251543 -0.232067 0.939612
2237 1 6.410651 -4.890589 22.435524 0 1.000000 1.000000 1.000000 0.268645 -0.205316 0.941103
2238 1 7.180698 -4.901814 22.198475 0 1.000000 1.000000 1.000000 0.301570 -0.205315 0.931075
2239 1 7.606609 -4.228308 22.194848 0 1.000000 1.000000 1.000000 0.318841 -0.177362 0.931065
2240 1 8.371630 -4.230770 21.917244 0 1.000000 1.000000 1.000000 0.351416 -0.177362 0.919266
2241 1 8.793005 -3.542161 21.874097 0 1.000000 1.000000 1.000000 0.368660 -0.148451 0.917634
2242 1 9.545958 -3.538003 21.556891 0 1.000000 1.000000 1.000000 0.400541 -0.148451 0.904173
2243 1 9.956834 -2.838737 21.474158 0 1.000000 1.000000 1.000000 0.417554 -0.118865 0.900844
2244 1 10.690887 -2.830398 21.119568 0 1.000000 1.000000 1.000000 0.448412 -0.118865 0.885888
2245 1 11.085529 -2.125303 20.998431 0 1.000000 1.000000 1.000000 0.464994 -0.088913 0.880838
2246 1 11.794411 -2.115375 20.609858 0 1.000000 1.000000 1.000000 0.494528 -0.088914 0.864602
2247 1 12.167625 -1.409444 20.452695 0 1.000000 1.000000 1.000000 0.510494 -0.058914 0.857861
2248 1 12.845931 -1.400508 20.034549 0 1.000000 1.000000 1.000000 0.538451 -0.058915 0.840595
2249 1 13.193332 -0.698662 19.844770 0 1.000000 1.000000 1.000000 0.553640 -0.029180 0.832245
2250 1 13.836749 -0.693133 19.402205 0 1.000000 1.000000 1.000000 0.579821 -0.029180 0.814221
2251 1 14.154943 -0.000000 19.184022 0 1.000000 1.000000 1.000000 0.594102 0.000000 0.804390
2252 1 14.760376 -0.000000 18.722628 0 1.000000 1.000000 1.000000 0.618372 0.000000 0.785885
2253 1 15.047059 0.680267 18.480770 0 1.000000 1.000000 1.000000 0.631650 0.028371 0.774734
2254 1 15.612646 0.673006 18.006263 0 1.000000 1.000000 1.000000 0.653935 0.028371 0.756018
2255 1 15.866595 1.336859 17.745682 0 1.000000 1.000000 1.000000 0.666149 0.055719 0.743734
2256 1 16.391641 1.321042 17.263615 0 1.000000 1.000000 1.000000 0.686434 0.055720 0.725054
2257 1 16.612635 1.965614 16.989224 0 1.000000 1.000000 1.000000 0.697558 0.081882 0.711835
2258 1 17.097464 1.940392 16.504755 0 1.000000 1.000000 1.000000 0.715877 0.081883 0.693409
2259 1 17.286143 2.563510 16.221205 0 1.000000 1.000000 1.000000 0.725914 0.106739 0.679453
2260 1 17.731916 2.528450 15.738929 0 1.000000 1.000000 1.000000 0.742341 0.106741 0.661465
2261 1 0.337731 -9.300909 21.952952 0 1.000000 1.000000 1.000000 0.015051 -0.388054 0.921514
2262 1 0.682173 -8.808535 22.146780 0 1.000000 1.000000 1.000000 0.028165 -0.370978 0.928214
2263 1 1.373041 -8.887196 22.082897 0 1.000000 1.000000 1.000000 0.058479 -0.370973 0.926800
2264 1 1.739504 -8.367553 22.258973 0 1.000000 1.000000 1.000000 0.072474 -0.352227 0.933104
2265 1 2.452937 -8.433300 22.166494 0 1.000000 1.000000 1.000000 0.103760 -0.352223 0.930147
2266 1 2.839550 -7.886146 22.320800 0 1.000000 1.000000 1.000000 0.118590 -0.331770 0.935877
2267 1 3.571998 -7.938533 22.196430 0 1.000000 1.000000 1.000000 0.150664 -0.331767 0.931252
2268 1 3.976048 -7.364185 22.324931 0 1.000000 1.000000 1.000000 0.166253 -0.309610 0.936216
2269 1 4.723032 -7.403158 22.165726 0 1.000000 1.000000 1.000000 0.198885 -0.309608 0.929832
2270 1 5.140936 -6.802588 22.264572 0 1.000000 1.000000 1.000000 0.215129 -0.285795 0.933831
2271 1 5.897102 -6.828549 22.068156 0 1.000000 1.000000 1.000000 0.248047 -0.285793 0.925632
2272 1 6.324449 -6.203465 22.133922 0 1.000000 1.000000 1.000000 0.264809 -0.260422 0.928470
2273 1 7.083705 -6.217322 21.898718 0 1.000000 1.000000 1.000000 0.297708 -0.260421 0.918450
2274 1 7.515372 -5.570202 21.928644 0 1.000000 1.000000 1.000000 0.314825 -0.233646 0.919943
2275 1 8.271099 -5.573368 21.654071 0 1.000000 1.000000 1.000000 0.347376 -0.233645 0.908152
2276 1 8.701446 -4.907443 21.646297 0 1.000000 1.000000 1.000000 0.364661 -0.205670 0.908142
2277 1 9.446784 -4.901801 21.332915 0 1.000000 1.000000 1.000000 0.396529 -0.205670 0.894687
2278 1 9.869921 -4.220970 21.286656 0 1.000000 1.000000 1.000000 0.413781 -0.176745 0.893055
2279 1 10.598101 -4.208786 20.936230 0 1.000000 1.000000 1.000000 0.444639 -0.176746 0.878099
2280 1 11.008191 -3.517480 20.851875 0 1.000000 1.000000 1.000000 0.461652 -0.147159 0.874770
2281 1 11.712881 -3.501276 20.467343 0 1.000000 1.000000 1.000000 0.491200 -0.147160 0.858526
2282 1 12.104458 -2.804266 20.346462 0 1.000000 1.000000 1.000000 0.507775 -0.117220 0.853478
2283 1 12.780075 -2.786668 19.931795 0 1.000000 1.000000 1.000000 0.535754 -0.117222 0.836198
2284 1 13.148333 -2.088841 19.777045 0 1.000000 1.000000 1.000000 0.551708 -0.087244 0.829461
2285 1 13.790292 -2.072423 19.337029 0 1.000000 1.000000 1.000000 0.577913 -0.087245 0.811421
2286 1 14.131307 -1.378561 19.151968 0 1.000000 1.000000 1.000000 0.593090 -0.057533 0.803078
2287 1 14.736186 -1.365695 18.691927 0 1.000000 1.000000 1.000000 0.617377 -0.057534 0.784561
2288 1 15.047059 -0.680267 18.480770 0 1.000000 1.000000 1.000000 0.631650 -0.028371 0.774734
2289 1 15.612646 -0.673006 18.006263 0 1.000000 1.000000 1.000000 0.653935 -0.028371 0.756018
2290 1 15.891550 -0.000000 17.773614 0 1.000000 1.000000 1.000000 0.667213 0.000000 0.744867
2291 1 16.416815 -0.000000 17.290147 0 1.000000 1.000000 1.000000 0.687474 0.000000 0.726209
2292 1 16.662957 0.657189 17.040728 0 1.000000 1.000000 1.000000 0.699700 0.027375 0.713912
2293 1 17.147930 0.648705 16.553506 0 1.000000 1.000000 1.000000 0.717964 0.027376 0.695542
2294 1 17.361443 1.287336 16.291923 0 1.000000 1.000000 1.000000 0.729114 0.053599 0.682290
2295 1 17.807048 1.269579 15.805665 0 1.000000 1.000000 1.000000 0.745453 0.053600 0.664400
2296 1 17.988842 1.887574 15.536221 0 1.000000 1.000000 1.000000 0.755531 0.078559 0.650386
2297 1 18.396705 1.860151 15.055038 0 1.000000 1.000000 1.000000 0.770048 0.078560 0.633131
2298 1 0.330521 -10.320443 21.493216 0 1.000000 1.000000 1.000000 0.015104 -0.430675 0.902381
2299 1 0.668251 -9.863352 21.698618 0 1.000000 1.000000 1.000000 0.027222 -0.415324 0.909266
2300 1 1.344646 -9.947855 21.628259 0 1.000000 1.000000 1.000000 0.057629 -0.415319 0.907849
2301 1 1.704993 -9.464072 21.818711 0 1.000000 1.000000 1.000000 0.070684 -0.398319 0.914520
2302 1 2.403564 -9.535486 21.721354 0 1.000000 1.000000 1.000000 0.102013 -0.398314 0.911559
2303 1 2.785046 -9.024357 21.893061 0 1.000000 1.000000 1.000000 0.115981 -0.379603 0.917851
2304 1 3.502565 -9.082005 21.765572 0 1.000000 1.000000 1.000000 0.148055 -0.379599 0.913227
2305 1 3.902904 -8.543335 21.914635 0 1.000000 1.000000 1.000000 0.162884 -0.359146 0.918958
2306 1 4.635258 -8.586887 21.754154 0 1.000000 1.000000 1.000000 0.195486 -0.359143 0.912580
2307 1 5.051336 -8.021057 21.876744 0 1.000000 1.000000 1.000000 0.211094 -0.336959 0.917550
2308 1 5.793561 -8.050605 21.680889 0 1.000000 1.000000 1.000000 0.243964 -0.336957 0.909363
2309 1 6.221423 -7.458666 21.773454 0 1.000000 1.000000 1.000000 0.260237 -0.313100 0.913370
2310 1 6.967807 -7.474786 21.540526 0 1.000000 1.000000 1.000000 0.293082 -0.313099 0.903367
2311 1 7.402742 -6.858525 21.600024 0 1.000000 1.000000 1.000000 0.309877 -0.287679 0.906210
2312 1 8.147002 -6.862308 21.329206 0 1.000000 1.000000 1.000000 0.342381 -0.287679 0.894436
2313 1 8.583692 -6.224270 21.353326 0 1.000000 1.000000 1.000000 0.359526 -0.260859 0.895932
2314 1 9.319226 -6.217307 21.044836 0 1.000000 1.000000 1.000000 0.391362 -0.260859 0.882490
2315 1 9.751971 -5.560764 21.032199 0 1.000000 1.000000 1.000000 0.408666 -0.232852 0.882481
2316 1 10.472160 -5.545093 20.687381 0 1.000000 1.000000 1.000000 0.439513 -0.232853 0.867530
2317 1 10.895153 -4.873946 20.637672 0 1.000000 1.000000 1.000000 0.456771 -0.203917 0.865897
2318 1 11.593689 -4.851949 20.258995 0 1.000000 1.000000 1.000000 0.486330 -0.203919 0.849647
2319 1 12.001327 -4.170585 20.173021 0 1.000000 1.000000 1.000000 0.503337 -0.174342 0.846319
2320 1 12.672526 -4.144854 19.763990 0 1.000000 1.000000 1.000000 0.531347 -0.174344 0.829020
2321 1 13.059697 -3.457948 19.643644 0 1.000000 1.000000 1.000000 0.547905 -0.144433 0.823977
2322 1 13.698764 -3.431130 19.208621 0 1.000000 1.000000 1.000000 0.574154 -0.144435 0.805907
2323 1 14.061102 -2.743433 19.056757 0 1.000000 1.000000 1.000000 0.590085 -0.114501 0.799180
2324 1 14.664321 -2.718079 18.600719 0 1.000000 1.000000 1.000000 0.614419 -0.114502 0.780627
2325 1 14.998389 -2.034203 18.420952 0 1.000000 1.000000 1.000000 0.629571 -0.084839 0.772297
2326 1 15.563212 -2.012628 17.949214 0 1.000000 1.000000 1.000000 0.651897 -0.084841 0.753547
2327 1 15.866595 -1.336859 17.745682 0 1.000000 1.000000 1.000000 0.666149 -0.055719 0.743734
2328 1 16.391641 -1.321042 17.263615 0 1.000000 1.000000 1.000000 0.686434 -0.055720 0.725054
2329 1 16.662957 -0.657189 17.040728 0 1.000000 1.000000 1.000000 0.699700 -0.027375 0.713912
2330 1 17.147930 -0.648705 16.553506 0 1.000000 1.000000 1.000000 0.717964 -0.027376 0.695542
2331 1 17.386762 -0.000000 16.315702 0 1.000000 1.000000 1.000000 0.730190 0.000000 0.683244
2332 1 17.832305 -0.000000 15.828099 0 1.000000 1.000000 1.000000 0.746499 0.000000 0.665387
2333 1 18.039079 0.630948 15.579645 0 1.000000 1.000000 1.000000 0.757664 0.026258 0.652117
2334 1 18.446595 0.621731 15.095896 0 1.000000 1.000000 1.000000 0.772116 0.026259 0.634939
2335 1 18.622427 1.232939 14.840733 0 1.000000 1.000000 1.000000 0.782225 0.051294 0.620881
2336 1 18.993885 1.214150 14.364445 0 1.000000 1.000000 1.000000 0.794946 0.051294 0.604507
2337 1 0.322937 -11.274924 21.008977 0 1.000000 1.000000 1.000000 0.015134 -0.470600 0.882217
2338 1 0.653457 -10.852800 21.222137 0 1.000000 1.000000 1.000000 0.026244 -0.456898 0.889132
2339 1 1.314499 -10.941688 21.145427 0 1.000000 1.000000 1.000000 0.056701 -0.456893 0.887713
2340 1 1.667957 -10.493834 21.346147 0 1.000000 1.000000 1.000000 0.068786 -0.441582 0.894580
2341 1 2.350628 -10.569586 21.244008 0 1.000000 1.000000 1.000000 0.100116 -0.441578 0.891620
2342 1 2.725888 -10.095020 21.428764 0 1.000000 1.000000 1.000000 0.113171 -0.424577 0.898291
2343 1 3.427263 -10.156775 21.298254 0 1.000000 1.000000 1.000000 0.145205 -0.424573 0.893674
2344 1 3.822458 -9.654889 21.463355 0 1.000000 1.000000 1.000000 0.159199 -0.405826 0.899978
2345 1 4.538780 -9.702085 21.301745 0 1.000000 1.000000 1.000000 0.191731 -0.405823 0.893615
2346 1 4.951241 -9.172752 21.443481 0 1.000000 1.000000 1.000000 0.206604 -0.385308 0.899362
2347 1 5.677941 -9.205209 21.248431 0 1.000000 1.000000 1.000000 0.239387 -0.385306 0.891198
2348 1 6.104183 -8.648891 21.363249 0 1.000000 1.000000 1.000000 0.255049 -0.363044 0.896186
2349 1 6.835950 -8.666883 21.133004 0 1.000000 1.000000 1.000000 0.287804 -0.363043 0.886210
2350 1 7.271712 -8.084716 21.217715 0 1.000000 1.000000 1.000000 0.304133 -0.339103 0.890231
2351 1 8.002641 -8.089018 20.951286 0 1.000000 1.000000 1.000000 0.336557 -0.339103 0.878486
2352 1 8.442996 -7.482870 21.003279 0 1.000000 1.000000 1.000000 0.353401 -0.313608 0.881339
2353 1 9.166803 -7.474771 20.700600 0 1.000000 1.000000 1.000000 0.385178 -0.313609 0.867922
2354 1 9.606343 -6.847246 20.718038 0 1.000000 1.000000 1.000000 0.402359 -0.286731 0.869421
2355 1 10.316631 -6.828519 20.380072 0 1.000000 1.000000 1.000000 0.433175 -0.286732 0.854485
2356 1 10.749704 -6.182910 20.362053 0 1.000000 1.000000 1.000000 0.450497 -0.258695 0.854476
2357 1 11.440273 -6.155742 19.990824 0 1.000000 1.000000 1.000000 0.480057 -0.258696 0.838225
2358 1 11.861265 -5.495927 19.937475 0 1.000000 1.000000 1.000000 0.497315 -0.229759 0.836593
2359 1 12.526410 -5.462801 19.536012 0 1.000000 1.000000 1.000000 0.525355 -0.229762 0.819275
2360 1 12.930034 -4.793091 19.448501 0 1.000000 1.000000 1.000000 0.542345 -0.200215 0.815951
2361 1 13.564819 -4.756647 19.020707 0 1.000000 1.000000 1.000000 0.568649 -0.200217 0.797842
2362 1 13.946379 -4.081593 18.901173 0 1.000000 1.000000 1.000000 0.585177 -0.170362 0.792808
2363 1 14.546844 -4.044478 18.451623 0 1.000000 1.000000 1.000000 0.609582 -0.170365 0.774200
2364 1 14.902448 -3.368662 18.303033 0 1.000000 1.000000 1.000000 0.625474 -0.140504 0.767490
2365 1 15.465733 -3.333384 17.836721 0 1.000000 1.000000 1.000000 0.647876 -0.140506 0.748675
2366 1 15.792428 -2.661226 17.662669 0 1.000000 1.000000 1.000000 0.662987 -0.110924 0.740367
2367 1 16.316806 -2.630029 17.184746 0 1.000000 1.000000 1.000000 0.683343 -0.110926 0.721622
2368 1 16.612635 -1.965614 16.989224 0 1.000000 1.000000 1.000000 0.697558 -0.081882 0.711835
2369 1 17.097464 -1.940392 16.504755 0 1.000000 1.000000 1.000000 0.715877 -0.081883 0.693409
2370 1 17.361443 -1.287336 16.291923 0 1.000000 1.000000 1.000000 0.729114 -0.053599 0.682290
2371 1 17.807048 -1.269579 15.805665 0 1.000000 1.000000 1.000000 0.745453 -0.053600 0.664400
2372 1 18.039079 -0.630948 15.579645 0 1.000000 1.000000 1.000000 0.757664 -0.026258 0.652117
2373 1 18.446595 -0.621731 15.095896 0 1.000000 1.000000 1.000000 0.772116 -0.026259 0.634939
2374 1 18.647337 -0.000000 14.860601 0 1.000000 1.000000 1.000000 0.783281 -0.000000 0.621667
2375 1 19.018523 -0.000000 14.383091 0 1.000000 1.000000 1.000000 0.795969 -0.000000 0.605338
2376 1 19.189239 0.602943 14.142099 0 1.000000 1.000000 1.000000 0.806094 0.025076 0.591256
2377 1 19.526300 0.593408 13.673945 0 1.000000 1.000000 1.000000 0.817155 0.025077 0.575872
2378 1 0.315093 -12.164492 20.507486 0 1.000000 1.000000 1.000000 0.015138 -0.507833 0.861323
2379 1 0.638030 -11.776400 20.724999 0 1.000000 1.000000 1.000000 0.025251 -0.495682 0.868137
2380 1 1.283091 -11.868331 20.642231 0 1.000000 1.000000 1.000000 0.055708 -0.495677 0.866719
2381 1 1.629039 -11.455743 20.849498 0 1.000000 1.000000 1.000000 0.066818 -0.481974 0.873634
2382 1 2.295057 -11.534594 20.742830 0 1.000000 1.000000 1.000000 0.098100 -0.481969 0.870679
2383 1 2.663188 -11.096291 20.936619 0 1.000000 1.000000 1.000000 0.110217 -0.466618 0.877565
2384 1 3.347518 -11.161060 20.803315 0 1.000000 1.000000 1.000000 0.142164 -0.466614 0.872961
2385 1 3.736332 -10.696109 20.980195 0 1.000000 1.000000 1.000000 0.155276 -0.449537 0.879663
2386 1 4.435560 -10.746050 20.817685 0 1.000000 1.000000 1.000000 0.187692 -0.449533 0.873322
2387 1 4.842813 -10.253911 20.974134 0 1.000000 1.000000 1.000000 0.201761 -0.430684 0.879661
2388 1 5.552754 -10.288613 20.780167 0 1.000000 1.000000 1.000000 0.234412 -0.430681 0.871530
2389 1 5.975421 -9.769244 20.912728 0 1.000000 1.000000 1.000000 0.249370 -0.410048 0.877312
2390 1 6.691173 -9.788715 20.685542 0 1.000000 1.000000 1.000000 0.281992 -0.410046 0.867377
2391 1 7.125461 -9.242672 20.791001 0 1.000000 1.000000 1.000000 0.297739 -0.387663 0.872393
2392 1 7.841522 -9.247394 20.529495 0 1.000000 1.000000 1.000000 0.330042 -0.387662 0.860692
2393 1 8.282941 -8.675906 20.605070 0 1.000000 1.000000 1.000000 0.346447 -0.363610 0.864732
2394 1 8.993387 -8.666869 20.308956 0 1.000000 1.000000 1.000000 0.378129 -0.363611 0.851355
2395 1 9.436893 -8.071881 20.352494 0 1.000000 1.000000 1.000000 0.395032 -0.338025 0.854218
2396 1 10.135615 -8.050576 20.022405 0 1.000000 1.000000 1.000000 0.425787 -0.338026 0.839311
2397 1 10.575812 -7.434739 20.032546 0 1.000000 1.000000 1.000000 0.443006 -0.311090 0.840815
2398 1 11.256786 -7.403114 19.670094 0 1.000000 1.000000 1.000000 0.472545 -0.311092 0.824574
2399 1 11.688174 -6.769726 19.646391 0 1.000000 1.000000 1.000000 0.489880 -0.283033 0.824566
2400 1 12.345754 -6.730095 19.254146 0 1.000000 1.000000 1.000000 0.517941 -0.283036 0.807235
2401 1 12.762998 -6.082984 19.197115 0 1.000000 1.000000 1.000000 0.535188 -0.254118 0.805604
2402 1 13.392178 -6.037909 18.778508 0 1.000000 1.000000 1.000000 0.561549 -0.254121 0.787455
2403 1 13.790375 -5.381281 18.689611 0 1.000000 1.000000 1.000000 0.578506 -0.224632 0.784138
2404 1 14.387012 -5.333425 18.248774 0 1.000000 1.000000 1.000000 0.602997 -0.224635 0.765463
2405 1 14.761921 -4.671676 18.130320 0 1.000000 1.000000 1.000000 0.619475 -0.194870 0.760445
2406 1 15.322883 -4.623659 17.671870 0 1.000000 1.000000 1.000000 0.641983 -0.194872 0.741541
2407 1 15.671091 -3.961182 17.526861 0 1.000000 1.000000 1.000000 0.657816 -0.165123 0.734856
2408 1 16.194322 -3.915447 17.055663 0 1.000000 1.000000 1.000000 0.678283 -0.165125 0.716007
2409 1 16.513342 -3.256451 16.887601 0 1.000000 1.000000 1.000000 0.693332 -0.135664 0.707733
2410 1 16.997851 -3.215154 16.408528 0 1.000000 1.000000 1.000000 0.711756 -0.135666 0.689201
2411 1 17.286143 -2.563510 16.221205 0 1.000000 1.000000 1.000000 0.725914 -0.106739 0.679453
2412 1 17.731916 -2.528450 15.738929 0 1.000000 1.000000 1.000000 0.742341 -0.106741 0.661465
2413 1 17.988842 -1.887574 15.536221 0 1.000000 1.000000 1.000000 0.755531 -0.078559 0.650386
2414 1 18.396705 -1.860151 15.055038 0 1.000000 1.000000 1.000000 0.770048 -0.078560 0.633131
2415 1 18.622427 -1.232939 14.840733 0 1.000000 1.000000 1.000000 0.782225 -0.051294 0.620881
2416 1 18.993885 -1.214150 14.364445 0 1.000000 1.000000 1.000000 0.794946 -0.051294 0.604507
2417 1 19.189239 -0.602943 14.142099 0 1.000000 1.000000 1.000000 0.806094 -0.025076 0.591256
2418 1 19.526300 -0.593408 13.673945 0 1.000000 1.000000 1.000000 0.817155 -0.025077 0.575872
2419 1 19.692645 -0.000000 13.446784 0 1.000000 1.000000 1.000000 0.827281 0.000000 0.561789
2420 1 19.997655 0.000000 12.989417 0 1.000000 1.000000 1.000000 0.836829 0.000000 0.547465
2421 1 -0.509831 -12.674323 20.192393 0 1.000000 1.000000 1.000000 -0.024494 -0.532327 0.846185
2422 1 -1.482677 -12.390854 20.319294 0 1.000000 1.000000 1.000000 -0.065062 -0.520164 0.851585
2423 1 -1.032354 -12.808754 20.086969 0 1.000000 1.000000 1.000000 -0.040856 -0.536538 0.842886
2424 1 -1.115930 -13.351008 19.725886 0 1.000000 1.000000 1.000000 -0.049563 -0.560738 0.826508
2425 1 -2.499330 -12.069387 20.412309 0 1.000000 1.000000 1.000000 -0.107435 -0.506408 0.855575
2426 1 -2.032898 -12.513059 20.196041 0 1.000000 1.000000 1.000000 -0.083038 -0.524438 0.847390
2427 1 -2.126904 -13.068592 19.830928 0 1.000000 1.000000 1.000000 -0.091744 -0.548637 0.831012
2428 1 -1.660259 -13.488641 19.593098 0 1.000000 1.000000 1.000000 -0.067540 -0.565012 0.822314
2429 1 -1.748944 -14.033924 19.198158 0 1.000000 1.000000 1.000000 -0.075733 -0.589404 0.804281
2430 1 -3.556247 -11.707519 20.465585 0 1.000000 1.000000 1.000000 -0.151466 -0.490967 0.857910
2431 1 -3.076190 -12.177544 20.268368 0 1.000000 1.000000 1.000000 -0.127041 -0.510664 0.850343
2432 1 -3.181665 -12.745268 19.899363 0 1.000000 1.000000 1.000000 -0.135732 -0.534823 0.833991
2433 1 -2.698810 -13.192644 19.678191 0 1.000000 1.000000 1.000000 -0.111299 -0.552881 0.825794
2434 1 -2.797414 -13.751250 19.277632 0 1.000000 1.000000 1.000000 -0.119504 -0.577310 0.807733
2435 1 -2.314192 -14.172481 19.035429 0 1.000000 1.000000 1.000000 -0.095340 -0.593659 0.799049
2436 1 -2.406611 -14.717307 18.605434 0 1.000000 1.000000 1.000000 -0.102913 -0.618080 0.779350
2437 1 -4.648437 -11.303369 20.473242 0 1.000000 1.000000 1.000000 -0.196950 -0.473773 0.858341
2438 1 -4.157938 -11.799888 20.298022 0 1.000000 1.000000 1.000000 -0.172683 -0.495109 0.851497
2439 1 -4.275849 -12.378402 19.925213 0 1.000000 1.000000 1.000000 -0.181348 -0.519194 0.835195
2440 1 -3.779632 -12.853757 19.723771 0 1.000000 1.000000 1.000000 -0.156856 -0.538946 0.827607
2441 1 -3.889049 -13.424535 19.317790 0 1.000000 1.000000 1.000000 -0.165060 -0.563374 0.809546
2442 1 -3.389685 -13.874652 19.092823 0 1.000000 1.000000 1.000000 -0.140627 -0.581433 0.801349
2443 1 -3.491206 -14.432624 18.655634 0 1.000000 1.000000 1.000000 -0.148221 -0.605921 0.781595
2444 1 -2.991353 -14.854048 18.410448 0 1.000000 1.000000 1.000000 -0.124131 -0.622220 0.772938
2445 1 -3.085769 -15.394486 17.944793 0 1.000000 1.000000 1.000000 -0.130981 -0.646484 0.751600
2446 1 -5.769390 -10.855775 20.429642 0 1.000000 1.000000 1.000000 -0.243620 -0.454789 0.856631
2447 1 -5.272327 -11.378391 20.279167 0 1.000000 1.000000 1.000000 -0.219716 -0.477692 0.850609
2448 1 -5.403509 -11.965974 19.902584 0 1.000000 1.000000 1.000000 -0.228344 -0.501678 0.834373
2449 1 -4.897530 -12.469465 19.723851 0 1.000000 1.000000 1.000000 -0.203990 -0.523091 0.827504
2450 1 -5.018563 -13.050941 19.312634 0 1.000000 1.000000 1.000000 -0.212183 -0.547486 0.809467
2451 1 -4.506299 -13.530656 19.108015 0 1.000000 1.000000 1.000000 -0.187661 -0.567263 0.801870
2452 1 -4.617641 -14.100568 18.663929 0 1.000000 1.000000 1.000000 -0.195263 -0.591781 0.782091
2453 1 -4.101912 -14.552419 18.436515 0 1.000000 1.000000 1.000000 -0.170864 -0.609816 0.773906
2454 1 -4.204281 -15.105594 17.962192 0 1.000000 1.000000 1.000000 -0.177738 -0.634167 0.752490
2455 1 -3.687990 -15.526237 17.715657 0 1.000000 1.000000 1.000000 -0.153748 -0.650400 0.743869
2456 1 -3.782316 -16.058003 17.214487 0 1.000000 1.000000 1.000000 -0.159774 -0.674301 0.720965
2457 1 -6.911100 -10.364489 20.329695 0 1.000000 1.000000 1.000000 -0.291147 -0.434015 0.852563
2458 1 -6.411984 -10.912179 20.206355 0 1.000000 1.000000 1.000000 -0.267825 -0.458363 0.847451
2459 1 -6.557073 -11.506805 19.825966 0 1.000000 1.000000 1.000000 -0.276411 -0.482235 0.831292
2460 1 -6.045662 -12.037983 19.672670 0 1.000000 1.000000 1.000000 -0.252410 -0.505231 0.825246
2461 1 -6.178962 -12.628357 19.256388 0 1.000000 1.000000 1.000000 -0.260583 -0.529568 0.807251
2462 1 -5.657843 -13.137824 19.075084 0 1.000000 1.000000 1.000000 -0.236177 -0.551028 0.800368
2463 1 -5.779615 -13.718148 18.624432 0 1.000000 1.000000 1.000000 -0.243779 -0.575546 0.780589
2464 1 -5.251678 -14.201178 18.417896 0 1.000000 1.000000 1.000000 -0.219258 -0.595322 0.772992
2465 1 -5.362513 -14.765849 17.935345 0 1.000000 1.000000 1.000000 -0.226146 -0.619726 0.751531
2466 1 -4.830845 -15.218414 17.707056 0 1.000000 1.000000 1.000000 -0.201804 -0.637718 0.743364
2467 1 -4.931625 -15.762282 17.195937 0 1.000000 1.000000 1.000000 -0.207855 -0.661716 0.720367
2468 1 -4.399386 -16.181228 16.949904 0 1.000000 1.000000 1.000000 -0.183980 -0.677872 0.711787
2469 1 -4.491220 -16.699815 16.414248 0 1.000000 1.000000 1.000000 -0.189094 -0.701194 0.687438
2470 1 -8.064191 -9.830348 20.169210 0 1.000000 1.000000 1.000000 -0.339147 -0.411499 0.845960
2471 1 -7.568055 -10.401400 20.074868 0 1.000000 1.000000 1.000000 -0.316628 -0.437117 0.841828
2472 1 -7.727416 -11.000770 19.690582 0 1.000000 1.000000 1.000000 -0.325171 -0.460871 0.825749
2473 1 -7.215549 -11.558486 19.565021 0 1.000000 1.000000 1.000000 -0.301753 -0.485318 0.820616
2474 1 -7.361550 -12.155653 19.143829 0 1.000000 1.000000 1.000000 -0.309901 -0.509583 0.802675
2475 1 -6.836373 -12.694347 18.988492 0 1.000000 1.000000 1.000000 -0.285837 -0.532641 0.796612
2476 1 -6.969020 -13.283231 18.531640 0 1.000000 1.000000 1.000000 -0.293431 -0.557134 0.776853
2477 1 -6.433381 -13.797566 18.348883 0 1.000000 1.000000 1.000000 -0.269003 -0.578614 0.769963
2478 1 -6.553080 -14.372178 17.858634 0 1.000000 1.000000 1.000000 -0.275897 -0.603039 0.748482
2479 1 -6.010149 -14.857431 17.651633 0 1.000000 1.000000 1.000000 -0.251401 -0.622796 0.740893
2480 1 -6.117677 -15.412155 17.131201 0 1.000000 1.000000 1.000000 -0.257466 -0.646858 0.717834
2481 1 -5.570821 -15.864440 16.903794 0 1.000000 1.000000 1.000000 -0.233199 -0.664797 0.709692
2482 1 -5.667271 -16.394299 16.357199 0 1.000000 1.000000 1.000000 -0.238334 -0.688214 0.685243
2483 1 -5.119910 -16.810727 16.113685 0 1.000000 1.000000 1.000000 -0.214577 -0.704291 0.676706
2484 1 -5.206613 -17.311585 15.545551 0 1.000000 1.000000 1.000000 -0.218709 -0.726809 0.651087
2485 1 -9.218181 -9.255387 19.945231 0 1.000000 1.000000 1.000000 -0.387190 -0.387335 0.836693
2486 1 -8.730403 -9.847379 19.881060 0 1.000000 1.000000 1.000000 -0.365693 -0.413998 0.833591
2487 1 -8.904067 -10.448982 19.492748 0 1.000000 1.000000 1.000000 -0.374196 -0.437643 0.817585
2488 1 -8.397215 -11.031322 19.396613 0 1.000000 1.000000 1.000000 -0.351594 -0.463357 0.813438
2489 1 -8.556070 -11.632912 18.970663 0 1.000000 1.000000 1.000000 -0.359714 -0.487545 0.795553
2490 1 -8.032271 -12.199528 18.843440 0 1.000000 1.000000 1.000000 -0.336233 -0.512060 0.790406
2491 1 -8.176017 -12.794825 18.380795 0 1.000000 1.000000 1.000000 -0.343814 -0.536514 0.770678
2492 1 -7.637942 -13.339834 18.224332 0 1.000000 1.000000 1.000000 -0.319715 -0.559606 0.764607
2493 1 -7.766737 -13.922521 17.727005 0 1.000000 1.000000 1.000000 -0.326608 -0.584030 0.743126
2494 1 -7.217514 -14.440529 17.544065 0 1.000000 1.000000 1.000000 -0.302181 -0.605510 0.736236
2495 1 -7.331971 -15.004566 17.015100 0 1.000000 1.000000 1.000000 -0.308255 -0.629607 0.713144
2496 1 -6.775065 -15.490938 16.809237 0 1.000000 1.000000 1.000000 -0.283799 -0.649333 0.705567
2497 1 -6.876205 -16.030856 16.252584 0 1.000000 1.000000 1.000000 -0.288948 -0.672814 0.681051
2498 1 -6.315267 -16.481931 16.027951 0 1.000000 1.000000 1.000000 -0.264757 -0.690697 0.672935
2499 1 -6.404442 -16.993085 15.448270 0 1.000000 1.000000 1.000000 -0.268905 -0.713299 0.647221
2500 1 -5.843149 -17.406310 15.209384 0 1.000000 1.000000 1.000000 -0.245257 -0.729304 0.638722
2501 1 -5.921943 -17.885050 14.611806 0 1.000000 1.000000 1.000000 -0.248358 -0.750801 0.612059
2502 1 -10.361860 -8.642894 19.656332 0 1.000000 1.000000 1.000000 -0.434817 -0.361667 0.824700
2503 1 -9.887933 -9.252718 19.622696 0 1.000000 1.000000 1.000000 -0.414543 -0.389106 0.822649
2504 1 -10.075551 -9.853905 19.230215 0 1.000000 1.000000 1.000000 -0.423013 -0.412664 0.806702
2505 1 -9.579462 -10.458177 19.164438 0 1.000000 1.000000 1.000000 -0.401452 -0.439408 0.803590
2506 1 -9.750997 -11.061619 18.733889 0 1.000000 1.000000 1.000000 -0.409548 -0.463526 0.785757
2507 1 -9.234456 -11.654014 18.636249 0 1.000000 1.000000 1.000000 -0.386890 -0.489304 0.781600
2508 1 -9.389253 -12.253324 18.168263 0 1.000000 1.000000 1.000000 -0.394457 -0.513713 0.761907
2509 1 -8.854612 -12.827518 18.040032 0 1.000000 1.000000 1.000000 -0.370937 -0.538268 0.756752
2510 1 -8.992529 -13.416136 17.536342 0 1.000000 1.000000 1.000000 -0.377825 -0.562678 0.735284
2511 1 -8.442728 -13.966129 17.379779 0 1.000000 1.000000 1.000000 -0.353714 -0.585782 0.729209
2512 1 -8.564149 -14.537649 16.843209 0 1.000000 1.000000 1.000000 -0.359791 -0.609893 0.706103
2513 1 -8.002615 -15.058077 16.661471 0 1.000000 1.000000 1.000000 -0.335379 -0.631359 0.699218
2514 1 -8.108425 -15.606575 16.095840 0 1.000000 1.000000 1.000000 -0.340537 -0.654878 0.674662
2515 1 -7.538921 -16.092982 15.892816 0 1.000000 1.000000 1.000000 -0.316125 -0.674569 0.667099
2516 1 -7.630441 -16.613304 15.302758 0 1.000000 1.000000 1.000000 -0.320283 -0.697227 0.641321
2517 1 -7.056899 -17.062333 15.082845 0 1.000000 1.000000 1.000000 -0.296162 -0.715060 0.633228
2518 1 -7.135781 -17.550322 14.473567 0 1.000000 1.000000 1.000000 -0.299273 -0.736622 0.606485
2519 1 -6.562118 -17.959814 14.241415 0 1.000000 1.000000 1.000000 -0.275713 -0.752568 0.598017
2520 1 -6.630227 -18.412436 13.618423 0 1.000000 1.000000 1.000000 -0.277762 -0.772844 0.570579
2521 1 -11.483768 -7.997359 19.302830 0 1.000000 1.000000 1.000000 -0.481559 -0.334689 0.809990
2522 1 -11.029039 -8.621303 19.299209 0 1.000000 1.000000 1.000000 -0.462680 -0.362598 0.808980
2523 1 -11.229859 -9.219381 18.902439 0 1.000000 1.000000 1.000000 -0.471130 -0.386100 0.793072
2524 1 -10.750297 -9.842158 18.867080 0 1.000000 1.000000 1.000000 -0.450815 -0.413592 0.791016
2525 1 -10.933971 -10.444764 18.432125 0 1.000000 1.000000 1.000000 -0.458893 -0.437658 0.773222
2526 1 -10.430758 -11.059952 18.364710 0 1.000000 1.000000 1.000000 -0.437291 -0.464452 0.770105
2527 1 -10.596251 -11.660696 17.891895 0 1.000000 1.000000 1.000000 -0.444845 -0.488822 0.750444
2528 1 -10.071286 -12.261673 17.793088 0 1.000000 1.000000 1.000000 -0.422154 -0.514636 0.746281
2529 1 -10.218106 -12.853851 17.283846 0 1.000000 1.000000 1.000000 -0.429036 -0.539025 0.724831
2530 1 -9.673989 -13.434120 17.155332 0 1.000000 1.000000 1.000000 -0.405497 -0.563599 0.719672
2531 1 -9.802232 -14.011041 16.612229 0 1.000000 1.000000 1.000000 -0.411574 -0.587709 0.696566
2532 1 -9.242192 -14.564578 16.456670 0 1.000000 1.000000 1.000000 -0.387463 -0.610814 0.690492
2533 1 -9.352544 -15.119920 15.883338 0 1.000000 1.000000 1.000000 -0.392624 -0.634351 0.665917
2534 1 -8.780312 -15.641489 15.704247 0 1.000000 1.000000 1.000000 -0.368234 -0.655800 0.659037
2535 1 -8.873996 -16.169620 15.105227 0 1.000000 1.000000 1.000000 -0.372398 -0.678490 0.633222
2536 1 -8.293629 -16.655029 14.906763 0 1.000000 1.000000 1.000000 -0.348027 -0.698150 0.625671
2537 1 -8.372310 -17.151278 14.287271 0 1.000000 1.000000 1.000000 -0.351143 -0.719752 0.598878
2538 1 -7.788004 -17.597543 14.073988 0 1.000000 1.000000 1.000000 -0.327076 -0.737546 0.590802
2539 1 -7.853662 -18.058378 13.439638 0 1.000000 1.000000 1.000000 -0.329129 -0.757862 0.563310
2540 1 -7.269548 -18.463779 13.216225 0 1.000000 1.000000 1.000000 -0.305627 -0.773770 0.554862
2541 1 -7.324341 -18.886882 12.572735 0 1.000000 1.000000 1.000000 -0.306633 -0.792651 0.526955
2542 1 -12.572735 -7.324341 18.886882 0 1.000000 1.000000 1.000000 -0.526955 -0.306633 0.792651
2543 1 -12.142138 -7.958217 18.911863 0 1.000000 1.000000 1.000000 -0.509610 -0.334686 0.792643
2544 1 -12.355009 -8.550551 18.510750 0 1.000000 1.000000 1.000000 -0.518052 -0.358168 0.776748
2545 1 -11.897459 -9.187771 18.504947 0 1.000000 1.000000 1.000000 -0.499160 -0.386096 0.775738
2546 1 -12.092361 -9.786835 18.065840 0 1.000000 1.000000 1.000000 -0.507228 -0.410134 0.757964
2547 1 -11.608435 -10.421051 18.028376 0 1.000000 1.000000 1.000000 -0.486893 -0.437654 0.755906
2548 1 -11.783942 -11.020559 17.551315 0 1.000000 1.000000 1.000000 -0.494437 -0.461997 0.736268
2549 1 -11.274970 -11.645016 17.482248 0 1.000000 1.000000 1.000000 -0.472814 -0.488817 0.733148
2550 1 -11.430207 -12.238228 16.968363 0 1.000000 1.000000 1.000000 -0.479689 -0.513186 0.711715
2551 1 -10.898307 -12.846086 16.868768 0 1.000000 1.000000 1.000000 -0.456982 -0.539019 0.707549
2552 1 -11.033034 -13.426129 16.320340 0 1.000000 1.000000 1.000000 -0.463057 -0.563122 0.684450
2553 1 -10.481075 -14.010816 16.192316 0 1.000000 1.000000 1.000000 -0.439513 -0.587703 0.679289
2554 1 -10.595714 -14.571047 15.612742 0 1.000000 1.000000 1.000000 -0.444675 -0.611246 0.654708
2555 1 -10.027223 -15.126615 15.459324 0 1.000000 1.000000 1.000000 -0.420571 -0.634344 0.648635
2556 1 -10.122833 -15.660977 14.852988 0 1.000000 1.000000 1.000000 -0.424738 -0.657051 0.622801
2557 1 -9.541839 -16.182413 14.677983 0 1.000000 1.000000 1.000000 -0.400367 -0.678483 0.615927
2558 1 -9.620034 -16.685743 14.050039 0 1.000000 1.000000 1.000000 -0.403487 -0.700107 0.589108
2559 1 -9.030872 -17.169199 13.857792 0 1.000000 1.000000 1.000000 -0.379144 -0.719745 0.581564
2560 1 -9.093692 -17.637454 13.213891 0 1.000000 1.000000 1.000000 -0.381199 -0.740081 0.554046
2561 1 -8.500789 -18.080369 13.009020 0 1.000000 1.000000 1.000000 -0.357161 -0.757855 0.545978
2562 1 -8.550551 -18.510750 12.355009 0 1.000000 1.000000 1.000000 -0.358168 -0.776748 0.518052
2563 1 -7.958217 -18.911863 12.142138 0 1.000000 1.000000 1.000000 -0.334686 -0.792643 0.509610
2564 1 -7.997359 -19.302830 11.483768 0 1.000000 1.000000 1.000000 -0.334689 -0.809990 0.481559
2565 1 -13.618423 -6.630227 18.412436 0 1.000000 1.000000 1.000000 -0.570579 -0.277762 0.772844
2566 1 -13.216225 -7.269548 18.463779 0 1.000000 1.000000 1.000000 -0.554862 -0.305627 0.773770
2567 1 -13.439638 -7.853662 18.058378 0 1.000000 1.000000 1.000000 -0.563310 -0.329129 0.757862
2568 1 -13.009020 -8.500789 18.080369 0 1.000000 1.000000 1.000000 -0.545978 -0.357161 0.757855
2569 1 -13.213891 -9.093692 17.637454 0 1.000000 1.000000 1.000000 -0.554046 -0.381199 0.740081
2570 1 -12.754783 -9.742518 17.628729 0 1.000000 1.000000 1.000000 -0.535154 -0.409126 0.739071
2571 1 -12.939302 -10.338129 17.148088 0 1.000000 1.000000 1.000000 -0.542695 -0.433460 0.719441
2572 1 -12.452387 -10.981954 17.108138 0 1.000000 1.000000 1.000000 -0.522352 -0.460989 0.717382
2573 1 -12.615287 -11.573609 16.590614 0 1.000000 1.000000 1.000000 -0.529224 -0.485347 0.695960
2574 1 -12.102078 -12.205426 16.519905 0 1.000000 1.000000 1.000000 -0.507591 -0.512178 0.692838
2575 1 -12.242745 -12.786183 15.967482 0 1.000000 1.000000 1.000000 -0.513664 -0.536274 0.669746
2576 1 -11.705600 -13.399029 15.867511 0 1.000000 1.000000 1.000000 -0.490951 -0.562114 0.665579
2577 1 -11.824141 -13.962027 15.283313 0 1.000000 1.000000 1.000000 -0.496112 -0.585657 0.640998
2578 1 -11.266214 -14.549359 15.156568 0 1.000000 1.000000 1.000000 -0.472569 -0.610238 0.635837
2579 1 -11.363457 -15.088188 14.544764 0 1.000000 1.000000 1.000000 -0.476736 -0.632950 0.609997
2580 1 -10.788568 -15.644239 14.394602 0 1.000000 1.000000 1.000000 -0.452640 -0.656042 0.603925
2581 1 -10.866004 -16.153290 13.760216 0 1.000000 1.000000 1.000000 -0.455761 -0.677675 0.577095
2582 1 -10.278465 -16.673357 13.590657 0 1.000000 1.000000 1.000000 -0.431403 -0.699097 0.570223
2583 1 -10.338129 -17.148088 12.939302 0 1.000000 1.000000 1.000000 -0.433460 -0.719441 0.542695
2584 1 -9.742518 -17.628729 12.754783 0 1.000000 1.000000 1.000000 -0.409126 -0.739071 0.535154
2585 1 -9.786835 -18.065840 12.092361 0 1.000000 1.000000 1.000000 -0.410134 -0.757964 0.507228
2586 1 -9.187771 -18.504947 11.897459 0 1.000000 1.000000 1.000000 -0.386096 -0.775738 0.499160
2587 1 -9.219381 -18.902439 11.229859 0 1.000000 1.000000 1.000000 -0.386100 -0.793072 0.471130
2588 1 -8.621303 -19.299209 11.029039 0 1.000000 1.000000 1.000000 -0.362598 -0.808980 0.462680
2589 1 -8.642894 -19.656332 10.361860 0 1.000000 1.000000 1.000000 -0.361667 -0.824700 0.434817
2590 1 -14.611806 -5.921943 17.885050 0 1.000000 1.000000 1.000000 -0.612059 -0.248358 0.750801
2591 1 -14.241415 -6.562118 17.959814 0 1.000000 1.000000 1.000000 -0.598017 -0.275713 0.752568
2592 1 -14.473567 -7.135781 17.550322 0 1.000000 1.000000 1.000000 -0.606485 -0.299273 0.736622
2593 1 -14.073988 -7.788004 17.597543 0 1.000000 1.000000 1.000000 -0.590802 -0.327076 0.737546
2594 1 -14.287271 -8.372310 17.151278 0 1.000000 1.000000 1.000000 -0.598878 -0.351143 0.719752
2595 1 -13.857792 -9.030872 17.169199 0 1.000000 1.000000 1.000000 -0.581564 -0.379144 0.719745
2596 1 -14.050039 -9.620034 16.685743 0 1.000000 1.000000 1.000000 -0.589108 -0.403487 0.700107
2597 1 -13.590657 -10.278465 16.673357 0 1.000000 1.000000 1.000000 -0.570223 -0.431403 0.699097
2598 1 -13.760216 -10.866004 16.153290 0 1.000000 1.000000 1.000000 -0.577095 -0.455761 0.677675
2599 1 -13.271760 -11.517324 16.110497 0 1.000000 1.000000 1.000000 -0.556752 -0.483290 0.675617
2600 1 -13.417629 -12.096347 15.555507 0 1.000000 1.000000 1.000000 -0.562823 -0.507383 0.652528
2601 1 -12.901823 -12.733390 15.483201 0 1.000000 1.000000 1.000000 -0.541188 -0.534216 0.649406
2602 1 -13.023753 -13.296929 14.896121 0 1.000000 1.000000 1.000000 -0.546350 -0.557758 0.624826
2603 1 -12.483216 -13.912721 14.796203 0 1.000000 1.000000 1.000000 -0.523636 -0.583599 0.620659
2604 1 -12.581748 -14.454114 14.180941 0 1.000000 1.000000 1.000000 -0.527803 -0.606313 0.594818
2605 1 -12.019917 -15.042250 14.056247 0 1.000000 1.000000 1.000000 -0.504261 -0.630893 0.589657
2606 1 -12.096347 -15.555507 13.417629 0 1.000000 1.000000 1.000000 -0.507383 -0.652528 0.562823
2607 1 -11.517324 -16.110497 13.271760 0 1.000000 1.000000 1.000000 -0.483290 -0.675617 0.556752
2608 1 -11.573609 -16.590614 12.615287 0 1.000000 1.000000 1.000000 -0.485347 -0.695960 0.529224
2609 1 -10.981954 -17.108138 12.452387 0 1.000000 1.000000 1.000000 -0.460989 -0.717382 0.522352
2610 1 -11.020559 -17.551315 11.783942 0 1.000000 1.000000 1.000000 -0.461997 -0.736268 0.494437
2611 1 -10.421051 -18.028376 11.608435 0 1.000000 1.000000 1.000000 -0.437654 -0.755906 0.486893
2612 1 -10.444764 -18.432125 10.933971 0 1.000000 1.000000 1.000000 -0.437658 -0.773222 0.458893
2613 1 -9.842158 -18.867080 10.750297 0 1.000000 1.000000 1.000000 -0.413592 -0.791016 0.450815
2614 1 -9.853905 -19.230215 10.075551 0 1.000000 1.000000 1.000000 -0.412664 -0.806702 0.423013
2615 1 -9.252718 -19.622696 9.887933 0 1.000000 1.000000 1.000000 -0.389106 -0.822649 0.414543
2616 1 -9.255387 -19.945231 9.218181 0 1.000000 1.000000 1.000000 -0.387335 -0.836693 0.387190
2617 1 -15.545551 -5.206613 17.311585 0 1.000000 1.000000 1.000000 -0.651087 -0.218709 0.726809
2618 1 -15.209384 -5.843149 17.406310 0 1.000000 1.000000 1.000000 -0.638722 -0.245257 0.729304
2619 1 -15.448270 -6.404442 16.993085 0 1.000000 1.000000 1.000000 -0.647221 -0.268905 0.713299
2620 1 -15.082845 -7.056899 17.062333 0 1.000000 1.000000 1.000000 -0.633228 -0.296162 0.715060
2621 1 -15.302758 -7.630441 16.613304 0 1.000000 1.000000 1.000000 -0.641321 -0.320283 0.697227
2622 1 -14.906763 -8.293629 16.655029 0 1.000000 1.000000 1.000000 -0.625671 -0.348027 0.698150
2623 1 -15.105227 -8.873996 16.169620 0 1.000000 1.000000 1.000000 -0.633222 -0.372398 0.678490
2624 1 -14.677983 -9.541839 16.182413 0 1.000000 1.000000 1.000000 -0.615927 -0.400367 0.678483
2625 1 -14.852988 -10.122833 15.660977 0 1.000000 1.000000 1.000000 -0.622801 -0.424738 0.657051
2626 1 -14.394602 -10.788568 15.644239 0 1.000000 1.000000 1.000000 -0.603925 -0.452640 0.656042
2627 1 -14.544764 -11.363457 15.088188 0 1.000000 1.000000 1.000000 -0.609997 -0.476736 0.632950
2628 1 -14.056247 -12.019917 15.042250 0 1.000000 1.000000 1.000000 -0.589657 -0.504261 0.630893
2629 1 -14.180941 -12.581748 14.454114 0 1.000000 1.000000 1.000000 -0.594818 -0.527803 0.606313
2630 1 -13.664254 -13.221718 14.380292 0 1.000000 1.000000 1.000000 -0.573183 -0.554636 0.603192
2631 1 -13.763686 -13.763686 13.763686 0 1.000000 1.000000 1.000000 -0.577350 -0.577350 0.577350
2632 1 -13.221718 -14.380292 13.664254 0 1.000000 1.000000 1.000000 -0.554636 -0.603192 0.573183
2633 1 -13.296929 -14.896121 13.023753 0 1.000000 1.000000 1.000000 -0.557758 -0.624826 0.546350
2634 1 -12.733390 -15.483201 12.901823 0 1.000000 1.000000 1.000000 -0.534216 -0.649406 0.541188
2635 1 -12.786183 -15.967482 12.242745 0 1.000000 1.000000 1.000000 -0.536274 -0.669746 0.513664
2636 1 -12.205426 -16.519905 12.102078 0 1.000000 1.000000 1.000000 -0.512178 -0.692838 0.507591
2637 1 -12.238228 -16.968363 11.430207 0 1.000000 1.000000 1.000000 -0.513186 -0.711715 0.479689
2638 1 -11.645016 -17.482248 11.274970 0 1.000000 1.000000 1.000000 -0.488817 -0.733148 0.472814
2639 1 -11.660696 -17.891895 10.596251 0 1.000000 1.000000 1.000000 -0.488822 -0.750444 0.444845
2640 1 -11.059952 -18.364710 10.430758 0 1.000000 1.000000 1.000000 -0.464452 -0.770105 0.437291
2641 1 -11.061619 -18.733889 9.750997 0 1.000000 1.000000 1.000000 -0.463526 -0.785757 0.409548
2642 1 -10.458177 -19.164438 9.579462 0 1.000000 1.000000 1.000000 -0.439408 -0.803590 0.401452
2643 1 -10.448982 -19.492748 8.904067 0 1.000000 1.000000 1.000000 -0.437643 -0.817585 0.374196
2644 1 -9.847379 -19.881060 8.730403 0 1.000000 1.000000 1.000000 -0.413998 -0.833591 0.365693
2645 1 -9.830348 -20.169210 8.064191 0 1.000000 1.000000 1.000000 -0.411499 -0.845960 0.339147
2646 1 -16.414248 -4.491220 16.699815 0 1.000000 1.000000 1.000000 -0.687438 -0.189094 0.701194
2647 1 -16.113685 -5.119910 16.810727 0 1.000000 1.000000 1.000000 -0.676706 -0.214577 0.704291
2648 1 -16.357199 -5.667271 16.394299 0 1.000000 1.000000 1.000000 -0.685243 -0.238334 0.688214
2649 1 -16.027951 -6.315267 16.481931 0 1.000000 1.000000 1.000000 -0.672935 -0.264757 0.690697
2650 1 -16.252584 -6.876205 16.030856 0 1.000000 1.000000 1.000000 -0.681051 -0.288948 0.672814
2651 1 -15.892816 -7.538921 16.092982 0 1.000000 1.000000 1.000000 -0.667099 -0.316125 0.674569
2652 1 -16.095840 -8.108425 15.606575 0 1.000000 1.000000 1.000000 -0.674662 -0.340537 0.654878
2653 1 -15.704247 -8.780312 15.641489 0 1.000000 1.000000 1.000000 -0.659037 -0.368234 0.655800
2654 1 -15.883338 -9.352544 15.119920 0 1.000000 1.000000 1.000000 -0.665917 -0.392624 0.634351
2655 1 -15.459324 -10.027223 15.126615 0 1.000000 1.000000 1.000000 -0.648635 -0.420571 0.634344
2656 1 -15.612742 -10.595714 14.571047 0 1.000000 1.000000 1.000000 -0.654708 -0.444675 0.611246
2657 1 -15.156568 -11.266214 14.549359 0 1.000000 1.000000 1.000000 -0.635837 -0.472569 0.610238
2658 1 -15.283313 -11.824141 13.962027 0 1.000000 1.000000 1.000000 -0.640998 -0.496112 0.585657
2659 1 -14.796203 -12.483216 13.912721 0 1.000000 1.000000 1.000000 -0.620659 -0.523636 0.583599
2660 1 -14.896121 -13.023753 13.296929 0 1.000000 1.000000 1.000000 -0.624826 -0.546350 0.557758
2661 1 -14.380292 -13.664254 13.221718 0 1.000000 1.000000 1.000000 -0.603192 -0.573183 0.554636
2662 1 -14.454114 -14.180941 12.581748 0 1.000000 1.000000 1.000000 -0.606313 -0.594818 0.527803
2663 1 -13.912721 -14.796203 12.483216 0 1.000000 1.000000 1.000000 -0.583599 -0.620659 0.523636
2664 1 -13.962027 -15.283313 11.824141 0 1.000000 1.000000 1.000000 -0.585657 -0.640998 0.496112
2665 1 -13.399029 -15.867511 11.705600 0 1.000000 1.000000 1.000000 -0.562114 -0.665579 0.490951
2666 1 -13.426129 -16.320340 11.033034 0 1.000000 1.000000 1.000000 -0.563122 -0.684450 0.463057
2667 1 -12.846086 -16.868768 10.898307 0 1.000000 1.000000 1.000000 -0.539019 -0.707549 0.456982
2668 1 -12.853851 -17.283846 10.218106 0 1.000000 1.000000 1.000000 -0.539025 -0.724831 0.429036
2669 1 -12.261673 -17.793088 10.071286 0 1.000000 1.000000 1.000000 -0.514636 -0.746281 0.422154
2670 1 -12.253324 -18.168263 9.389253 0 1.000000 1.000000 1.000000 -0.513713 -0.761907 0.394457
2671 1 -11.654014 -18.636249 9.234456 0 1.000000 1.000000 1.000000 -0.489304 -0.781600 0.386890
2672 1 -11.632912 -18.970663 8.556070 0 1.000000 1.000000 1.000000 -0.487545 -0.795553 0.359714
2673 1 -11.031322 -19.396613 8.397215 0 1.000000 1.000000 1.000000 -0.463357 -0.813438 0.351594
2674 1 -11.000770 -19.690582 7.727416 0 1.000000 1.000000 1.000000 -0.460871 -0.825749 0.325171
2675 1 -10.401400 -20.074868 7.568055 0 1.000000 1.000000 1.000000 -0.437117 -0.841828 0.316628
2676 1 -10.364489 -20.329695 6.911100 0 1.000000 1.000000 1.000000 -0.434015 -0.852563 0.291147
2677 1 -17.214487 -3.782316 16.058003 0 1.000000 1.000000 1.000000 -0.720965 -0.159774 0.674301
2678 1 -16.949904 -4.399386 16.181228 0 1.000000 1.000000 1.000000 -0.711787 -0.183980 0.677872
2679 1 -17.195937 -4.931625 15.762282 0 1.000000 1.000000 1.000000 -0.720367 -0.207855 0.661716
2680 1 -16.903794 -5.570821 15.864440 0 1.000000 1.000000 1.000000 -0.709692 -0.233199 0.664797
2681 1 -17.131201 -6.117677 15.412155 0 1.000000 1.000000 1.000000 -0.717834 -0.257466 0.646858
2682 1 -16.809237 -6.775065 15.490938 0 1.000000 1.000000 1.000000 -0.705567 -0.283799 0.649333
2683 1 -17.015100 -7.331971 15.004566 0 1.000000 1.000000 1.000000 -0.713144 -0.308255 0.629607
2684 1 -16.661471 -8.002615 15.058077 0 1.000000 1.000000 1.000000 -0.699218 -0.335379 0.631359
2685 1 -16.843209 -8.564149 14.537649 0 1.000000 1.000000 1.000000 -0.706103 -0.359791 0.609893
2686 1 -16.456670 -9.242192 14.564578 0 1.000000 1.000000 1.000000 -0.690492 -0.387463 0.610814
2687 1 -16.612229 -9.802232 14.011041 0 1.000000 1.000000 1.000000 -0.696566 -0.411574 0.587709
2688 1 -16.192316 -10.481075 14.010816 0 1.000000 1.000000 1.000000 -0.679289 -0.439513 0.587703
2689 1 -16.320340 -11.033034 13.426129 0 1.000000 1.000000 1.000000 -0.684450 -0.463057 0.563122
2690 1 -15.867511 -11.705600 13.399029 0 1.000000 1.000000 1.000000 -0.665579 -0.490951 0.562114
2691 1 -15.967482 -12.242745 12.786183 0 1.000000 1.000000 1.000000 -0.669746 -0.513664 0.536274
2692 1 -15.483201 -12.901823 12.733390 0 1.000000 1.000000 1.000000 -0.649406 -0.541188 0.534216
2693 1 -15.555507 -13.417629 12.096347 0 1.000000 1.000000 1.000000 -0.652528 -0.562823 0.507383
2694 1 -15.042250 -14.056247 12.019917 0 1.000000 1.000000 1.000000 -0.630893 -0.589657 0.504261
2695 1 -15.088188 -14.544764 11.363457 0 1.000000 1.000000 1.000000 -0.632950 -0.609997 0.476736
2696 1 -14.549359 -15.156568 11.266214 0 1.000000 1.000000 1.000000 -0.610238 -0.635837 0.472569
2697 1 -14.571047 -15.612742 10.595714 0 1.000000 1.000000 1.000000 -0.611246 -0.654708 0.444675
2698 1 -14.010816 -16.192316 10.481075 0 1.000000 1.000000 1.000000 -0.587703 -0.679289 0.439513
2699 1 -14.011041 -16.612229 9.802232 0 1.000000 1.000000 1.000000 -0.587709 -0.696566 0.411574
2700 1 -13.434120 -17.155332 9.673989 0 1.000000 1.000000 1.000000 -0.563599 -0.719672 0.405497
2701 1 -13.416136 -17.536342 8.992529 0 1.000000 1.000000 1.000000 -0.562678 -0.735284 0.377825
2702 1 -12.827518 -18.040032 8.854612 0 1.000000 1.000000 1.000000 -0.538268 -0.756752 0.370937
2703 1 -12.794825 -18.380795 8.176017 0 1.000000 1.000000 1.000000 -0.536514 -0.770678 0.343814
2704 1 -12.199528 -18.843440 8.032271 0 1.000000 1.000000 1.000000 -0.512060 -0.790406 0.336233
2705 1 -12.155653 -19.143829 7.361550 0 1.000000 1.000000 1.000000 -0.509583 -0.802675 0.309901
2706 1 -11.558486 -19.565021 7.215549 0 1.000000 1.000000 1.000000 -0.485318 -0.820616 0.301753
2707 1 -11.506805 -19.825966 6.557073 0 1.000000 1.000000 1.000000 -0.482235 -0.831292 0.276411
2708 1 -10.912179 -20.206355 6.411984 0 1.000000 1.000000 1.000000 -0.458363 -0.847451 0.267825
2709 1 -10.855775 -20.429642 5.769390 0 1.000000 1.000000 1.000000 -0.454789 -0.856631 0.243620
2710 1 -17.944793 -3.085769 15.394486 0 1.000000 1.000000 1.000000 -0.751600 -0.130981 0.646484
2711 1 -17.715657 -3.687990 15.526237 0 1.000000 1.000000 1.000000 -0.743869 -0.153748 0.650400
2712 1 -17.962192 -4.204281 15.105594 0 1.000000 1.000000 1.000000 -0.752490 -0.177738 0.634167
2713 1 -17.707056 -4.830845 15.218414 0 1.000000 1.000000 1.000000 -0.743364 -0.201804 0.637718
2714 1 -17.935345 -5.362513 14.765849 0 1.000000 1.000000 1.000000 -0.751531 -0.226146 0.619726
2715 1 -17.651633 -6.010149 14.857431 0 1.000000 1.000000 1.000000 -0.740893 -0.251401 0.622796
2716 1 -17.858634 -6.553080 14.372178 0 1.000000 1.000000 1.000000 -0.748482 -0.275897 0.603039
2717 1 -17.544065 -7.217514 14.440529 0 1.000000 1.000000 1.000000 -0.736236 -0.302181 0.605510
2718 1 -17.727005 -7.766737 13.922521 0 1.000000 1.000000 1.000000 -0.743126 -0.326608 0.584030
2719 1 -17.379779 -8.442728 13.966129 0 1.000000 1.000000 1.000000 -0.729209 -0.353714 0.585782
2720 1 -17.536342 -8.992529 13.416136 0 1.000000 1.000000 1.000000 -0.735284 -0.377825 0.562678
2721 1 -17.155332 -9.673989 13.434120 0 1.000000 1.000000 1.000000 -0.719672 -0.405497 0.563599
2722 1 -17.283846 -10.218106 12.853851 0 1.000000 1.000000 1.000000 -0.724831 -0.429036 0.539025
2723 1 -16.868768 -10.898307 12.846086 0 1.000000 1.000000 1.000000 -0.707549 -0.456982 0.539019
2724 1 -16.968363 -11.430207 12.238228 0 1.000000 1.000000 1.000000 -0.711715 -0.479689 0.513186
2725 1 -16.519905 -12.102078 12.205426 0 1.000000 1.000000 1.000000 -0.692838 -0.507591 0.512178
2726 1 -16.590614 -12.615287 11.573609 0 1.000000 1.000000 1.000000 -0.695960 -0.529224 0.485347
2727 1 -16.110497 -13.271760 11.517324 0 1.000000 1.000000 1.000000 -0.675617 -0.556752 0.483290
2728 1 -16.153290 -13.760216 10.866004 0 1.000000 1.000000 1.000000 -0.677675 -0.577095 0.455761
2729 1 -15.644239 -14.394602 10.788568 0 1.000000 1.000000 1.000000 -0.656042 -0.603925 0.452640
2730 1 -15.660977 -14.852988 10.122833 0 1.000000 1.000000 1.000000 -0.657051 -0.622801 0.424738
2731 1 -15.126615 -15.459324 10.027223 0 1.000000 1.000000 1.000000 -0.634344 -0.648635 0.420571
2732 1 -15.119920 -15.883338 9.352544 0 1.000000 1.000000 1.000000 -0.634351 -0.665917 0.392624
2733 1 -14.564578 -16.456670 9.242192 0 1.000000 1.000000 1.000000 -0.610814 -0.690492 0.387463
2734 1 -14.537649 -16.843209 8.564149 0 1.000000 1.000000 1.000000 -0.609893 -0.706103 0.359791
2735 1 -13.966129 -17.379779 8.442728 0 1.000000 1.000000 1.000000 -0.585782 -0.729209 0.353714
2736 1 -13.922521 -17.727005 7.766737 0 1.000000 1.000000 1.000000 -0.584030 -0.743126 0.326608
2737 1 -13.339834 -18.224332 7.637942 0 1.000000 1.000000 1.000000 -0.559606 -0.764607 0.319715
2738 1 -13.283231 -18.531640 6.969020 0 1.000000 1.000000 1.000000 -0.557134 -0.776853 0.293431
2739 1 -12.694347 -18.988492 6.836373 0 1.000000 1.000000 1.000000 -0.532641 -0.796612 0.285837
2740 1 -12.628357 -19.256388 6.178962 0 1.000000 1.000000 1.000000 -0.529568 -0.807251 0.260583
2741 1 -12.037983 -19.672670 6.045662 0 1.000000 1.000000 1.000000 -0.505231 -0.825246 0.252410
2742 1 -11.965974 -19.902584 5.403509 0 1.000000 1.000000 1.000000 -0.501678 -0.834373 0.228344
2743 1 -11.378391 -20.279167 5.272327 0 1.000000 1.000000 1.000000 -0.477692 -0.850609 0.219716
2744 1 -11.303369 -20.473242 4.648437 0 1.000000 1.000000 1.000000 -0.473773 -0.858341 0.196950
2745 1 -18.605434 -2.406611 14.717307 0 1.000000 1.000000 1.000000 -0.779350 -0.102913 0.618080
2746 1 -18.410448 -2.991353 14.854048 0 1.000000 1.000000 1.000000 -0.772938 -0.124131 0.622220
2747 1 -18.655634 -3.491206 14.432624 0 1.000000 1.000000 1.000000 -0.781595 -0.148221 0.605921
2748 1 -18.436515 -4.101912 14.552419 0 1.000000 1.000000 1.000000 -0.773906 -0.170864 0.609816
2749 1 -18.663929 -4.617641 14.100568 0 1.000000 1.000000 1.000000 -0.782091 -0.195263 0.591781
2750 1 -18.417896 -5.251678 14.201178 0 1.000000 1.000000 1.000000 -0.772992 -0.219258 0.595322
2751 1 -18.624432 -5.779615 13.718148 0 1.000000 1.000000 1.000000 -0.780589 -0.243779 0.575546
2752 1 -18.348883 -6.433381 13.797566 0 1.000000 1.000000 1.000000 -0.769963 -0.269003 0.578614
2753 1 -18.531640 -6.969020 13.283231 0 1.000000 1.000000 1.000000 -0.776853 -0.293431 0.557134
2754 1 -18.224332 -7.637942 13.339834 0 1.000000 1.000000 1.000000 -0.764607 -0.319715 0.559606
2755 1 -18.380795 -8.176017 12.794825 0 1.000000 1.000000 1.000000 -0.770678 -0.343814 0.536514
2756 1 -18.040032 -8.854612 12.827518 0 1.000000 1.000000 1.000000 -0.756752 -0.370937 0.538268
2757 1 -18.168263 -9.389253 12.253324 0 1.000000 1.000000 1.000000 -0.761907 -0.394457 0.513713
2758 1 -17.793088 -10.071286 12.261673 0 1.000000 1.000000 1.000000 -0.746281 -0.422154 0.514636
2759 1 -17.891895 -10.596251 11.660696 0 1.000000 1.000000 1.000000 -0.750444 -0.444845 0.488822
2760 1 -17.482248 -11.274970 11.645016 0 1.000000 1.000000 1.000000 -0.733148 -0.472814 0.488817
2761 1 -17.551315 -11.783942 11.020559 0 1.000000 1.000000 1.000000 -0.736268 -0.494437 0.461997
2762 1 -17.108138 -12.452387 10.981954 0 1.000000 1.000000 1.000000 -0.717382 -0.522352 0.460989
2763 1 -17.148088 -12.939302 10.338129 0 1.000000 1.000000 1.000000 -0.719441 -0.542695 0.433460
2764 1 -16.673357 -13.590657 10.278465 0 1.000000 1.000000 1.000000 -0.699097 -0.570223 0.431403
2765 1 -16.685743 -14.050039 9.620034 0 1.000000 1.000000 1.000000 -0.700107 -0.589108 0.403487
2766 1 -16.182413 -14.677983 9.541839 0 1.000000 1.000000 1.000000 -0.678483 -0.615927 0.400367
2767 1 -16.169620 -15.105227 8.873996 0 1.000000 1.000000 1.000000 -0.678490 -0.633222 0.372398
2768 1 -15.641489 -15.704247 8.780312 0 1.000000 1.000000 1.000000 -0.655800 -0.659037 0.368234
2769 1 -15.606575 -16.095840 8.108425 0 1.000000 1.000000 1.000000 -0.654878 -0.674662 0.340537
2770 1 -15.058077 -16.661471 8.002615 0 1.000000 1.000000 1.000000 -0.631359 -0.699218 0.335379
2771 1 -15.004566 -17.015100 7.331971 0 1.000000 1.000000 1.000000 -0.629607 -0.713144 0.308255
2772 1 -14.440529 -17.544065 7.217514 0 1.000000 1.000000 1.000000 -0.605510 -0.736236 0.302181
2773 1 -14.372178 -17.858634 6.553080 0 1.000000 1.000000 1.000000 -0.603039 -0.748482 0.275897
2774 1 -13.797566 -18.348883 6.433381 0 1.000000 1.000000 1.000000 -0.578614 -0.769963 0.269003
2775 1 -13.718148 -18.624432 5.779615 0 1.000000 1.000000 1.000000 -0.575546 -0.780589 0.243779
2776 1 -13.137824 -19.075084 5.657843 0 1.000000 1.000000 1.000000 -0.551028 -0.800368 0.236177
2777 1 -13.050941 -19.312634 5.018563 0 1.000000 1.000000 1.000000 -0.547486 -0.809467 0.212183
2778 1 -12.469465 -19.723851 4.897530 0 1.000000 1.000000 1.000000 -0.523091 -0.827504 0.203990
2779 1 -12.378402 -19.925213 4.275849 0 1.000000 1.000000 1.000000 -0.519194 -0.835195 0.181348
2780 1 -11.799888 -20.298022 4.157938 0 1.000000 1.000000 1.000000 -0.495109 -0.851497 0.172683
2781 1 -11.707519 -20.465585 3.556247 0 1.000000 1.000000 1.000000 -0.490967 -0.857910 0.151466
2782 1 -19.198158 -1.748944 14.033924 0 1.000000 1.000000 1.000000 -0.804281 -0.075733 0.589404
2783 1 -19.035429 -2.314192 14.172481 0 1.000000 1.000000 1.000000 -0.799049 -0.095340 0.593659
2784 1 -19.277632 -2.797414 13.751250 0 1.000000 1.000000 1.000000 -0.807733 -0.119504 0.577310
2785 1 -19.092823 -3.389685 13.874652 0 1.000000 1.000000 1.000000 -0.801349 -0.140627 0.581433
2786 1 -19.317790 -3.889049 13.424535 0 1.000000 1.000000 1.000000 -0.809546 -0.165060 0.563374
2787 1 -19.108015 -4.506299 13.530656 0 1.000000 1.000000 1.000000 -0.801870 -0.187661 0.567263
2788 1 -19.312634 -5.018563 13.050941 0 1.000000 1.000000 1.000000 -0.809467 -0.212183 0.547486
2789 1 -19.075084 -5.657843 13.137824 0 1.000000 1.000000 1.000000 -0.800368 -0.236177 0.551028
2790 1 -19.256388 -6.178962 12.628357 0 1.000000 1.000000 1.000000 -0.807251 -0.260583 0.529568
2791 1 -18.988492 -6.836373 12.694347 0 1.000000 1.000000 1.000000 -0.796612 -0.285837 0.532641
2792 1 -19.143829 -7.361550 12.155653 0 1.000000 1.000000 1.000000 -0.802675 -0.309901 0.509583
2793 1 -18.843440 -8.032271 12.199528 0 1.000000 1.000000 1.000000 -0.790406 -0.336233 0.512060
2794 1 -18.970663 -8.556070 11.632912 0 1.000000 1.000000 1.000000 -0.795553 -0.359714 0.487545
2795 1 -18.636249 -9.234456 11.654014 0 1.000000 1.000000 1.000000 -0.781600 -0.386890 0.489304
2796 1 -18.733889 -9.750997 11.061619 0 1.000000 1.000000 1.000000 -0.785757 -0.409548 0.463526
2797 1 -18.364710 -10.430758 11.059952 0 1.000000 1.000000 1.000000 -0.770105 -0.437291 0.464452
2798 1 -18.432125 -10.933971 10.444764 0 1.000000 1.000000 1.000000 -0.773222 -0.458893 0.437658
2799 1 -18.028376 -11.608435 10.421051 0 1.000000 1.000000 1.000000 -0.755906 -0.486893 0.437654
2800 1 -18.065840 -12.092361 9.786835 0 1.000000 1.000000 1.000000 -0.757964 -0.507228 0.410134
2801 1 -17.628729 -12.754783 9.742518 0 1.000000 1.000000 1.000000 -0.739071 -0.535154 0.409126
2802 1 -17.637454 -13.213891 9.093692 0 1.000000 1.000000 1.000000 -0.740081 -0.554046 0.381199
2803 1 -17.169199 -13.857792 9.030872 0 1.000000 1.000000 1.000000 -0.719745 -0.581564 0.379144
2804 1 -17.151278 -14.287271 8.372310 0 1.000000 1.000000 1.000000 -0.719752 -0.598878 0.351143
2805 1 -16.655029 -14.906763 8.293629 0 1.000000 1.000000 1.000000 -0.698150 -0.625671 0.348027
2806 1 -16.613304 -15.302758 7.630441 0 1.000000 1.000000 1.000000 -0.697227 -0.641321 0.320283
2807 1 -16.092982 -15.892816 7.538921 0 1.000000 1.000000 1.000000 -0.674569 -0.667099 0.316125
2808 1 -16.030856 -16.252584 6.876205 0 1.000000 1.000000 1.000000 -0.672814 -0.681051 0.288948
2809 1 -15.490938 -16.809237 6.775065 0 1.000000 1.000000 1.000000 -0.649333 -0.705567 0.283799
2810 1 -15.412155 -17.131201 6.117677 0 1.000000 1.000000 1.000000 -0.646858 -0.717834 0.257466
2811 1 -14.857431 -17.651633 6.010149 0 1.000000 1.000000 1.000000 -0.622796 -0.740893 0.251401
2812 1 -14.765849 -17.935345 5.362513 0 1.000000 1.000000 1.000000 -0.619726 -0.751531 0.226146
2813 1 -14.201178 -18.417896 5.251678 0 1.000000 1.000000 1.000000 -0.595322 -0.772992 0.219258
2814 1 -14.100568 -18.663929 4.617641 0 1.000000 1.000000 1.000000 -0.591781 -0.782091 0.195263
2815 1 -13.530656 -19.108015 4.506299 0 1.000000 1.000000 1.000000 -0.567263 -0.801870 0.187661
2816 1 -13.424535 -19.317790 3.889049 0 1.000000 1.000000 1.000000 -0.563374 -0.809546 0.165060
2817 1 -12.853757 -19.723771 3.779632 0 1.000000 1.000000 1.000000 -0.538946 -0.827607 0.156856
2818 1 -12.745268 -19.899363 3.181665 0 1.000000 1.000000 1.000000 -0.534823 -0.833991 0.135732
2819 1 -12.177544 -20.268368 3.076190 0 1.000000 1.000000 1.000000 -0.510664 -0.850343 0.127041
2820 1 -12.069387 -20.412309 2.499330 0 1.000000 1.000000 1.000000 -0.506408 -0.855575 0.107435
2821 1 -19.725886 -1.115930 13.351008 0 1.000000 1.000000 1.000000 -0.826508 -0.049563 0.560738
2822 1 -19.593098 -1.660259 13.488641 0 1.000000 1.000000 1.000000 -0.822314 -0.067540 0.565012
2823 1 -19.830928 -2.126904 13.068592 0 1.000000 1.000000 1.000000 -0.831012 -0.091744 0.548637
2824 1 -19.678191 -2.698810 13.192644 0 1.000000 1.000000 1.000000 -0.825794 -0.111299 0.552881
2825 1 -19.899363 -3.181665 12.745268 0 1.000000 1.000000 1.000000 -0.833991 -0.135732 0.534823
2826 1 -19.723771 -3.779632 12.853757 0 1.000000 1.000000 1.000000 -0.827607 -0.156856 0.538946
2827 1 -19.925213 -4.275849 12.378402 0 1.000000 1.000000 1.000000 -0.835195 -0.181348 0.519194
2828 1 -19.723851 -4.897530 12.469465 0 1.000000 1.000000 1.000000 -0.827504 -0.203990 0.523091
2829 1 -19.902584 -5.403509 11.965974 0 1.000000 1.000000 1.000000 -0.834373 -0.228344 0.501678
2830 1 -19.672670 -6.045662 12.037983 0 1.000000 1.000000 1.000000 -0.825246 -0.252410 0.505231
2831 1 -19.825966 -6.557073 11.506805 0 1.000000 1.000000 1.000000 -0.831292 -0.276411 0.482235
2832 1 -19.565021 -7.215549 11.558486 0 1.000000 1.000000 1.000000 -0.820616 -0.301753 0.485318
2833 1 -19.690582 -7.727416 11.000770 0 1.000000 1.000000 1.000000 -0.825749 -0.325171 0.460871
2834 1 -19.396613 -8.397215 11.031322 0 1.000000 1.000000 1.000000 -0.813438 -0.351594 0.463357
2835 1 -19.492748 -8.904067 10.448982 0 1.000000 1.000000 1.000000 -0.817585 -0.374196 0.437643
2836 1 -19.164438 -9.579462 10.458177 0 1.000000 1.000000 1.000000 -0.803590 -0.401452 0.439408
2837 1 -19.230215 -10.075551 9.853905 0 1.000000 1.000000 1.000000 -0.806702 -0.423013 0.412664
2838 1 -18.867080 -10.750297 9.842158 0 1.000000 1.000000 1.000000 -0.791016 -0.450815 0.413592
2839 1 -18.902439 -11.229859 9.219381 0 1.000000 1.000000 1.000000 -0.793072 -0.471130 0.386100
2840 1 -18.504947 -11.897459 9.187771 0 1.000000 1.000000 1.000000 -0.775738 -0.499160 0.386096
2841 1 -18.510750 -12.355009 8.550551 0 1.000000 1.000000 1.000000 -0.776748 -0.518052 0.358168
2842 1 -18.080369 -13.009020 8.500789 0 1.000000 1.000000 1.000000 -0.757855 -0.545978 0.357161
2843 1 -18.058378 -13.439638 7.853662 0 1.000000 1.000000 1.000000 -0.757862 -0.563310 0.329129
2844 1 -17.597543 -14.073988 7.788004 0 1.000000 1.000000 1.000000 -0.737546 -0.590802 0.327076
2845 1 -17.550322 -14.473567 7.135781 0 1.000000 1.000000 1.000000 -0.736622 -0.606485 0.299273
2846 1 -17.062333 -15.082845 7.056899 0 1.000000 1.000000 1.000000 -0.715060 -0.633228 0.296162
2847 1 -16.993085 -15.448270 6.404442 0 1.000000 1.000000 1.000000 -0.713299 -0.647221 0.268905
2848 1 -16.481931 -16.027951 6.315267 0 1.000000 1.000000 1.000000 -0.690697 -0.672935 0.264757
2849 1 -16.394299 -16.357199 5.667271 0 1.000000 1.000000 1.000000 -0.688214 -0.685243 0.238334
2850 1 -15.864440 -16.903794 5.570821 0 1.000000 1.000000 1.000000 -0.664797 -0.709692 0.233199
2851 1 -15.762282 -17.195937 4.931625 0 1.000000 1.000000 1.000000 -0.661716 -0.720367 0.207855
2852 1 -15.218414 -17.707056 4.830845 0 1.000000 1.000000 1.000000 -0.637718 -0.743364 0.201804
2853 1 -15.105594 -17.962192 4.204281 0 1.000000 1.000000 1.000000 -0.634167 -0.752490 0.177738
2854 1 -14.552419 -18.436515 4.101912 0 1.000000 1.000000 1.000000 -0.609816 -0.773906 0.170864
2855 1 -14.432624 -18.655634 3.491206 0 1.000000 1.000000 1.000000 -0.605921 -0.781595 0.148221
2856 1 -13.874652 -19.092823 3.389685 0 1.000000 1.000000 1.000000 -0.581433 -0.801349 0.140627
2857 1 -13.751250 -19.277632 2.797414 0 1.000000 1.000000 1.000000 -0.577310 -0.807733 0.119504
2858 1 -13.192644 -19.678191 2.698810 0 1.000000 1.000000 1.000000 -0.552881 -0.825794 0.111299
2859 1 -13.068592 -19.830928 2.126904 0 1.000000 1.000000 1.000000 -0.548637 -0.831012 0.091744
2860 1 -12.513059 -20.196041 2.032898 0 1.000000 1.000000 1.000000 -0.524438 -0.847390 0.083038
2861 1 -12.390854 -20.319294 1.482677 0 1.000000 1.000000 1.000000 -0.520164 -0.851585 0.065062
2862 1 -20.192393 -0.509831 12.674323 0 1.000000 1.000000 1.000000 -0.846185 -0.024494 0.532327
2863 1 -20.086969 -1.032354 12.808754 0 1.000000 1.000000 1.000000 -0.842886 -0.040856 0.536538
2864 1 -20.319294 -1.482677 12.390854 0 1.000000 1.000000 1.000000 -0.851585 -0.065062 0.520164
2865 1 -20.196041 -2.032898 12.513059 0 1.000000 1.000000 1.000000 -0.847390 -0.083038 0.524438
2866 1 -20.412309 -2.499330 12.069387 0 1.000000 1.000000 1.000000 -0.855575 -0.107435 0.506408
2867 1 -20.268368 -3.076190 12.177544 0 1.000000 1.000000 1.000000 -0.850343 -0.127041 0.510664
2868 1 -20.465585 -3.556247 11.707519 0 1.000000 1.000000 1.000000 -0.857910 -0.151466 0.490967
2869 1 -20.298022 -4.157938 11.799888 0 1.000000 1.000000 1.000000 -0.851497 -0.172683 0.495109
2870 1 -20.473242 -4.648437 11.303369 0 1.000000 1.000000 1.000000 -0.858341 -0.196950 0.473773
2871 1 -20.279167 -5.272327 11.378391 0 1.000000 1.000000 1.000000 -0.850609 -0.219716 0.477692
2872 1 -20.429642 -5.769390 10.855775 0 1.000000 1.000000 1.000000 -0.856631 -0.243620 0.454789
2873 1 -20.206355 -6.411984 10.912179 0 1.000000 1.000000 1.000000 -0.847451 -0.267825 0.458363
2874 1 -20.329695 -6.911100 10.364489 0 1.000000 1.000000 1.000000 -0.852563 -0.291147 0.434015
2875 1 -20.074868 -7.568055 10.401400 0 1.000000 1.000000 1.000000 -0.841828 -0.316628 0.437117
2876 1 -20.169210 -8.064191 9.830348 0 1.000000 1.000000 1.000000 -0.845960 -0.339147 0.411499
2877 1 -19.881060 -8.730403 9.847379 0 1.000000 1.000000 1.000000 -0.833591 -0.365693 0.413998
2878 1 -19.945231 -9.218181 9.255387 0 1.000000 1.000000 1.000000 -0.836693 -0.387190 0.387335
2879 1 -19.622696 -9.887933 9.252718 0 1.000000 1.000000 1.000000 -0.822649 -0.414543 0.389106
2880 1 -19.656332 -10.361860 8.642894 0 1.000000 1.000000 1.000000 -0.824700 -0.434817 0.361667
2881 1 -19.299209 -11.029039 8.621303 0 1.000000 1.000000 1.000000 -0.808980 -0.462680 0.362598
2882 1 -19.302830 -11.483768 7.997359 0 1.000000 1.000000 1.000000 -0.809990 -0.481559 0.334689
2883 1 -18.911863 -12.142138 7.958217 0 1.000000 1.000000 1.000000 -0.792643 -0.509610 0.334686
2884 1 -18.886882 -12.572735 7.324341 0 1.000000 1.000000 1.000000 -0.792651 -0.526955 0.306633
2885 1 -18.463779 -13.216225 7.269548 0 1.000000 1.000000 1.000000 -0.773770 -0.554862 0.305627
2886 1 -18.412436 -13.618423 6.630227 0 1.000000 1.000000 1.000000 -0.772844 -0.570579 0.277762
2887 1 -17.959814 -14.241415 6.562118 0 1.000000 1.000000 1.000000 -0.752568 -0.598017 0.275713
2888 1 -17.885050 -14.611806 5.921943 0 1.000000 1.000000 1.000000 -0.750801 -0.612059 0.248358
2889 1 -17.406310 -15.209384 5.843149 0 1.000000 1.000000 1.000000 -0.729304 -0.638722 0.245257
2890 1 -17.311585 -15.545551 5.206613 0 1.000000 1.000000 1.000000 -0.726809 -0.651087 0.218709
2891 1 -16.810727 -16.113685 5.119910 0 1.000000 1.000000 1.000000 -0.704291 -0.676706 0.214577
2892 1 -16.699815 -16.414248 4.491220 0 1.000000 1.000000 1.000000 -0.701194 -0.687438 0.189094
2893 1 -16.181228 -16.949904 4.399386 0 1.000000 1.000000 1.000000 -0.677872 -0.711787 0.183980
2894 1 -16.058003 -17.214487 3.782316 0 1.000000 1.000000 1.000000 -0.674301 -0.720965 0.159774
2895 1 -15.526237 -17.715657 3.687990 0 1.000000 1.000000 1.000000 -0.650400 -0.743869 0.153748
2896 1 -15.394486 -17.944793 3.085769 0 1.000000 1.000000 1.000000 -0.646484 -0.751600 0.130981
2897 1 -14.854048 -18.410448 2.991353 0 1.000000 1.000000 1.000000 -0.622220 -0.772938 0.124131
2898 1 -14.717307 -18.605434 2.406611 0 1.000000 1.000000 1.000000 -0.618080 -0.779350 0.102913
2899 1 -14.172481 -19.035429 2.314192 0 1.000000 1.000000 1.000000 -0.593659 -0.799049 0.095340
2900 1 -14.033924 -19.198158 1.748944 0 1.000000 1.000000 1.000000 -0.589404 -0.804281 0.075733
2901 1 -13.488641 -19.593098 1.660259 0 1.000000 1.000000 1.000000 -0.565012 -0.822314 0.067540
2902 1 -13.351008 -19.725886 1.115930 0 1.000000 1.000000 1.000000 -0.560738 -0.826508 0.049563
2903 1 -12.808754 -20.086969 1.032354 0 1.000000 1.000000 1.000000 -0.536538 -0.842886 0.040856
2904 1 -12.674323 -20.192393 0.509831 0 1.000000 1.000000 1.000000 -0.532327 -0.846185 0.024494
2905 1 -20.507486 0.315093 12.164492 0 1.000000 1.000000 1.000000 -0.861323 0.015138 0.507833
2906 1 -20.642231 1.283091 11.868331 0 1.000000 1.000000 1.000000 -0.866719 0.055708 0.495677
2907 1 -20.724999 0.638030 11.776400 0 1.000000 1.000000 1.000000 -0.868137 0.025251 0.495682
2908 1 -21.008977 0.322937 11.274924 0 1.000000 1.000000 1.000000 -0.882217 0.015134 0.470600
2909 1 -20.742830 2.295057 11.534594 0 1.000000 1.000000 1.000000 -0.870679 0.098100 0.481969
2910 1 -20.849498 1.629039 11.455743 0 1.000000 1.000000 1.000000 -0.873634 0.066818 0.481974
2911 1 -21.145427 1.314499 10.941688 0 1.000000 1.000000 1.000000 -0.887713 0.056701 0.456893
2912 1 -21.222137 0.653457 10.852800 0 1.000000 1.000000 1.000000 -0.889132 0.026244 0.456898
2913 1 -21.493216 0.330521 10.320443 0 1.000000 1.000000 1.000000 -0.902381 0.015104 0.430675
2914 1 -20.803315 3.347518 11.161060 0 1.000000 1.000000 1.000000 -0.872961 0.142164 0.466614
2915 1 -20.936619 2.663188 11.096291 0 1.000000 1.000000 1.000000 -0.877565 0.110217 0.466618
2916 1 -21.244008 2.350628 10.569586 0 1.000000 1.000000 1.000000 -0.891620 0.100116 0.441578
2917 1 -21.346147 1.667957 10.493834 0 1.000000 1.000000 1.000000 -0.894580 0.068786 0.441582
2918 1 -21.628259 1.344646 9.947855 0 1.000000 1.000000 1.000000 -0.907849 0.057629 0.415319
2919 1 -21.698618 0.668251 9.863352 0 1.000000 1.000000 1.000000 -0.909266 0.027222 0.415324
2920 1 -21.952952 0.337731 9.300909 0 1.000000 1.000000 1.000000 -0.921514 0.015051 0.388054
2921 1 -20.817685 4.435560 10.746050 0 1.000000 1.000000 1.000000 -0.873322 0.187692 0.449533
2922 1 -20.980195 3.736332 10.696109 0 1.000000 1.000000 1.000000 -0.879663 0.155276 0.449537
2923 1 -21.298254 3.427263 10.156775 0 1.000000 1.000000 1.000000 -0.893674 0.145205 0.424573
2924 1 -21.428764 2.725888 10.095020 0 1.000000 1.000000 1.000000 -0.898291 0.113171 0.424577
2925 1 -21.721354 2.403564 9.535486 0 1.000000 1.000000 1.000000 -0.911559 0.102013 0.398314
2926 1 -21.818711 1.704993 9.464072 0 1.000000 1.000000 1.000000 -0.914520 0.070684 0.398319
2927 1 -22.082897 1.373041 8.887196 0 1.000000 1.000000 1.000000 -0.926800 0.058479 0.370973
2928 1 -22.146780 0.682173 8.808535 0 1.000000 1.000000 1.000000 -0.928214 0.028165 0.370978
2929 1 -22.380353 0.344442 8.217600 0 1.000000 1.000000 1.000000 -0.939292 0.014981 0.342792
2930 1 -20.780167 5.552754 10.288613 0 1.000000 1.000000 1.000000 -0.871530 0.234412 0.430681
2931 1 -20.974134 4.842813 10.253911 0 1.000000 1.000000 1.000000 -0.879661 0.201761 0.430684
2932 1 -21.301745 4.538780 9.702085 0 1.000000 1.000000 1.000000 -0.893615 0.191731 0.405823
2933 1 -21.463355 3.822458 9.654889 0 1.000000 1.000000 1.000000 -0.899978 0.159199 0.405826
2934 1 -21.765572 3.502565 9.082005 0 1.000000 1.000000 1.000000 -0.913227 0.148055 0.379599
2935 1 -21.893061 2.785046 9.024357 0 1.000000 1.000000 1.000000 -0.917851 0.115981 0.379603
2936 1 -22.166494 2.452937 8.433300 0 1.000000 1.000000 1.000000 -0.930147 0.103760 0.352223
2937 1 -22.258973 1.739504 8.367553 0 1.000000 1.000000 1.000000 -0.933104 0.072474 0.352227
2938 1 -22.500973 1.399161 7.761693 0 1.000000 1.000000 1.000000 -0.944221 0.059242 0.323940
2939 1 -22.558470 0.694967 7.690401 0 1.000000 1.000000 1.000000 -0.945630 0.029053 0.323944
2940 1 -22.767241 0.350525 7.073459 0 1.000000 1.000000 1.000000 -0.955376 0.014899 0.295015
2941 1 -20.685542 6.691173 9.788715 0 1.000000 1.000000 1.000000 -0.867377 0.281992 0.410046
2942 1 -20.912728 5.975421 9.769244 0 1.000000 1.000000 1.000000 -0.877312 0.249370 0.410048
2943 1 -21.248431 5.677941 9.205209 0 1.000000 1.000000 1.000000 -0.891198 0.239387 0.385306
2944 1 -21.443481 4.951241 9.172752 0 1.000000 1.000000 1.000000 -0.899362 0.206604 0.385308
2945 1 -21.754154 4.635258 8.586887 0 1.000000 1.000000 1.000000 -0.912580 0.195486 0.359143
2946 1 -21.914635 3.902904 8.543335 0 1.000000 1.000000 1.000000 -0.918958 0.162884 0.359146
2947 1 -22.196430 3.571998 7.938533 0 1.000000 1.000000 1.000000 -0.931252 0.150664 0.331767
2948 1 -22.320800 2.839550 7.886146 0 1.000000 1.000000 1.000000 -0.935877 0.118590 0.331770
2949 1 -22.570603 2.497766 7.265844 0 1.000000 1.000000 1.000000 -0.947017 0.105329 0.303423
2950 1 -22.658297 1.770810 7.207138 0 1.000000 1.000000 1.000000 -0.949968 0.074116 0.303426
2951 1 -22.873879 1.422465 6.575180 0 1.000000 1.000000 1.000000 -0.959754 0.059905 0.274380
2952 1 -22.925325 0.706373 6.512793 0 1.000000 1.000000 1.000000 -0.961157 0.029861 0.274384
2953 1 -23.105422 0.355848 5.873269 0 1.000000 1.000000 1.000000 -0.969430 0.014814 0.244921
2954 1 -20.529495 7.841522 9.247394 0 1.000000 1.000000 1.000000 -0.860692 0.330042 0.387662
2955 1 -20.791001 7.125461 9.242672 0 1.000000 1.000000 1.000000 -0.872393 0.297739 0.387663
2956 1 -21.133004 6.835950 8.666883 0 1.000000 1.000000 1.000000 -0.886210 0.287804 0.363043
2957 1 -21.363249 6.104183 8.648891 0 1.000000 1.000000 1.000000 -0.896186 0.255049 0.363044
2958 1 -21.680889 5.793561 8.050605 0 1.000000 1.000000 1.000000 -0.909363 0.243964 0.336957
2959 1 -21.876744 5.051336 8.021057 0 1.000000 1.000000 1.000000 -0.917550 0.211094 0.336959
2960 1 -22.165726 4.723032 7.403158 0 1.000000 1.000000 1.000000 -0.929832 0.198885 0.309608
2961 1 -22.324931 3.976048 7.364185 0 1.000000 1.000000 1.000000 -0.936216 0.166253 0.309610
2962 1 -22.581666 3.634085 6.730152 0 1.000000 1.000000 1.000000 -0.947366 0.152979 0.281237
2963 1 -22.702969 2.888252 6.684198 0 1.000000 1.000000 1.000000 -0.951986 0.120938 0.281240
2964 1 -22.924761 2.537059 6.037976 0 1.000000 1.000000 1.000000 -0.961798 0.106689 0.252117
2965 1 -23.007977 1.798228 5.987665 0 1.000000 1.000000 1.000000 -0.964741 0.075570 0.252120
2966 1 -23.193149 1.442422 5.333499 0 1.000000 1.000000 1.000000 -0.973048 0.060461 0.222537
2967 1 -23.239146 0.716133 5.281490 0 1.000000 1.000000 1.000000 -0.974444 0.030565 0.222540
2968 1 -23.387074 0.360285 4.623735 0 1.000000 1.000000 1.000000 -0.981129 0.014732 0.192790
2969 1 -20.308956 8.993387 8.666869 0 1.000000 1.000000 1.000000 -0.851355 0.378129 0.363611
2970 1 -20.605070 8.282941 8.675906 0 1.000000 1.000000 1.000000 -0.864732 0.346447 0.363610
2971 1 -20.951286 8.002641 8.089018 0 1.000000 1.000000 1.000000 -0.878486 0.336557 0.339103
2972 1 -21.217715 7.271712 8.084716 0 1.000000 1.000000 1.000000 -0.890231 0.304133 0.339103
2973 1 -21.540526 6.967807 7.474786 0 1.000000 1.000000 1.000000 -0.903367 0.293082 0.313099
2974 1 -21.773454 6.221423 7.458666 0 1.000000 1.000000 1.000000 -0.913370 0.260237 0.313100
2975 1 -22.068156 5.897102 6.828549 0 1.000000 1.000000 1.000000 -0.925632 0.248047 0.285793
2976 1 -22.264572 5.140936 6.802588 0 1.000000 1.000000 1.000000 -0.933831 0.215129 0.285795
2977 1 -22.527112 4.800107 6.155784 0 1.000000 1.000000 1.000000 -0.944981 0.201855 0.257422
2978 1 -22.685000 4.040241 6.122321 0 1.000000 1.000000 1.000000 -0.951365 0.169224 0.257424
2979 1 -22.912202 3.687361 5.462854 0 1.000000 1.000000 1.000000 -0.961191 0.154954 0.228259
2980 1 -23.030661 2.930014 5.424463 0 1.000000 1.000000 1.000000 -0.965804 0.122964 0.228261
2981 1 -23.220391 2.569863 4.756707 0 1.000000 1.000000 1.000000 -0.974133 0.107814 0.198597
2982 1 -23.299663 1.821102 4.716055 0 1.000000 1.000000 1.000000 -0.977068 0.076793 0.198600
2983 1 -23.450911 1.458538 4.044540 0 1.000000 1.000000 1.000000 -0.983778 0.060901 0.168738
2984 1 -23.492325 0.724010 4.004230 0 1.000000 1.000000 1.000000 -0.985168 0.031141 0.168741
2985 1 -23.605194 0.363724 3.333444 0 1.000000 1.000000 1.000000 -0.990187 0.014662 0.138976
2986 1 -20.022405 10.135615 8.050576 0 1.000000 1.000000 1.000000 -0.839311 0.425787 0.338026
2987 1 -20.352494 9.436893 8.071881 0 1.000000 1.000000 1.000000 -0.854218 0.395032 0.338025
2988 1 -20.700600 9.166803 7.474771 0 1.000000 1.000000 1.000000 -0.867922 0.385178 0.313609
2989 1 -21.003279 8.442996 7.482870 0 1.000000 1.000000 1.000000 -0.881339 0.353401 0.313608
2990 1 -21.329206 8.147002 6.862308 0 1.000000 1.000000 1.000000 -0.894436 0.342381 0.287679
2991 1 -21.600024 7.402742 6.858525 0 1.000000 1.000000 1.000000 -0.906210 0.309877 0.287679
2992 1 -21.898718 7.083705 6.217322 0 1.000000 1.000000 1.000000 -0.918450 0.297708 0.260421
2993 1 -22.133922 6.324449 6.203465 0 1.000000 1.000000 1.000000 -0.928470 0.264809 0.260422
2994 1 -22.400898 5.986068 5.545120 0 1.000000 1.000000 1.000000 -0.939612 0.251543 0.232067
2995 1 -22.597672 5.217893 5.523401 0 1.000000 1.000000 1.000000 -0.947816 0.218607 0.232069
2996 1 -22.829277 4.864555 4.851987 0 1.000000 1.000000 1.000000 -0.957646 0.204329 0.202887
2997 1 -22.985920 4.093890 4.824904 0 1.000000 1.000000 1.000000 -0.964027 0.171718 0.202889
2998 1 -23.179546 3.730455 4.144899 0 1.000000 1.000000 1.000000 -0.972370 0.156543 0.173177
2999 1 -23.295558 2.963775 4.115093 0 1.000000 1.000000 1.000000 -0.976976 0.124611 0.173179
3000 1 -23.449761 2.595317 3.431177 0 1.000000 1.000000 1.000000 -0.983702 0.108680 0.143244
3001 1 -23.525842 1.838841 3.401278 0 1.000000 1.000000 1.000000 -0.986629 0.077748 0.143246
3002 1 -23.640370 1.470385 2.718124 0 1.000000 1.000000 1.000000 -0.991662 0.061220 0.113392
3003 1 -23.678308 0.729797 2.690600 0 1.000000 1.000000 1.000000 -0.993049 0.031570 0.113393
3004 1 -23.754038 0.366073 2.012667 0 1.000000 1.000000 1.000000 -0.996367 0.014611 0.083905
3005 1 -19.670094 11.256786 7.403114 0 1.000000 1.000000 1.000000 -0.824574 0.472545 0.311092
3006 1 -20.032546 10.575812 7.434739 0 1.000000 1.000000 1.000000 -0.840815 0.443006 0.311090
3007 1 -20.380072 10.316631 6.828519 0 1.000000 1.000000 1.000000 -0.854485 0.433175 0.286732
3008 1 -20.718038 9.606343 6.847246 0 1.000000 1.000000 1.000000 -0.869421 0.402359 0.286731
3009 1 -21.044836 9.319226 6.217307 0 1.000000 1.000000 1.000000 -0.882490 0.391362 0.260859
3010 1 -21.353326 8.583692 6.224270 0 1.000000 1.000000 1.000000 -0.895932 0.359526 0.260859
3011 1 -21.654071 8.271099 5.573368 0 1.000000 1.000000 1.000000 -0.908152 0.347376 0.233645
3012 1 -21.928644 7.515372 5.570202 0 1.000000 1.000000 1.000000 -0.919943 0.314825 0.233646
3013 1 -22.198475 7.180698 4.901814 0 1.000000 1.000000 1.000000 -0.931075 0.301570 0.205315
3014 1 -22.435524 6.410651 4.890589 0 1.000000 1.000000 1.000000 -0.941103 0.268645 0.205316
3015 1 -22.670341 6.058112 4.208810 0 1.000000 1.000000 1.000000 -0.950933 0.254367 0.176135
3016 1 -22.867321 5.280192 4.191927 0 1.000000 1.000000 1.000000 -0.959137 0.221431 0.176136
3017 1 -23.064037 4.914629 3.501306 0 1.000000 1.000000 1.000000 -0.967487 0.206244 0.146401
3018 1 -23.219619 4.135556 3.481361 0 1.000000 1.000000 1.000000 -0.973862 0.173662 0.146402
3019 1 -23.376326 3.762176 2.786700 0 1.000000 1.000000 1.000000 -0.980599 0.157708 0.116424
3020 1 -23.490455 2.988616 2.766323 0 1.000000 1.000000 1.000000 -0.985197 0.125827 0.116425
3021 1 -23.606497 2.612712 2.072453 0 1.000000 1.000000 1.000000 -0.990240 0.109268 0.086515
3022 1 -23.680331 1.850958 2.054154 0 1.000000 1.000000 1.000000 -0.993160 0.078405 0.086517
3023 1 -23.756269 1.477634 1.365719 0 1.000000 1.000000 1.000000 -0.996485 0.061413 0.056971
3024 1 -23.792037 0.733337 1.351755 0 1.000000 1.000000 1.000000 -0.997868 0.031834 0.056972
3025 1 -23.829522 0.367264 0.673019 0 1.000000 1.000000 1.000000 -0.999500 0.014584 0.028056
3026 1 -19.254146 12.345754 6.730095 0 1.000000 1.000000 1.000000 -0.807235 0.517941 0.283036
3027 1 -19.646391 11.688174 6.769726 0 1.000000 1.000000 1.000000 -0.824566 0.489880 0.283033
3028 1 -19.990824 11.440273 6.155742 0 1.000000 1.000000 1.000000 -0.838225 0.480057 0.258696
3029 1 -20.362053 10.749704 6.182910 0 1.000000 1.000000 1.000000 -0.854476 0.450497 0.258695
3030 1 -20.687381 10.472160 5.545093 0 1.000000 1.000000 1.000000 -0.867530 0.439513 0.232853
3031 1 -21.032199 9.751971 5.560764 0 1.000000 1.000000 1.000000 -0.882481 0.408666 0.232852
3032 1 -21.332915 9.446784 4.901801 0 1.000000 1.000000 1.000000 -0.894687 0.396529 0.205670
3033 1 -21.646297 8.701446 4.907443 0 1.000000 1.000000 1.000000 -0.908142 0.364661 0.205670
3034 1 -21.917244 8.371630 4.230770 0 1.000000 1.000000 1.000000 -0.919266 0.351416 0.177362
3035 1 -22.194848 7.606609 4.228308 0 1.000000 1.000000 1.000000 -0.931065 0.318841 0.177362
3036 1 -22.431532 7.256110 3.538014 0 1.000000 1.000000 1.000000 -0.940893 0.304567 0.148189
3037 1 -22.669976 6.477661 3.529741 0 1.000000 1.000000 1.000000 -0.950923 0.271634 0.148190
3038 1 -22.868851 6.111191 2.830415 0 1.000000 1.000000 1.000000 -0.959275 0.256442 0.118447
3039 1 -23.065933 5.326080 2.818863 0 1.000000 1.000000 1.000000 -0.967476 0.223516 0.118448
3040 1 -23.224618 4.948881 2.115395 0 1.000000 1.000000 1.000000 -0.974217 0.207551 0.088448
3041 1 -23.379429 4.164049 2.103177 0 1.000000 1.000000 1.000000 -0.980588 0.174994 0.088449
3042 1 -23.496823 3.781600 1.400525 0 1.000000 1.000000 1.000000 -0.985637 0.158419 0.058510
3043 1 -23.609762 3.003823 1.390179 0 1.000000 1.000000 1.000000 -0.990230 0.126574 0.058510
3044 1 -23.686051 2.621541 0.693144 0 1.000000 1.000000 1.000000 -0.993558 0.109566 0.028935
3045 1 -23.758723 1.857106 0.686982 0 1.000000 1.000000 1.000000 -0.996475 0.078739 0.028935
3046 1 -23.795282 1.480074 0.000000 0 1.000000 1.000000 1.000000 -0.998108 0.061477 0.000000
3047 1 -23.830312 0.734528 0.000000 0 1.000000 1.000000 1.000000 -0.999490 0.031923 0.000000
3048 1 -23.829522 0.367264 -0.673019 0 1.000000 1.000000 1.000000 -0.999500 0.014584 -0.028056
3049 1 -18.778508 13.392178 6.037909 0 1.000000 1.000000 1.000000 -0.787455 0.561549 0.254121
3050 1 -19.197115 12.762998 6.082984 0 1.000000 1.000000 1.000000 -0.805604 0.535188 0.254118
3051 1 -19.536012 12.526410 5.462801 0 1.000000 1.000000 1.000000 -0.819275 0.525355 0.229762
3052 1 -19.937475 11.861265 5.495927 0 1.000000 1.000000 1.000000 -0.836593 0.497315 0.229759
3053 1 -20.258995 11.593689 4.851949 0 1.000000 1.000000 1.000000 -0.849647 0.486330 0.203919
3054 1 -20.637672 10.895153 4.873946 0 1.000000 1.000000 1.000000 -0.865897 0.456771 0.203917
3055 1 -20.936230 10.598101 4.208786 0 1.000000 1.000000 1.000000 -0.878099 0.444639 0.176746
3056 1 -21.286656 9.869921 4.220970 0 1.000000 1.000000 1.000000 -0.893055 0.413781 0.176745
3057 1 -21.556891 9.545958 3.538003 0 1.000000 1.000000 1.000000 -0.904173 0.400541 0.148451
3058 1 -21.874097 8.793005 3.542161 0 1.000000 1.000000 1.000000 -0.917634 0.368660 0.148451
3059 1 -22.111197 8.445720 2.845444 0 1.000000 1.000000 1.000000 -0.927458 0.354389 0.119287
3060 1 -22.391027 7.673846 2.843758 0 1.000000 1.000000 1.000000 -0.939261 0.321806 0.119287
3061 1 -22.591034 7.307721 2.137885 0 1.000000 1.000000 1.000000 -0.947612 0.306614 0.089544
3062 1 -22.830414 6.523516 2.132815 0 1.000000 1.000000 1.000000 -0.957643 0.273682 0.089545
3063 1 -22.990484 6.143715 1.422726 0 1.000000 1.000000 1.000000 -0.964386 0.257712 0.059537
3064 1 -23.187607 5.354192 1.416858 0 1.000000 1.000000 1.000000 -0.972585 0.224796 0.059538
3065 1 -23.306174 4.966278 0.707605 0 1.000000 1.000000 1.000000 -0.977636 0.208213 0.029586
3066 1 -23.460578 4.178518 0.703490 0 1.000000 1.000000 1.000000 -0.984004 0.175672 0.029586
3067 1 -23.537403 3.788142 0.000000 0 1.000000 1.000000 1.000000 -0.987334 0.158658 0.000000
3068 1 -23.649936 3.008943 0.000000 0 1.000000 1.000000 1.000000 -0.991925 0.126826 0.000000
3069 1 -23.686051 2.621541 -0.693144 0 1.000000 1.000000 1.000000 -0.993558 0.109566 -0.028935
3070 1 -23.758723 1.857106 -0.686982 0 1.000000 1.000000 1.000000 -0.996475 0.078739 -0.028935
3071 1 -23.756269 1.477634 -1.365719 0 1.000000 1.000000 1.000000 -0.996485 0.061413 -0.056971
3072 1 -23.792037 0.733337 -1.351755 0 1.000000 1.000000 1.000000 -0.997868 0.031834 -0.056972
3073 1 -23.754038 0.366073 -2.012667 0 1.000000 1.000000 1.000000 -0.996367 0.014611 -0.083905
3074 1 -18.248774 14.387012 5.333425 0 1.000000 1.000000 1.000000 -0.765463 0.602997 0.224635
3075 1 -18.689611 13.790375 5.381281 0 1.000000 1.000000 1.000000 -0.784138 0.578506 0.224632
3076 1 -19.020707 13.564819 4.756647 0 1.000000 1.000000 1.000000 -0.797842 0.568649 0.200217
3077 1 -19.448501 12.930034 4.793091 0 1.000000 1.000000 1.000000 -0.815951 0.542345 0.200215
3078 1 -19.763990 12.672526 4.144854 0 1.000000 1.000000 1.000000 -0.829020 0.531347 0.174344
3079 1 -20.173021 12.001327 4.170585 0 1.000000 1.000000 1.000000 -0.846319 0.503337 0.174342
3080 1 -20.467343 11.712881 3.501276 0 1.000000 1.000000 1.000000 -0.858526 0.491200 0.147160
3081 1 -20.851875 11.008191 3.517480 0 1.000000 1.000000 1.000000 -0.874770 0.461652 0.147159
3082 1 -21.119568 10.690887 2.830398 0 1.000000 1.000000 1.000000 -0.885888 0.448412 0.118865
3083 1 -21.474158 9.956834 2.838737 0 1.000000 1.000000 1.000000 -0.900844 0.417554 0.118865
3084 1 -21.710179 9.613832 2.137879 0 1.000000 1.000000 1.000000 -0.910667 0.403284 0.089704
3085 1 -22.030012 8.855671 2.140427 0 1.000000 1.000000 1.000000 -0.924129 0.371400 0.089704
3086 1 -22.230063 8.491127 1.430361 0 1.000000 1.000000 1.000000 -0.932480 0.356209 0.059964
3087 1 -22.511255 7.715052 1.429505 0 1.000000 1.000000 1.000000 -0.944284 0.323625 0.059964
3088 1 -22.672068 7.333943 0.715182 0 1.000000 1.000000 1.000000 -0.951027 0.307654 0.029955
3089 1 -22.911918 6.546811 0.713473 0 1.000000 1.000000 1.000000 -0.961057 0.274724 0.029955
3090 1 -23.031461 6.154672 0.000000 0 1.000000 1.000000 1.000000 -0.966108 0.258140 0.000000
3091 1 -23.228594 5.363662 0.000000 0 1.000000 1.000000 1.000000 -0.974306 0.225227 0.000000
3092 1 -23.306174 4.966278 -0.707605 0 1.000000 1.000000 1.000000 -0.977636 0.208213 -0.029586
3093 1 -23.460578 4.178518 -0.703490 0 1.000000 1.000000 1.000000 -0.984004 0.175672 -0.029586
3094 1 -23.496823 3.781600 -1.400525 0 1.000000 1.000000 1.000000 -0.985637 0.158419 -0.058510
3095 1 -23.609762 3.003823 -1.390179 0 1.000000 1.000000 1.000000 -0.990230 0.126574 -0.058510
3096 1 -23.606497 2.612712 -2.072453 0 1.000000 1.000000 1.000000 -0.990240 0.109268 -0.086515
3097 1 -23.680331 1.850958 -2.054154 0 1.000000 1.000000 1.000000 -0.993160 0.078405 -0.086517
3098 1 -23.640370 1.470385 -2.718124 0 1.000000 1.000000 1.000000 -0.991662 0.061220 -0.113392
3099 1 -23.678308 0.729797 -2.690600 0 1.000000 1.000000 1.000000 -0.993049 0.031570 -0.113393
3100 1 -23.605194 0.363724 -3.333444 0 1.000000 1.000000 1.000000 -0.990187 0.014662 -0.138976
3101 1 -17.671870 15.322883 4.623659 0 1.000000 1.000000 1.000000 -0.741541 0.641983 0.194872
3102 1 -18.130320 14.761921 4.671676 0 1.000000 1.000000 1.000000 -0.760445 0.619475 0.194870
3103 1 -18.451623 14.546844 4.044478 0 1.000000 1.000000 1.000000 -0.774200 0.609582 0.170365
3104 1 -18.901173 13.946379 4.081593 0 1.000000 1.000000 1.000000 -0.792808 0.585177 0.170362
3105 1 -19.208621 13.698764 3.431130 0 1.000000 1.000000 1.000000 -0.805907 0.574154 0.144435
3106 1 -19.643644 13.059697 3.457948 0 1.000000 1.000000 1.000000 -0.823977 0.547905 0.144433
3107 1 -19.931795 12.780075 2.786668 0 1.000000 1.000000 1.000000 -0.836198 0.535754 0.117222
3108 1 -20.346462 12.104458 2.804266 0 1.000000 1.000000 1.000000 -0.853478 0.507775 0.117220
3109 1 -20.609858 11.794411 2.115375 0 1.000000 1.000000 1.000000 -0.864602 0.494528 0.088914
3110 1 -20.998431 11.085529 2.125303 0 1.000000 1.000000 1.000000 -0.880838 0.464994 0.088913
3111 1 -21.231903 10.747740 1.422717 0 1.000000 1.000000 1.000000 -0.890662 0.450722 0.059750
3112 1 -21.589061 10.010095 1.426954 0 1.000000 1.000000 1.000000 -0.905616 0.419868 0.059749
3113 1 -21.788057 9.648315 0.715179 0 1.000000 1.000000 1.000000 -0.913967 0.404677 0.030009
3114 1 -22.109227 8.887509 0.716038 0 1.000000 1.000000 1.000000 -0.927429 0.372793 0.030009
3115 1 -22.270112 8.506426 0.000000 0 1.000000 1.000000 1.000000 -0.934172 0.356822 0.000000
3116 1 -22.551762 7.728935 0.000000 0 1.000000 1.000000 1.000000 -0.945976 0.324238 0.000000
3117 1 -22.672068 7.333943 -0.715182 0 1.000000 1.000000 1.000000 -0.951027 0.307654 -0.029955
3118 1 -22.911918 6.546811 -0.713473 0 1.000000 1.000000 1.000000 -0.961057 0.274724 -0.029955
3119 1 -22.990484 6.143715 -1.422726 0 1.000000 1.000000 1.000000 -0.964386 0.257712 -0.059537
3120 1 -23.187607 5.354192 -1.416858 0 1.000000 1.000000 1.000000 -0.972585 0.224796 -0.059538
3121 1 -23.224618 4.948881 -2.115395 0 1.000000 1.000000 1.000000 -0.974217 0.207551 -0.088448
3122 1 -23.379429 4.164049 -2.103177 0 1.000000 1.000000 1.000000 -0.980588 0.174994 -0.088449
3123 1 -23.376326 3.762176 -2.786700 0 1.000000 1.000000 1.000000 -0.980599 0.157708 -0.116424
3124 1 -23.490455 2.988616 -2.766323 0 1.000000 1.000000 1.000000 -0.985197 0.125827 -0.116425
3125 1 -23.449761 2.595317 -3.431177 0 1.000000 1.000000 1.000000 -0.983702 0.108680 -0.143244
3126 1 -23.525842 1.838841 -3.401278 0 1.000000 1.000000 1.000000 -0.986629 0.077748 -0.143246
3127 1 -23.450911 1.458538 -4.044540 0 1.000000 1.000000 1.000000 -0.983778 0.060901 -0.168738
3128 1 -23.492325 0.724010 -4.004230 0 1.000000 1.000000 1.000000 -0.985168 0.031141 -0.168741
3129 1 -23.387074 0.360285 -4.623735 0 1.000000 1.000000 1.000000 -0.981129 0.014732 -0.192790
3130 1 -17.055663 16.194322 3.915447 0 1.000000 1.000000 1.000000 -0.716007 0.678283 0.165125
3131 1 -17.526861 15.671091 3.961182 0 1.000000 1.000000 1.000000 -0.734856 0.657816 0.165123
3132 1 -17.836721 15.465733 3.333384 0 1.000000 1.000000 1.000000 -0.748675 0.647876 0.140506
3133 1 -18.303033 14.902448 3.368662 0 1.000000 1.000000 1.000000 -0.767490 0.625474 0.140504
3134 1 -18.600719 14.664321 2.718079 0 1.000000 1.000000 1.000000 -0.780627 0.614419 0.114502
3135 1 -19.056757 14.061102 2.743433 0 1.000000 1.000000 1.000000 -0.799180 0.590085 0.114501
3136 1 -19.337029 13.790292 2.072423 0 1.000000 1.000000 1.000000 -0.811421 0.577913 0.087245
3137 1 -19.777045 13.148333 2.088841 0 1.000000 1.000000 1.000000 -0.829461 0.551708 0.087244
3138 1 -20.034549 12.845931 1.400508 0 1.000000 1.000000 1.000000 -0.840595 0.538451 0.058915
3139 1 -20.452695 12.167625 1.409444 0 1.000000 1.000000 1.000000 -0.857861 0.510494 0.058914
3140 1 -20.682239 11.835818 0.707598 0 1.000000 1.000000 1.000000 -0.867688 0.496218 0.029742
3141 1 -21.072875 11.124813 0.710943 0 1.000000 1.000000 1.000000 -0.883920 0.466692 0.029742
3142 1 -21.269748 10.766892 -0.000000 0 1.000000 1.000000 1.000000 -0.892271 0.451500 0.000000
3143 1 -21.627773 10.028039 -0.000000 0 1.000000 1.000000 1.000000 -0.907224 0.420648 0.000000
3144 1 -21.788057 9.648315 -0.715179 0 1.000000 1.000000 1.000000 -0.913967 0.404677 -0.030009
3145 1 -22.109227 8.887509 -0.716038 0 1.000000 1.000000 1.000000 -0.927429 0.372793 -0.030009
3146 1 -22.230063 8.491127 -1.430361 0 1.000000 1.000000 1.000000 -0.932480 0.356209 -0.059964
3147 1 -22.511255 7.715052 -1.429505 0 1.000000 1.000000 1.000000 -0.944284 0.323625 -0.059964
3148 1 -22.591034 7.307721 -2.137885 0 1.000000 1.000000 1.000000 -0.947612 0.306614 -0.089544
3149 1 -22.830414 6.523516 -2.132815 0 1.000000 1.000000 1.000000 -0.957643 0.273682 -0.089545
3150 1 -22.868851 6.111191 -2.830415 0 1.000000 1.000000 1.000000 -0.959275 0.256442 -0.118447
3151 1 -23.065933 5.326080 -2.818863 0 1.000000 1.000000 1.000000 -0.967476 0.223516 -0.118448
3152 1 -23.064037 4.914629 -3.501306 0 1.000000 1.000000 1.000000 -0.967487 0.206244 -0.146401
3153 1 -23.219619 4.135556 -3.481361 0 1.000000 1.000000 1.000000 -0.973862 0.173662 -0.146402
3154 1 -23.179546 3.730455 -4.144899 0 1.000000 1.000000 1.000000 -0.972370 0.156543 -0.173177
3155 1 -23.295558 2.963775 -4.115093 0 1.000000 1.000000 1.000000 -0.976976 0.124611 -0.173179
3156 1 -23.220391 2.569863 -4.756707 0 1.000000 1.000000 1.000000 -0.974133 0.107814 -0.198597
3157 1 -23.299663 1.821102 -4.716055 0 1.000000 1.000000 1.000000 -0.977068 0.076793 -0.198600
3158 1 -23.193149 1.442422 -5.333499 0 1.000000 1.000000 1.000000 -0.973048 0.060461 -0.222537
3159 1 -23.239146 0.716133 -5.281490 0 1.000000 1.000000 1.000000 -0.974444 0.030565 -0.222540
3160 1 -23.105422 0.355848 -5.873269 0 1.000000 1.000000 1.000000 -0.969430 0.014814 -0.244921
3161 1 -16.408528 16.997851 3.215154 0 1.000000 1.000000 1.000000 -0.689201 0.711756 0.135666
3162 1 -16.887601 16.513342 3.256451 0 1.000000 1.000000 1.000000 -0.707733 0.693332 0.135664
3163 1 -17.184746 16.316806 2.630029 0 1.000000 1.000000 1.000000 -0.721622 0.683343 0.110926
3164 1 -17.662669 15.792428 2.661226 0 1.000000 1.000000 1.000000 -0.740367 0.662987 0.110924
3165 1 -17.949214 15.563212 2.012628 0 1.000000 1.000000 1.000000 -0.753547 0.651897 0.084841
3166 1 -18.420952 14.998389 2.034203 0 1.000000 1.000000 1.000000 -0.772297 0.629571 0.084839
3167 1 -18.691927 14.736186 1.365695 0 1.000000 1.000000 1.000000 -0.784561 0.617377 0.057534
3168 1 -19.151968 14.131307 1.378561 0 1.000000 1.000000 1.000000 -0.803078 0.593090 0.057533
3169 1 -19.402205 13.836749 0.693133 0 1.000000 1.000000 1.000000 -0.814221 0.579821 0.029180
3170 1 -19.844770 13.193332 0.698662 0 1.000000 1.000000 1.000000 -0.832245 0.553640 0.029180
3171 1 -20.069154 12.868110 -0.000000 0 1.000000 1.000000 1.000000 -0.842076 0.539359 0.000000
3172 1 -20.488476 12.188901 -0.000000 0 1.000000 1.000000 1.000000 -0.859337 0.511410 0.000000
3173 1 -20.682239 11.835818 -0.707598 0 1.000000 1.000000 1.000000 -0.867688 0.496218 -0.029742
3174 1 -21.072875 11.124813 -0.710943 0 1.000000 1.000000 1.000000 -0.883920 0.466692 -0.029742
3175 1 -21.231903 10.747740 -1.422717 0 1.000000 1.000000 1.000000 -0.890662 0.450722 -0.059750
3176 1 -21.589061 10.010095 -1.426954 0 1.000000 1.000000 1.000000 -0.905616 0.419868 -0.059749
3177 1 -21.710179 9.613832 -2.137879 0 1.000000 1.000000 1.000000 -0.910667 0.403284 -0.089704
3178 1 -22.030012 8.855671 -2.140427 0 1.000000 1.000000 1.000000 -0.924129 0.371400 -0.089704
3179 1 -22.111197 8.445720 -2.845444 0 1.000000 1.000000 1.000000 -0.927458 0.354389 -0.119287
3180 1 -22.391027 7.673846 -2.843758 0 1.000000 1.000000 1.000000 -0.939261 0.321806 -0.119287
3181 1 -22.431532 7.256110 -3.538014 0 1.000000 1.000000 1.000000 -0.940893 0.304567 -0.148189
3182 1 -22.669976 6.477661 -3.529741 0 1.000000 1.000000 1.000000 -0.950923 0.271634 -0.148190
3183 1 -22.670341 6.058112 -4.208810 0 1.000000 1.000000 1.000000 -0.950933 0.254367 -0.176135
3184 1 -22.867321 5.280192 -4.191927 0 1.000000 1.000000 1.000000 -0.959137 0.221431 -0.176136
3185 1 -22.829277 4.864555 -4.851987 0 1.000000 1.000000 1.000000 -0.957646 0.204329 -0.202887
3186 1 -22.985920 4.093890 -4.824904 0 1.000000 1.000000 1.000000 -0.964027 0.171718 -0.202889
3187 1 -22.912202 3.687361 -5.462854 0 1.000000 1.000000 1.000000 -0.961191 0.154954 -0.228259
3188 1 -23.030661 2.930014 -5.424463 0 1.000000 1.000000 1.000000 -0.965804 0.122964 -0.228261
3189 1 -22.924761 2.537059 -6.037976 0 1.000000 1.000000 1.000000 -0.961798 0.106689 -0.252117
3190 1 -23.007977 1.798228 -5.987665 0 1.000000 1.000000 1.000000 -0.964741 0.075570 -0.252120
3191 1 -22.873879 1.422465 -6.575180 0 1.000000 1.000000 1.000000 -0.959754 0.059905 -0.274380
3192 1 -22.925325 0.706373 -6.512793 0 1.000000 1.000000 1.000000 -0.961157 0.029861 -0.274384
3193 1 -22.767241 0.350525 -7.073459 0 1.000000 1.000000 1.000000 -0.955376 0.014899 -0.295015
3194 1 -15.738929 17.731916 2.528450 0 1.000000 1.000000 1.000000 -0.661465 0.742341 0.106741
3195 1 -16.221205 17.286143 2.563510 0 1.000000 1.000000 1.000000 -0.679453 0.725914 0.106739
3196 1 -16.504755 17.097464 1.940392 0 1.000000 1.000000 1.000000 -0.693409 0.715877 0.081883
3197 1 -16.989224 16.612635 1.965614 0 1.000000 1.000000 1.000000 -0.711835 0.697558 0.081882
3198 1 -17.263615 16.391641 1.321042 0 1.000000 1.000000 1.000000 -0.725054 0.686434 0.055720
3199 1 -17.745682 15.866595 1.336859 0 1.000000 1.000000 1.000000 -0.743734 0.666149 0.055719
3200 1 -18.006263 15.612646 0.673006 0 1.000000 1.000000 1.000000 -0.756018 0.653935 0.028371
3201 1 -18.480770 15.047059 0.680267 0 1.000000 1.000000 1.000000 -0.774734 0.631650 0.028371
3202 1 -18.722628 14.760376 -0.000000 0 1.000000 1.000000 1.000000 -0.785885 0.618372 0.000000
3203 1 -19.184022 14.154943 -0.000000 0 1.000000 1.000000 1.000000 -0.804390 0.594102 0.000000
3204 1 -19.402205 13.836749 -0.693133 0 1.000000 1.000000 1.000000 -0.814221 0.579821 -0.029180
3205 1 -19.844770 13.193332 -0.698662 0 1.000000 1.000000 1.000000 -0.832245 0.553640 -0.029180
3206 1 -20.034549 12.845931 -1.400508 0 1.000000 1.000000 1.000000 -0.840595 0.538451 -0.058915
3207 1 -20.452695 12.167625 -1.409444 0 1.000000 1.000000 1.000000 -0.857861 0.510494 -0.058914
3208 1 -20.609858 11.794411 -2.115375 0 1.000000 1.000000 1.000000 -0.864602 0.494528 -0.088914
3209 1 -20.998431 11.085529 -2.125303 0 1.000000 1.000000 1.000000 -0.880838 0.464994 -0.088913
3210 1 -21.119568 10.690887 -2.830398 0 1.000000 1.000000 1.000000 -0.885888 0.448412 -0.118865
3211 1 -21.474158 9.956834 -2.838737 0 1.000000 1.000000 1.000000 -0.900844 0.417554 -0.118865
3212 1 -21.556891 9.545958 -3.538003 0 1.000000 1.000000 1.000000 -0.904173 0.400541 -0.148451
3213 1 -21.874097 8.793005 -3.542161 0 1.000000 1.000000 1.000000 -0.917634 0.368660 -0.148451
3214 1 -21.917244 8.371630 -4.230770 0 1.000000 1.000000 1.000000 -0.919266 0.351416 -0.177362
3215 1 -22.194848 7.606609 -4.228308 0 1.000000 1.000000 1.000000 -0.931065 0.318841 -0.177362
3216 1 -22.198475 7.180698 -4.901814 0 1.000000 1.000000 1.000000 -0.931075 0.301570 -0.205315
3217 1 -22.435524 6.410651 -4.890589 0 1.000000 1.000000 1.000000 -0.941103 0.268645 -0.205316
3218 1 -22.400898 5.986068 -5.545120 0 1.000000 1.000000 1.000000 -0.939612 0.251543 -0.232067
3219 1 -22.597672 5.217893 -5.523401 0 1.000000 1.000000 1.000000 -0.947816 0.218607 -0.232069
3220 1 -22.527112 4.800107 -6.155784 0 1.000000 1.000000 1.000000 -0.944981 0.201855 -0.257422
3221 1 -22.685000 4.040241 -6.122321 0 1.000000 1.000000 1.000000 -0.951365 0.169224 -0.257424
3222 1 -22.581666 3.634085 -6.730152 0 1.000000 1.000000 1.000000 -0.947366 0.152979 -0.281237
3223 1 -22.702969 2.888252 -6.684198 0 1.000000 1.000000 1.000000 -0.951986 0.120938 -0.281240
3224 1 -22.570603 2.497766 -7.265844 0 1.000000 1.000000 1.000000 -0.947017 0.105329 -0.303423
3225 1 -22.658297 1.770810 -7.207138 0 1.000000 1.000000 1.000000 -0.949968 0.074116 -0.303426
3226 1 -22.500973 1.399161 -7.761693 0 1.000000 1.000000 1.000000 -0.944221 0.059242 -0.323940
3227 1 -22.558470 0.694967 -7.690401 0 1.000000 1.000000 1.000000 -0.945630 0.029053 -0.323944
3228 1 -22.380353 0.344442 -8.217600 0 1.000000 1.000000 1.000000 -0.939292 0.014981 -0.342792
3229 1 -15.055038 18.396705 1.860151 0 1.000000 1.000000 1.000000 -0.633131 0.770048 0.078560
3230 1 -15.536221 17.988842 1.887574 0 1.000000 1.000000 1.000000 -0.650386 0.755531 0.078559
3231 1 -15.805665 17.807048 1.269579 0 1.000000 1.000000 1.000000 -0.664400 0.745453 0.053600
3232 1 -16.291923 17.361443 1.287336 0 1.000000 1.000000 1.000000 -0.682290 0.729114 0.053599
3233 1 -16.553506 17.147930 0.648705 0 1.000000 1.000000 1.000000 -0.695542 0.717964 0.027376
3234 1 -17.040728 16.662957 0.657189 0 1.000000 1.000000 1.000000 -0.713912 0.699700 0.027375
3235 1 -17.290147 16.416815 -0.000000 0 1.000000 1.000000 1.000000 -0.726209 0.687474 0.000000
3236 1 -17.773614 15.891550 -0.000000 0 1.000000 1.000000 1.000000 -0.744867 0.667213 0.000000
3237 1 -18.006263 15.612646 -0.673006 0 1.000000 1.000000 1.000000 -0.756018 0.653935 -0.028371
3238 1 -18.480770 15.047059 -0.680267 0 1.000000 1.000000 1.000000 -0.774734 0.631650 -0.028371
3239 1 -18.691927 14.736186 -1.365695 0 1.000000 1.000000 1.000000 -0.784561 0.617377 -0.057534
3240 1 -19.151968 14.131307 -1.378561 0 1.000000 1.000000 1.000000 -0.803078 0.593090 -0.057533
3241 1 -19.337029 13.790292 -2.072423 0 1.000000 1.000000 1.000000 -0.811421 0.577913 -0.087245
3242 1 -19.777045 13.148333 -2.088841 0 1.000000 1.000000 1.000000 -0.829461 0.551708 -0.087244
3243 1 -19.931795 12.780075 -2.786668 0 1.000000 1.000000 1.000000 -0.836198 0.535754 -0.117222
3244 1 -20.346462 12.104458 -2.804266 0 1.000000 1.000000 1.000000 -0.853478 0.507775 -0.117220
3245 1 -20.467343 11.712881 -3.501276 0 1.000000 1.000000 1.000000 -0.858526 0.491200 -0.147160
3246 1 -20.851875 11.008191 -3.517480 0 1.000000 1.000000 1.000000 -0.874770 0.461652 -0.147159
3247 1 -20.936230 10.598101 -4.208786 0 1.000000 1.000000 1.000000 -0.878099 0.444639 -0.176746
3248 1 -21.286656 9.869921 -4.220970 0 1.000000 1.000000 1.000000 -0.893055 0.413781 -0.176745
3249 1 -21.332915 9.446784 -4.901801 0 1.000000 1.000000 1.000000 -0.894687 0.396529 -0.205670
3250 1 -21.646297 8.701446 -4.907443 0 1.000000 1.000000 1.000000 -0.908142 0.364661 -0.205670
3251 1 -21.654071 8.271099 -5.573368 0 1.000000 1.000000 1.000000 -0.908152 0.347376 -0.233645
3252 1 -21.928644 7.515372 -5.570202 0 1.000000 1.000000 1.000000 -0.919943 0.314825 -0.233646
3253 1 -21.898718 7.083705 -6.217322 0 1.000000 1.000000 1.000000 -0.918450 0.297708 -0.260421
3254 1 -22.133922 6.324449 -6.203465 0 1.000000 1.000000 1.000000 -0.928470 0.264809 -0.260422
3255 1 -22.068156 5.897102 -6.828549 0 1.000000 1.000000 1.000000 -0.925632 0.248047 -0.285793
3256 1 -22.264572 5.140936 -6.802588 0 1.000000 1.000000 1.000000 -0.933831 0.215129 -0.285795
3257 1 -22.165726 4.723032 -7.403158 0 1.000000 1.000000 1.000000 -0.929832 0.198885 -0.309608
3258 1 -22.324931 3.976048 -7.364185 0 1.000000 1.000000 1.000000 -0.936216 0.166253 -0.309610
3259 1 -22.196430 3.571998 -7.938533 0 1.000000 1.000000 1.000000 -0.931252 0.150664 -0.331767
3260 1 -22.320800 2.839550 -7.886146 0 1.000000 1.000000 1.000000 -0.935877 0.118590 -0.331770
3261 1 -22.166494 2.452937 -8.433300 0 1.000000 1.000000 1.000000 -0.930147 0.103760 -0.352223
3262 1 -22.258973 1.739504 -8.367553 0 1.000000 1.000000 1.000000 -0.933104 0.072474 -0.352227
3263 1 -22.082897 1.373041 -8.887196 0 1.000000 1.000000 1.000000 -0.926800 0.058479 -0.370973
3264 1 -22.146780 0.682173 -8.808535 0 1.000000 1.000000 1.000000 -0.928214 0.028165 -0.370978
3265 1 -21.952952 0.337731 -9.300909 0 1.000000 1.000000 1.000000 -0.921514 0.015051 -0.388054
3266 1 -14.364445 18.993885 1.214150 0 1.000000 1.000000 1.000000 -0.604507 0.794946 0.051294
3267 1 -14.840733 18.622427 1.232939 0 1.000000 1.000000 1.000000 -0.620881 0.782225 0.051294
3268 1 -15.095896 18.446595 0.621731 0 1.000000 1.000000 1.000000 -0.634939 0.772116 0.026259
3269 1 -15.579645 18.039079 0.630948 0 1.000000 1.000000 1.000000 -0.652117 0.757664 0.026258
3270 1 -15.828099 17.832305 -0.000000 0 1.000000 1.000000 1.000000 -0.665387 0.746499 0.000000
3271 1 -16.315702 17.386762 -0.000000 0 1.000000 1.000000 1.000000 -0.683244 0.730190 0.000000
3272 1 -16.553506 17.147930 -0.648705 0 1.000000 1.000000 1.000000 -0.695542 0.717964 -0.027376
3273 1 -17.040728 16.662957 -0.657189 0 1.000000 1.000000 1.000000 -0.713912 0.699700 -0.027375
3274 1 -17.263615 16.391641 -1.321042 0 1.000000 1.000000 1.000000 -0.725054 0.686434 -0.055720
3275 1 -17.745682 15.866595 -1.336859 0 1.000000 1.000000 1.000000 -0.743734 0.666149 -0.055719
3276 1 -17.949214 15.563212 -2.012628 0 1.000000 1.000000 1.000000 -0.753547 0.651897 -0.084841
3277 1 -18.420952 14.998389 -2.034203 0 1.000000 1.000000 1.000000 -0.772297 0.629571 -0.084839
3278 1 -18.600719 14.664321 -2.718079 0 1.000000 1.000000 1.000000 -0.780627 0.614419 -0.114502
3279 1 -19.056757 14.061102 -2.743433 0 1.000000 1.000000 1.000000 -0.799180 0.590085 -0.114501
3280 1 -19.208621 13.698764 -3.431130 0 1.000000 1.000000 1.000000 -0.805907 0.574154 -0.144435
3281 1 -19.643644 13.059697 -3.457948 0 1.000000 1.000000 1.000000 -0.823977 0.547905 -0.144433
3282 1 -19.763990 12.672526 -4.144854 0 1.000000 1.000000 1.000000 -0.829020 0.531347 -0.174344
3283 1 -20.173021 12.001327 -4.170585 0 1.000000 1.000000 1.000000 -0.846319 0.503337 -0.174342
3284 1 -20.258995 11.593689 -4.851949 0 1.000000 1.000000 1.000000 -0.849647 0.486330 -0.203919
3285 1 -20.637672 10.895153 -4.873946 0 1.000000 1.000000 1.000000 -0.865897 0.456771 -0.203917
3286 1 -20.687381 10.472160 -5.545093 0 1.000000 1.000000 1.000000 -0.867530 0.439513 -0.232853
3287 1 -21.032199 9.751971 -5.560764 0 1.000000 1.000000 1.000000 -0.882481 0.408666 -0.232852
3288 1 -21.044836 9.319226 -6.217307 0 1.000000 1.000000 1.000000 -0.882490 0.391362 -0.260859
3289 1 -21.353326 8.583692 -6.224270 0 1.000000 1.000000 1.000000 -0.895932 0.359526 -0.260859
3290 1 -21.329206 8.147002 -6.862308 0 1.000000 1.000000 1.000000 -0.894436 0.342381 -0.287679
3291 1 -21.600024 7.402742 -6.858525 0 1.000000 1.000000 1.000000 -0.906210 0.309877 -0.287679
3292 1 -21.540526 6.967807 -7.474786 0 1.000000 1.000000 1.000000 -0.903367 0.293082 -0.313099
3293 1 -21.773454 6.221423 -7.458666 0 1.000000 1.000000 1.000000 -0.913370 0.260237 -0.313100
3294 1 -21.680889 5.793561 -8.050605 0 1.000000 1.000000 1.000000 -0.909363 0.243964 -0.336957
3295 1 -21.876744 5.051336 -8.021057 0 1.000000 1.000000 1.000000 -0.917550 0.211094 -0.336959
3296 1 -21.754154 4.635258 -8.586887 0 1.000000 1.000000 1.000000 -0.912580 0.195486 -0.359143
3297 1 -21.914635 3.902904 -8.543335 0 1.000000 1.000000 1.000000 -0.918958 0.162884 -0.359146
3298 1 -21.765572 3.502565 -9.082005 0 1.000000 1.000000 1.000000 -0.913227 0.148055 -0.379599
3299 1 -21.893061 2.785046 -9.024357 0 1.000000 1.000000 1.000000 -0.917851 0.115981 -0.379603
3300 1 -21.721354 2.403564 -9.535486 0 1.000000 1.000000 1.000000 -0.911559 0.102013 -0.398314
3301 1 -21.818711 1.704993 -9.464072 0 1.000000 1.000000 1.000000 -0.914520 0.070684 -0.398319
3302 1 -21.628259 1.344646 -9.947855 0 1.000000 1.000000 1.000000 -0.907849 0.057629 -0.415319
3303 1 -21.698618 0.668251 -9.863352 0 1.000000 1.000000 1.000000 -0.909266 0.027222 -0.415324
3304 1 -21.493216 0.330521 -10.320443 0 1.000000 1.000000 1.000000 -0.902381 0.015104 -0.430675
3305 1 -13.673945 19.526300 0.593408 0 1.000000 1.000000 1.000000 -0.575872 0.817155 0.025077
3306 1 -14.142099 19.189239 0.602943 0 1.000000 1.000000 1.000000 -0.591256 0.806094 0.025076
3307 1 -14.383091 19.018523 -0.000000 0 1.000000 1.000000 1.000000 -0.605338 0.795969 -0.000000
3308 1 -14.860601 18.647337 -0.000000 0 1.000000 1.000000 1.000000 -0.621667 0.783281 -0.000000
3309 1 -15.095896 18.446595 -0.621731 0 1.000000 1.000000 1.000000 -0.634939 0.772116 -0.026259
3310 1 -15.579645 18.039079 -0.630948 0 1.000000 1.000000 1.000000 -0.652117 0.757664 -0.026258
3311 1 -15.805665 17.807048 -1.269579 0 1.000000 1.000000 1.000000 -0.664400 0.745453 -0.053600
3312 1 -16.291923 17.361443 -1.287336 0 1.000000 1.000000 1.000000 -0.682290 0.729114 -0.053599
3313 1 -16.504755 17.097464 -1.940392 0 1.000000 1.000000 1.000000 -0.693409 0.715877 -0.081883
3314 1 -16.989224 16.612635 -1.965614 0 1.000000 1.000000 1.000000 -0.711835 0.697558 -0.081882
3315 1 -17.184746 16.316806 -2.630029 0 1.000000 1.000000 1.000000 -0.721622 0.683343 -0.110926
3316 1 -17.662669 15.792428 -2.661226 0 1.000000 1.000000 1.000000 -0.740367 0.662987 -0.110924
3317 1 -17.836721 15.465733 -3.333384 0 1.000000 1.000000 1.000000 -0.748675 0.647876 -0.140506
3318 1 -18.303033 14.902448 -3.368662 0 1.000000 1.000000 1.000000 -0.767490 0.625474 -0.140504
3319 1 -18.451623 14.546844 -4.044478 0 1.000000 1.000000 1.000000 -0.774200 0.609582 -0.170365
3320 1 -18.901173 13.946379 -4.081593 0 1.000000 1.000000 1.000000 -0.792808 0.585177 -0.170362
3321 1 -19.020707 13.564819 -4.756647 0 1.000000 1.000000 1.000000 -0.797842 0.568649 -0.200217
3322 1 -19.448501 12.930034 -4.793091 0 1.000000 1.000000 1.000000 -0.815951 0.542345 -0.200215
3323 1 -19.536012 12.526410 -5.462801 0 1.000000 1.000000 1.000000 -0.819275 0.525355 -0.229762
3324 1 -19.937475 11.861265 -5.495927 0 1.000000 1.000000 1.000000 -0.836593 0.497315 -0.229759
3325 1 -19.990824 11.440273 -6.155742 0 1.000000 1.000000 1.000000 -0.838225 0.480057 -0.258696
3326 1 -20.362053 10.749704 -6.182910 0 1.000000 1.000000 1.000000 -0.854476 0.450497 -0.258695
3327 1 -20.380072 10.316631 -6.828519 0 1.000000 1.000000 1.000000 -0.854485 0.433175 -0.286732
3328 1 -20.718038 9.606343 -6.847246 0 1.000000 1.000000 1.000000 -0.869421 0.402359 -0.286731
3329 1 -20.700600 9.166803 -7.474771 0 1.000000 1.000000 1.000000 -0.867922 0.385178 -0.313609
3330 1 -21.003279 8.442996 -7.482870 0 1.000000 1.000000 1.000000 -0.881339 0.353401 -0.313608
3331 1 -20.951286 8.002641 -8.089018 0 1.000000 1.000000 1.000000 -0.878486 0.336557 -0.339103
3332 1 -21.217715 7.271712 -8.084716 0 1.000000 1.000000 1.000000 -0.890231 0.304133 -0.339103
3333 1 -21.133004 6.835950 -8.666883 0 1.000000 1.000000 1.000000 -0.886210 0.287804 -0.363043
3334 1 -21.363249 6.104183 -8.648891 0 1.000000 1.000000 1.000000 -0.896186 0.255049 -0.363044
3335 1 -21.248431 5.677941 -9.205209 0 1.000000 1.000000 1.000000 -0.891198 0.239387 -0.385306
3336 1 -21.443481 4.951241 -9.172752 0 1.000000 1.000000 1.000000 -0.899362 0.206604 -0.385308
3337 1 -21.301745 4.538780 -9.702085 0 1.000000 1.000000 1.000000 -0.893615 0.191731 -0.405823
3338 1 -21.463355 3.822458 -9.654889 0 1.000000 1.000000 1.000000 -0.899978 0.159199 -0.405826
3339 1 -21.298254 3.427263 -10.156775 0 1.000000 1.000000 1.000000 -0.893674 0.145205 -0.424573
3340 1 -21.428764 2.725888 -10.095020 0 1.000000 1.000000 1.000000 -0.898291 0.113171 -0.424577
3341 1 -21.244008 2.350628 -10.569586 0 1.000000 1.000000 1.000000 -0.891620 0.100116 -0.441578
3342 1 -21.346147 1.667957 -10.493834 0 1.000000 1.000000 1.000000 -0.894580 0.068786 -0.441582
3343 1 -21.145427 1.314499 -10.941688 0 1.000000 1.000000 1.000000 -0.887713 0.056701 -0.456893
3344 1 -21.222137 0.653457 -10.852800 0 1.000000 1.000000 1.000000 -0.889132 0.026244 -0.456898
3345 1 -21.008977 0.322937 -11.274924 0 1.000000 1.000000 1.000000 -0.882217 0.015134 -0.470600
3346 1 -12.989417 19.997655 0.000000 0 1.000000 1.000000 1.000000 -0.547465 0.836829 0.000000
3347 1 -13.446784 19.692645 -0.000000 0 1.000000 1.000000 1.000000 -0.561789 0.827281 0.000000
3348 1 -13.673945 19.526300 -0.593408 0 1.000000 1.000000 1.000000 -0.575872 0.817155 -0.025077
3349 1 -14.142099 19.189239 -0.602943 0 1.000000 1.000000 1.000000 -0.591256 0.806094 -0.025076
3350 1 -14.364445 18.993885 -1.214150 0 1.000000 1.000000 1.000000 -0.604507 0.794946 -0.051294
3351 1 -14.840733 18.622427 -1.232939 0 1.000000 1.000000 1.000000 -0.620881 0.782225 -0.051294
3352 1 -15.055038 18.396705 -1.860151 0 1.000000 1.000000 1.000000 -0.633131 0.770048 -0.078560
3353 1 -15.536221 17.988842 -1.887574 0 1.000000 1.000000 1.000000 -0.650386 0.755531 -0.078559
3354 1 -15.738929 17.731916 -2.528450 0 1.000000 1.000000 1.000000 -0.661465 0.742341 -0.106741
3355 1 -16.221205 17.286143 -2.563510 0 1.000000 1.000000 1.000000 -0.679453 0.725914 -0.106739
3356 1 -16.408528 16.997851 -3.215154 0 1.000000 1.000000 1.000000 -0.689201 0.711756 -0.135666
3357 1 -16.887601 16.513342 -3.256451 0 1.000000 1.000000 1.000000 -0.707733 0.693332 -0.135664
3358 1 -17.055663 16.194322 -3.915447 0 1.000000 1.000000 1.000000 -0.716007 0.678283 -0.165125
3359 1 -17.526861 15.671091 -3.961182 0 1.000000 1.000000 1.000000 -0.734856 0.657816 -0.165123
3360 1 -17.671870 15.322883 -4.623659 0 1.000000 1.000000 1.000000 -0.741541 0.641983 -0.194872
3361 1 -18.130320 14.761921 -4.671676 0 1.000000 1.000000 1.000000 -0.760445 0.619475 -0.194870
3362 1 -18.248774 14.387012 -5.333425 0 1.000000 1.000000 1.000000 -0.765463 0.602997 -0.224635
3363 1 -18.689611 13.790375 -5.381281 0 1.000000 1.000000 1.000000 -0.784138 0.578506 -0.224632
3364 1 -18.778508 13.392178 -6.037909 0 1.000000 1.000000 1.000000 -0.787455 0.561549 -0.254121
3365 1 -19.197115 12.762998 -6.082984 0 1.000000 1.000000 1.000000 -0.805604 0.535188 -0.254118
3366 1 -19.254146 12.345754 -6.730095 0 1.000000 1.000000 1.000000 -0.807235 0.517941 -0.283036
3367 1 -19.646391 11.688174 -6.769726 0 1.000000 1.000000 1.000000 -0.824566 0.489880 -0.283033
3368 1 -19.670094 11.256786 -7.403114 0 1.000000 1.000000 1.000000 -0.824574 0.472545 -0.311092
3369 1 -20.032546 10.575812 -7.434739 0 1.000000 1.000000 1.000000 -0.840815 0.443006 -0.311090
3370 1 -20.022405 10.135615 -8.050576 0 1.000000 1.000000 1.000000 -0.839311 0.425787 -0.338026
3371 1 -20.352494 9.436893 -8.071881 0 1.000000 1.000000 1.000000 -0.854218 0.395032 -0.338025
3372 1 -20.308956 8.993387 -8.666869 0 1.000000 1.000000 1.000000 -0.851355 0.378129 -0.363611
3373 1 -20.605070 8.282941 -8.675906 0 1.000000 1.000000 1.000000 -0.864732 0.346447 -0.363610
3374 1 -20.529495 7.841522 -9.247394 0 1.000000 1.000000 1.000000 -0.860692 0.330042 -0.387662
3375 1 -20.791001 7.125461 -9.242672 0 1.000000 1.000000 1.000000 -0.872393 0.297739 -0.387663
3376 1 -20.685542 6.691173 -9.788715 0 1.000000 1.000000 1.000000 -0.867377 0.281992 -0.410046
3377 1 -20.912728 5.975421 -9.769244 0 1.000000 1.000000 1.000000 -0.877312 0.249370 -0.410048
3378 1 -20.780167 5.552754 -10.288613 0 1.000000 1.000000 1.000000 -0.871530 0.234412 -0.430681
3379 1 -20.974134 4.842813 -10.253911 0 1.000000 1.000000 1.000000 -0.879661 0.201761 -0.430684
3380 1 -20.817685 4.435560 -10.746050 0 1.000000 1.000000 1.000000 -0.873322 0.187692 -0.449533
3381 1 -20.980195 3.736332 -10.696109 0 1.000000 1.000000 1.000000 -0.879663 0.155276 -0.449537
3382 1 -20.803315 3.347518 -11.161060 0 1.000000 1.000000 1.000000 -0.872961 0.142164 -0.466614
3383 1 -20.936619 2.663188 -11.096291 0 1.000000 1.000000 1.000000 -0.877565 0.110217 -0.466618
3384 1 -20.742830 2.295057 -11.534594 0 1.000000 1.000000 1.000000 -0.870679 0.098100 -0.481969
3385 1 -20.849498 1.629039 -11.455743 0 1.000000 1.000000 1.000000 -0.873634 0.066818 -0.481974
3386 1 -20.642231 1.283091 -11.868331 0 1.000000 1.000000 1.000000 -0.866719 0.055708 -0.495677
3387 1 -20.724999 0.638030 -11.776400 0 1.000000 1.000000 1.000000 -0.868137 0.025251 -0.495682
3388 1 -20.507486 0.315093 -12.164492 0 1.000000 1.000000 1.000000 -0.861323 0.015138 -0.507833
3389 1 -12.164492 20.507486 -0.315093 0 1.000000 1.000000 1.000000 -0.507833 0.861323 -0.015138
3390 1 -11.274924 21.008977 -0.322937 0 1.000000 1.000000 1.000000 -0.470600 0.882217 -0.015134
3391 1 -11.776400 20.724999 -0.638030 0 1.000000 1.000000 1.000000 -0.495682 0.868137 -0.025251
3392 1 -11.868331 20.642231 -1.283091 0 1.000000 1.000000 1.000000 -0.495677 0.866719 -0.055708
3393 1 -10.320443 21.493216 -0.330521 0 1.000000 1.000000 1.000000 -0.430675 0.902381 -0.015104
3394 1 -10.852800 21.222137 -0.653457 0 1.000000 1.000000 1.000000 -0.456898 0.889132 -0.026244
3395 1 -10.941688 21.145427 -1.314499 0 1.000000 1.000000 1.000000 -0.456893 0.887713 -0.056701
3396 1 -11.455743 20.849498 -1.629039 0 1.000000 1.000000 1.000000 -0.481974 0.873634 -0.066818
3397 1 -11.534594 20.742830 -2.295057 0 1.000000 1.000000 1.000000 -0.481969 0.870679 -0.098100
3398 1 -9.300909 21.952952 -0.337731 0 1.000000 1.000000 1.000000 -0.388054 0.921514 -0.015051
3399 1 -9.863352 21.698618 -0.668251 0 1.000000 1.000000 1.000000 -0.415324 0.909266 -0.027222
3400 1 -9.947855 21.628259 -1.344646 0 1.000000 1.000000 1.000000 -0.415319 0.907849 -0.057629
3401 1 -10.493834 21.346147 -1.667957 0 1.000000 1.000000 1.000000 -0.441582 0.894580 -0.068786
3402 1 -10.569586 21.244008 -2.350628 0 1.000000 1.000000 1.000000 -0.441578 0.891620 -0.100116
3403 1 -11.096291 20.936619 -2.663188 0 1.000000 1.000000 1.000000 -0.466618 0.877565 -0.110217
3404 1 -11.161060 20.803315 -3.347518 0 1.000000 1.000000 1.000000 -0.466614 0.872961 -0.142164
3405 1 -8.217600 22.380353 -0.344442 0 1.000000 1.000000 1.000000 -0.342792 0.939292 -0.014981
3406 1 -8.808535 22.146780 -0.682173 0 1.000000 1.000000 1.000000 -0.370978 0.928214 -0.028165
3407 1 -8.887196 22.082897 -1.373041 0 1.000000 1.000000 1.000000 -0.370973 0.926800 -0.058479
3408 1 -9.464072 21.818711 -1.704993 0 1.000000 1.000000 1.000000 -0.398319 0.914520 -0.070684
3409 1 -9.535486 21.721354 -2.403564 0 1.000000 1.000000 1.000000 -0.398314 0.911559 -0.102013
3410 1 -10.095020 21.428764 -2.725888 0 1.000000 1.000000 1.000000 -0.424577 0.898291 -0.113171
3411 1 -10.156775 21.298254 -3.427263 0 1.000000 1.000000 1.000000 -0.424573 0.893674 -0.145205
3412 1 -10.696109 20.980195 -3.736332 0 1.000000 1.000000 1.000000 -0.449537 0.879663 -0.155276
3413 1 -10.746050 20.817685 -4.435560 0 1.000000 1.000000 1.000000 -0.449533 0.873322 -0.187692
3414 1 -7.073459 22.767241 -0.350525 0 1.000000 1.000000 1.000000 -0.295015 0.955376 -0.014899
3415 1 -7.690401 22.558470 -0.694967 0 1.000000 1.000000 1.000000 -0.323944 0.945630 -0.029053
3416 1 -7.761693 22.500973 -1.399161 0 1.000000 1.000000 1.000000 -0.323940 0.944221 -0.059242
3417 1 -8.367553 22.258973 -1.739504 0 1.000000 1.000000 1.000000 -0.352227 0.933104 -0.072474
3418 1 -8.433300 22.166494 -2.452937 0 1.000000 1.000000 1.000000 -0.352223 0.930147 -0.103760
3419 1 -9.024357 21.893061 -2.785046 0 1.000000 1.000000 1.000000 -0.379603 0.917851 -0.115981
3420 1 -9.082005 21.765572 -3.502565 0 1.000000 1.000000 1.000000 -0.379599 0.913227 -0.148055
3421 1 -9.654889 21.463355 -3.822458 0 1.000000 1.000000 1.000000 -0.405826 0.899978 -0.159199
3422 1 -9.702085 21.301745 -4.538780 0 1.000000 1.000000 1.000000 -0.405823 0.893615 -0.191731
3423 1 -10.253911 20.974134 -4.842813 0 1.000000 1.000000 1.000000 -0.430684 0.879661 -0.201761
3424 1 -10.288613 20.780167 -5.552754 0 1.000000 1.000000 1.000000 -0.430681 0.871530 -0.234412
3425 1 -5.873269 23.105422 -0.355848 0 1.000000 1.000000 1.000000 -0.244921 0.969430 -0.014814
3426 1 -6.512793 22.925325 -0.706373 0 1.000000 1.000000 1.000000 -0.274384 0.961157 -0.029861
3427 1 -6.575180 22.873879 -1.422465 0 1.000000 1.000000 1.000000 -0.274380 0.959754 -0.059905
3428 1 -7.207138 22.658297 -1.770810 0 1.000000 1.000000 1.000000 -0.303426 0.949968 -0.074116
3429 1 -7.265844 22.570603 -2.497766 0 1.000000 1.000000 1.000000 -0.303423 0.947017 -0.105329
3430 1 -7.886146 22.320800 -2.839550 0 1.000000 1.000000 1.000000 -0.331770 0.935877 -0.118590
3431 1 -7.938533 22.196430 -3.571998 0 1.000000 1.000000 1.000000 -0.331767 0.931252 -0.150664
3432 1 -8.543335 21.914635 -3.902904 0 1.000000 1.000000 1.000000 -0.359146 0.918958 -0.162884
3433 1 -8.586887 21.754154 -4.635258 0 1.000000 1.000000 1.000000 -0.359143 0.912580 -0.195486
3434 1 -9.172752 21.443481 -4.951241 0 1.000000 1.000000 1.000000 -0.385308 0.899362 -0.206604
3435 1 -9.205209 21.248431 -5.677941 0 1.000000 1.000000 1.000000 -0.385306 0.891198 -0.239387
3436 1 -9.769244 20.912728 -5.975421 0 1.000000 1.000000 1.000000 -0.410048 0.877312 -0.249370
3437 1 -9.788715 20.685542 -6.691173 0 1.000000 1.000000 1.000000 -0.410046 0.867377 -0.281992
3438 1 -4.623735 23.387074 -0.360285 0 1.000000 1.000000 1.000000 -0.192790 0.981129 -0.014732
3439 1 -5.281490 23.239146 -0.716133 0 1.000000 1.000000 1.000000 -0.222540 0.974444 -0.030565
3440 1 -5.333499 23.193149 -1.442422 0 1.000000 1.000000 1.000000 -0.222537 0.973048 -0.060461
3441 1 -5.987665 23.007977 -1.798228 0 1.000000 1.000000 1.000000 -0.252120 0.964741 -0.075570
3442 1 -6.037976 22.924761 -2.537059 0 1.000000 1.000000 1.000000 -0.252117 0.961798 -0.106689
3443 1 -6.684198 22.702969 -2.888252 0 1.000000 1.000000 1.000000 -0.281240 0.951986 -0.120938
3444 1 -6.730152 22.581666 -3.634085 0 1.000000 1.000000 1.000000 -0.281237 0.947366 -0.152979
3445 1 -7.364185 22.324931 -3.976048 0 1.000000 1.000000 1.000000 -0.309610 0.936216 -0.166253
3446 1 -7.403158 22.165726 -4.723032 0 1.000000 1.000000 1.000000 -0.309608 0.929832 -0.198885
3447 1 -8.021057 21.876744 -5.051336 0 1.000000 1.000000 1.000000 -0.336959 0.917550 -0.211094
3448 1 -8.050605 21.680889 -5.793561 0 1.000000 1.000000 1.000000 -0.336957 0.909363 -0.243964
3449 1 -8.648891 21.363249 -6.104183 0 1.000000 1.000000 1.000000 -0.363044 0.896186 -0.255049
3450 1 -8.666883 21.133004 -6.835950 0 1.000000 1.000000 1.000000 -0.363043 0.886210 -0.287804
3451 1 -9.242672 20.791001 -7.125461 0 1.000000 1.000000 1.000000 -0.387663 0.872393 -0.297739
3452 1 -9.247394 20.529495 -7.841522 0 1.000000 1.000000 1.000000 -0.387662 0.860692 -0.330042
3453 1 -3.333444 23.605194 -0.363724 0 1.000000 1.000000 1.000000 -0.138976 0.990187 -0.014662
3454 1 -4.004230 23.492325 -0.724010 0 1.000000 1.000000 1.000000 -0.168741 0.985168 -0.031141
3455 1 -4.044540 23.450911 -1.458538 0 1.000000 1.000000 1.000000 -0.168738 0.983778 -0.060901
3456 1 -4.716055 23.299663 -1.821102 0 1.000000 1.000000 1.000000 -0.198600 0.977068 -0.076793
3457 1 -4.756707 23.220391 -2.569863 0 1.000000 1.000000 1.000000 -0.198597 0.974133 -0.107814
3458 1 -5.424463 23.030661 -2.930014 0 1.000000 1.000000 1.000000 -0.228261 0.965804 -0.122964
3459 1 -5.462854 22.912202 -3.687361 0 1.000000 1.000000 1.000000 -0.228259 0.961191 -0.154954
3460 1 -6.122321 22.685000 -4.040241 0 1.000000 1.000000 1.000000 -0.257424 0.951365 -0.169224
3461 1 -6.155784 22.527112 -4.800107 0 1.000000 1.000000 1.000000 -0.257422 0.944981 -0.201855
3462 1 -6.802588 22.264572 -5.140936 0 1.000000 1.000000 1.000000 -0.285795 0.933831 -0.215129
3463 1 -6.828549 22.068156 -5.897102 0 1.000000 1.000000 1.000000 -0.285793 0.925632 -0.248047
3464 1 -7.458666 21.773454 -6.221423 0 1.000000 1.000000 1.000000 -0.313100 0.913370 -0.260237
3465 1 -7.474786 21.540526 -6.967807 0 1.000000 1.000000 1.000000 -0.313099 0.903367 -0.293082
3466 1 -8.084716 21.217715 -7.271712 0 1.000000 1.000000 1.000000 -0.339103 0.890231 -0.304133
3467 1 -8.089018 20.951286 -8.002641 0 1.000000 1.000000 1.000000 -0.339103 0.878486 -0.336557
3468 1 -8.675906 20.605070 -8.282941 0 1.000000 1.000000 1.000000 -0.363610 0.864732 -0.346447
3469 1 -8.666869 20.308956 -8.993387 0 1.000000 1.000000 1.000000 -0.363611 0.851355 -0.378129
3470 1 -2.012667 23.754038 -0.366073 0 1.000000 1.000000 1.000000 -0.083905 0.996367 -0.014611
3471 1 -2.690600 23.678308 -0.729797 0 1.000000 1.000000 1.000000 -0.113393 0.993049 -0.031570
3472 1 -2.718124 23.640370 -1.470385 0 1.000000 1.000000 1.000000 -0.113392 0.991662 -0.061220
3473 1 -3.401278 23.525842 -1.838841 0 1.000000 1.000000 1.000000 -0.143246 0.986629 -0.077748
3474 1 -3.431177 23.449761 -2.595317 0 1.000000 1.000000 1.000000 -0.143244 0.983702 -0.108680
3475 1 -4.115093 23.295558 -2.963775 0 1.000000 1.000000 1.000000 -0.173179 0.976976 -0.124611
3476 1 -4.144899 23.179546 -3.730455 0 1.000000 1.000000 1.000000 -0.173177 0.972370 -0.156543
3477 1 -4.824904 22.985920 -4.093890 0 1.000000 1.000000 1.000000 -0.202889 0.964027 -0.171718
3478 1 -4.851987 22.829277 -4.864555 0 1.000000 1.000000 1.000000 -0.202887 0.957646 -0.204329
3479 1 -5.523401 22.597672 -5.217893 0 1.000000 1.000000 1.000000 -0.232069 0.947816 -0.218607
3480 1 -5.545120 22.400898 -5.986068 0 1.000000 1.000000 1.000000 -0.232067 0.939612 -0.251543
3481 1 -6.203465 22.133922 -6.324449 0 1.000000 1.000000 1.000000 -0.260422 0.928470 -0.264809
3482 1 -6.217322 21.898718 -7.083705 0 1.000000 1.000000 1.000000 -0.260421 0.918450 -0.297708
3483 1 -6.858525 21.600024 -7.402742 0 1.000000 1.000000 1.000000 -0.287679 0.906210 -0.309877
3484 1 -6.862308 21.329206 -8.147002 0 1.000000 1.000000 1.000000 -0.287679 0.894436 -0.342381
3485 1 -7.482870 21.003279 -8.442996 0 1.000000 1.000000 1.000000 -0.313608 0.881339 -0.353401
3486 1 -7.474771 20.700600 -9.166803 0 1.000000 1.000000 1.000000 -0.313609 0.867922 -0.385178
3487 1 -8.071881 20.352494 -9.436893 0 1.000000 1.000000 1.000000 -0.338025 0.854218 -0.395032
3488 1 -8.050576 20.022405 -10.135615 0 1.000000 1.000000 1.000000 -0.338026 0.839311 -0.425787
3489 1 -0.673019 23.829522 -0.367264 0 1.000000 1.000000 1.000000 -0.028056 0.999500 -0.014584
3490 1 -1.351755 23.792037 -0.733337 0 1.000000 1.000000 1.000000 -0.056972 0.997868 -0.031834
3491 1 -1.365719 23.756269 -1.477634 0 1.000000 1.000000 1.000000 -0.056971 0.996485 -0.061413
3492 1 -2.054154 23.680331 -1.850958 0 1.000000 1.000000 1.000000 -0.086517 0.993160 -0.078405
3493 1 -2.072453 23.606497 -2.612712 0 1.000000 1.000000 1.000000 -0.086515 0.990240 -0.109268
3494 1 -2.766323 23.490455 -2.988616 0 1.000000 1.000000 1.000000 -0.116425 0.985197 -0.125827
3495 1 -2.786700 23.376326 -3.762176 0 1.000000 1.000000 1.000000 -0.116424 0.980599 -0.157708
3496 1 -3.481361 23.219619 -4.135556 0 1.000000 1.000000 1.000000 -0.146402 0.973862 -0.173662
3497 1 -3.501306 23.064037 -4.914629 0 1.000000 1.000000 1.000000 -0.146401 0.967487 -0.206244
3498 1 -4.191927 22.867321 -5.280192 0 1.000000 1.000000 1.000000 -0.176136 0.959137 -0.221431
3499 1 -4.208810 22.670341 -6.058112 0 1.000000 1.000000 1.000000 -0.176135 0.950933 -0.254367
3500 1 -4.890589 22.435524 -6.410651 0 1.000000 1.000000 1.000000 -0.205316 0.941103 -0.268645
3501 1 -4.901814 22.198475 -7.180698 0 1.000000 1.000000 1.000000 -0.205315 0.931075 -0.301570
3502 1 -5.570202 21.928644 -7.515372 0 1.000000 1.000000 1.000000 -0.233646 0.919943 -0.314825
3503 1 -5.573368 21.654071 -8.271099 0 1.000000 1.000000 1.000000 -0.233645 0.908152 -0.347376
3504 1 -6.224270 21.353326 -8.583692 0 1.000000 1.000000 1.000000 -0.260859 0.895932 -0.359526
3505 1 -6.217307 21.044836 -9.319226 0 1.000000 1.000000 1.000000 -0.260859 0.882490 -0.391362
3506 1 -6.847246 20.718038 -9.606343 0 1.000000 1.000000 1.000000 -0.286731 0.869421 -0.402359
3507 1 -6.828519 20.380072 -10.316631 0 1.000000 1.000000 1.000000 -0.286732 0.854485 -0.433175
3508 1 -7.434739 20.032546 -10.575812 0 1.000000 1.000000 1.000000 -0.311090 0.840815 -0.443006
3509 1 -7.403114 19.670094 -11.256786 0 1.000000 1.000000 1.000000 -0.311092 0.824574 -0.472545
3510 1 0.673019 23.829522 -0.367264 0 1.000000 1.000000 1.000000 0.028056 0.999500 -0.014584
3511 1 -0.000000 23.830312 -0.734528 0 1.000000 1.000000 1.000000 0.000000 0.999490 -0.031923
3512 1 -0.000000 23.795282 -1.480074 0 1.000000 1.000000 1.000000 0.000000 0.998108 -0.061477
3513 1 -0.686982 23.758723 -1.857106 0 1.000000 1.000000 1.000000 -0.028935 0.996475 -0.078739
3514 1 -0.693144 23.686051 -2.621541 0 1.000000 1.000000 1.000000 -0.028935 0.993558 -0.109566
3515 1 -1.390179 23.609762 -3.003823 0 1.000000 1.000000 1.000000 -0.058510 0.990230 -0.126574
3516 1 -1.400525 23.496823 -3.781600 0 1.000000 1.000000 1.000000 -0.058510 0.985637 -0.158419
3517 1 -2.103177 23.379429 -4.164049 0 1.000000 1.000000 1.000000 -0.088449 0.980588 -0.174994
3518 1 -2.115395 23.224618 -4.948881 0 1.000000 1.000000 1.000000 -0.088448 0.974217 -0.207551
3519 1 -2.818863 23.065933 -5.326080 0 1.000000 1.000000 1.000000 -0.118448 0.967476 -0.223516
3520 1 -2.830415 22.868851 -6.111191 0 1.000000 1.000000 1.000000 -0.118447 0.959275 -0.256442
3521 1 -3.529741 22.669976 -6.477661 0 1.000000 1.000000 1.000000 -0.148190 0.950923 -0.271634
3522 1 -3.538014 22.431532 -7.256110 0 1.000000 1.000000 1.000000 -0.148189 0.940893 -0.304567
3523 1 -4.228308 22.194848 -7.606609 0 1.000000 1.000000 1.000000 -0.177362 0.931065 -0.318841
3524 1 -4.230770 21.917244 -8.371630 0 1.000000 1.000000 1.000000 -0.177362 0.919266 -0.351416
3525 1 -4.907443 21.646297 -8.701446 0 1.000000 1.000000 1.000000 -0.205670 0.908142 -0.364661
3526 1 -4.901801 21.332915 -9.446784 0 1.000000 1.000000 1.000000 -0.205670 0.894687 -0.396529
3527 1 -5.560764 21.032199 -9.751971 0 1.000000 1.000000 1.000000 -0.232852 0.882481 -0.408666
3528 1 -5.545093 20.687381 -10.472160 0 1.000000 1.000000 1.000000 -0.232853 0.867530 -0.439513
3529 1 -6.182910 20.362053 -10.749704 0 1.000000 1.000000 1.000000 -0.258695 0.854476 -0.450497
3530 1 -6.155742 19.990824 -11.440273 0 1.000000 1.000000 1.000000 -0.258696 0.838225 -0.480057
3531 1 -6.769726 19.646391 -11.688174 0 1.000000 1.000000 1.000000 -0.283033 0.824566 -0.489880
3532 1 -6.730095 19.254146 -12.345754 0 1.000000 1.000000 1.000000 -0.283036 0.807235 -0.517941
3533 1 2.012667 23.754038 -0.366073 0 1.000000 1.000000 1.000000 0.083905 0.996367 -0.014611
3534 1 1.351755 23.792037 -0.733337 0 1.000000 1.000000 1.000000 0.056972 0.997868 -0.031834
3535 1 1.365719 23.756269 -1.477634 0 1.000000 1.000000 1.000000 0.056971 0.996485 -0.061413
3536 1 0.686982 23.758723 -1.857106 0 1.000000 1.000000 1.000000 0.028935 0.996475 -0.078739
3537 1 0.693144 23.686051 -2.621541 0 1.000000 1.000000 1.000000 0.028935 0.993558 -0.109566
3538 1 -0.000000 23.649936 -3.008943 0 1.000000 1.000000 1.000000 -0.000000 0.991925 -0.126826
3539 1 -0.000000 23.537403 -3.788142 0 1.000000 1.000000 1.000000 -0.000000 0.987334 -0.158658
3540 1 -0.703490 23.460578 -4.178518 0 1.000000 1.000000 1.000000 -0.029586 0.984004 -0.175672
3541 1 -0.707605 23.306174 -4.966278 0 1.000000 1.000000 1.000000 -0.029586 0.977636 -0.208213
3542 1 -1.416858 23.187607 -5.354192 0 1.000000 1.000000 1.000000 -0.059538 0.972585 -0.224796
3543 1 -1.422726 22.990484 -6.143715 0 1.000000 1.000000 1.000000 -0.059537 0.964386 -0.257712
3544 1 -2.132815 22.830414 -6.523516 0 1.000000 1.000000 1.000000 -0.089545 0.957643 -0.273682
3545 1 -2.137885 22.591034 -7.307721 0 1.000000 1.000000 1.000000 -0.089544 0.947612 -0.306614
3546 1 -2.843758 22.391027 -7.673846 0 1.000000 1.000000 1.000000 -0.119287 0.939261 -0.321806
3547 1 -2.845444 22.111197 -8.445720 0 1.000000 1.000000 1.000000 -0.119287 0.927458 -0.354389
3548 1 -3.542161 21.874097 -8.793005 0 1.000000 1.000000 1.000000 -0.148451 0.917634 -0.368660
3549 1 -3.538003 21.556891 -9.545958 0 1.000000 1.000000 1.000000 -0.148451 0.904173 -0.400541
3550 1 -4.220970 21.286656 -9.869921 0 1.000000 1.000000 1.000000 -0.176745 0.893055 -0.413781
3551 1 -4.208786 20.936230 -10.598101 0 1.000000 1.000000 1.000000 -0.176746 0.878099 -0.444639
3552 1 -4.873946 20.637672 -10.895153 0 1.000000 1.000000 1.000000 -0.203917 0.865897 -0.456771
3553 1 -4.851949 20.258995 -11.593689 0 1.000000 1.000000 1.000000 -0.203919 0.849647 -0.486330
3554 1 -5.495927 19.937475 -11.861265 0 1.000000 1.000000 1.000000 -0.229759 0.836593 -0.497315
3555 1 -5.462801 19.536012 -12.526410 0 1.000000 1.000000 1.000000 -0.229762 0.819275 -0.525355
3556 1 -6.082984 19.197115 -12.762998 0 1.000000 1.000000 1.000000 -0.254118 0.805604 -0.535188
3557 1 -6.037909 18.778508 -13.392178 0 1.000000 1.000000 1.000000 -0.254121 0.787455 -0.561549
3558 1 3.333444 23.605194 -0.363724 0 1.000000 1.000000 1.000000 0.138976 0.990187 -0.014662
3559 1 2.690600 23.678308 -0.729797 0 1.000000 1.000000 1.000000 0.113393 0.993049 -0.031570
3560 1 2.718124 23.640370 -1.470385 0 1.000000 1.000000 1.000000 0.113392 0.991662 -0.061220
3561 1 2.054154 23.680331 -1.850958 0 1.000000 1.000000 1.000000 0.086517 0.993160 -0.078405
3562 1 2.072453 23.606497 -2.612712 0 1.000000 1.000000 1.000000 0.086515 0.990240 -0.109268
3563 1 1.390179 23.609762 -3.003823 0 1.000000 1.000000 1.000000 0.058510 0.990230 -0.126574
3564 1 1.400525 23.496823 -3.781600 0 1.000000 1.000000 1.000000 0.058510 0.985637 -0.158419
3565 1 0.703490 23.460578 -4.178518 0 1.000000 1.000000 1.000000 0.029586 0.984004 -0.175672
3566 1 0.707605 23.306174 -4.966278 0 1.000000 1.000000 1.000000 0.029586 0.977636 -0.208213
3567 1 -0.000000 23.228594 -5.363662 0 1.000000 1.000000 1.000000 0.000000 0.974306 -0.225227
3568 1 -0.000000 23.031461 -6.154672 0 1.000000 1.000000 1.000000 0.000000 0.966108 -0.258140
3569 1 -0.713473 22.911918 -6.546811 0 1.000000 1.000000 1.000000 -0.029955 0.961057 -0.274724
3570 1 -0.715182 22.672068 -7.333943 0 1.000000 1.000000 1.000000 -0.029955 0.951027 -0.307654
3571 1 -1.429505 22.511255 -7.715052 0 1.000000 1.000000 1.000000 -0.059964 0.944284 -0.323625
3572 1 -1.430361 22.230063 -8.491127 0 1.000000 1.000000 1.000000 -0.059964 0.932480 -0.356209
3573 1 -2.140427 22.030012 -8.855671 0 1.000000 1.000000 1.000000 -0.089704 0.924129 -0.371400
3574 1 -2.137879 21.710179 -9.613832 0 1.000000 1.000000 1.000000 -0.089704 0.910667 -0.403284
3575 1 -2.838737 21.474158 -9.956834 0 1.000000 1.000000 1.000000 -0.118865 0.900844 -0.417554
3576 1 -2.830398 21.119568 -10.690887 0 1.000000 1.000000 1.000000 -0.118865 0.885888 -0.448412
3577 1 -3.517480 20.851875 -11.008191 0 1.000000 1.000000 1.000000 -0.147159 0.874770 -0.461652
3578 1 -3.501276 20.467343 -11.712881 0 1.000000 1.000000 1.000000 -0.147160 0.858526 -0.491200
3579 1 -4.170585 20.173021 -12.001327 0 1.000000 1.000000 1.000000 -0.174342 0.846319 -0.503337
3580 1 -4.144854 19.763990 -12.672526 0 1.000000 1.000000 1.000000 -0.174344 0.829020 -0.531347
3581 1 -4.793091 19.448501 -12.930034 0 1.000000 1.000000 1.000000 -0.200215 0.815951 -0.542345
3582 1 -4.756647 19.020707 -13.564819 0 1.000000 1.000000 1.000000 -0.200217 0.797842 -0.568649
3583 1 -5.381281 18.689611 -13.790375 0 1.000000 1.000000 1.000000 -0.224632 0.784138 -0.578506
3584 1 -5.333425 18.248774 -14.387012 0 1.000000 1.000000 1.000000 -0.224635 0.765463 -0.602997
3585 1 4.623735 23.387074 -0.360285 0 1.000000 1.000000 1.000000 0.192790 0.981129 -0.014732
3586 1 4.004230 23.492325 -0.724010 0 1.000000 1.000000 1.000000 0.168741 0.985168 -0.031141
3587 1 4.044540 23.450911 -1.458538 0 1.000000 1.000000 1.000000 0.168738 0.983778 -0.060901
3588 1 3.401278 23.525842 -1.838841 0 1.000000 1.000000 1.000000 0.143246 0.986629 -0.077748
3589 1 3.431177 23.449761 -2.595317 0 1.000000 1.000000 1.000000 0.143244 0.983702 -0.108680
3590 1 2.766323 23.490455 -2.988616 0 1.000000 1.000000 1.000000 0.116425 0.985197 -0.125827
3591 1 2.786700 23.376326 -3.762176 0 1.000000 1.000000 1.000000 0.116424 0.980599 -0.157708
3592 1 2.103177 23.379429 -4.164049 0 1.000000 1.000000 1.000000 0.088449 0.980588 -0.174994
3593 1 2.115395 23.224618 -4.948881 0 1.000000 1.000000 1.000000 0.088448 0.974217 -0.207551
3594 1 1.416858 23.187607 -5.354192 0 1.000000 1.000000 1.000000 0.059538 0.972585 -0.224796
3595 1 1.422726 22.990484 -6.143715 0 1.000000 1.000000 1.000000 0.059537 0.964386 -0.257712
3596 1 0.713473 22.911918 -6.546811 0 1.000000 1.000000 1.000000 0.029955 0.961057 -0.274724
3597 1 0.715182 22.672068 -7.333943 0 1.000000 1.000000 1.000000 0.029955 0.951027 -0.307654
3598 1 -0.000000 22.551762 -7.728935 0 1.000000 1.000000 1.000000 0.000000 0.945976 -0.324238
3599 1 -0.000000 22.270112 -8.506426 0 1.000000 1.000000 1.000000 0.000000 0.934172 -0.356822
3600 1 -0.716038 22.109227 -8.887509 0 1.000000 1.000000 1.000000 -0.030009 0.927429 -0.372793
3601 1 -0.715179 21.788057 -9.648315 0 1.000000 1.000000 1.000000 -0.030009 0.913967 -0.404677
3602 1 -1.426954 21.589061 -10.010095 0 1.000000 1.000000 1.000000 -0.059749 0.905616 -0.419868
3603 1 -1.422717 21.231903 -10.747740 0 1.000000 1.000000 1.000000 -0.059750 0.890662 -0.450722
3604 1 -2.125303 20.998431 -11.085529 0 1.000000 1.000000 1.000000 -0.088913 0.880838 -0.464994
3605 1 -2.115375 20.609858 -11.794411 0 1.000000 1.000000 1.000000 -0.088914 0.864602 -0.494528
3606 1 -2.804266 20.346462 -12.104458 0 1.000000 1.000000 1.000000 -0.117220 0.853478 -0.507775
3607 1 -2.786668 19.931795 -12.780075 0 1.000000 1.000000 1.000000 -0.117222 0.836198 -0.535754
3608 1 -3.457948 19.643644 -13.059697 0 1.000000 1.000000 1.000000 -0.144433 0.823977 -0.547905
3609 1 -3.431130 19.208621 -13.698764 0 1.000000 1.000000 1.000000 -0.144435 0.805907 -0.574154
3610 1 -4.081593 18.901173 -13.946379 0 1.000000 1.000000 1.000000 -0.170362 0.792808 -0.585177
3611 1 -4.044478 18.451623 -14.546844 0 1.000000 1.000000 1.000000 -0.170365 0.774200 -0.609582
3612 1 -4.671676 18.130320 -14.761921 0 1.000000 1.000000 1.000000 -0.194870 0.760445 -0.619475
3613 1 -4.623659 17.671870 -15.322883 0 1.000000 1.000000 1.000000 -0.194872 0.741541 -0.641983
3614 1 5.873269 23.105422 -0.355848 0 1.000000 1.000000 1.000000 0.244921 0.969430 -0.014814
3615 1 5.281490 23.239146 -0.716133 0 1.000000 1.000000 1.000000 0.222540 0.974444 -0.030565
3616 1 5.333499 23.193149 -1.442422 0 1.000000 1.000000 1.000000 0.222537 0.973048 -0.060461
3617 1 4.716055 23.299663 -1.821102 0 1.000000 1.000000 1.000000 0.198600 0.977068 -0.076793
3618 1 4.756707 23.220391 -2.569863 0 1.000000 1.000000 1.000000 0.198597 0.974133 -0.107814
3619 1 4.115093 23.295558 -2.963775 0 1.000000 1.000000 1.000000 0.173179 0.976976 -0.124611
3620 1 4.144899 23.179546 -3.730455 0 1.000000 1.000000 1.000000 0.173177 0.972370 -0.156543
3621 1 3.481361 23.219619 -4.135556 0 1.000000 1.000000 1.000000 0.146402 0.973862 -0.173662
3622 1 3.501306 23.064037 -4.914629 0 1.000000 1.000000 1.000000 0.146401 0.967487 -0.206244
3623 1 2.818863 23.065933 -5.326080 0 1.000000 1.000000 1.000000 0.118448 0.967476 -0.223516
3624 1 2.830415 22.868851 -6.111191 0 1.000000 1.000000 1.000000 0.118447 0.959275 -0.256442
3625 1 2.132815 22.830414 -6.523516 0 1.000000 1.000000 1.000000 0.089545 0.957643 -0.273682
3626 1 2.137885 22.591034 -7.307721 0 1.000000 1.000000 1.000000 0.089544 0.947612 -0.306614
3627 1 1.429505 22.511255 -7.715052 0 1.000000 1.000000 1.000000 0.059964 0.944284 -0.323625
3628 1 1.430361 22.230063 -8.491127 0 1.000000 1.000000 1.000000 0.059964 0.932480 -0.356209
3629 1 0.716038 22.109227 -8.887509 0 1.000000 1.000000 1.000000 0.030009 0.927429 -0.372793
3630 1 0.715179 21.788057 -9.648315 0 1.000000 1.000000 1.000000 0.030009 0.913967 -0.404677
3631 1 0.000000 21.627773 -10.028039 0 1.000000 1.000000 1.000000 -0.000000 0.907224 -0.420648
3632 1 0.000000 21.269748 -10.766892 0 1.000000 1.000000 1.000000 -0.000000 0.892271 -0.451500
3633 1 -0.710943 21.072875 -11.124813 0 1.000000 1.000000 1.000000 -0.029742 0.883920 -0.466692
3634 1 -0.707598 20.682239 -11.835818 0 1.000000 1.000000 1.000000 -0.029742 0.867688 -0.496218
3635 1 -1.409444 20.452695 -12.167625 0 1.000000 1.000000 1.000000 -0.058914 0.857861 -0.510494
3636 1 -1.400508 20.034549 -12.845931 0 1.000000 1.000000 1.000000 -0.058915 0.840595 -0.538451
3637 1 -2.088841 19.777045 -13.148333 0 1.000000 1.000000 1.000000 -0.087244 0.829461 -0.551708
3638 1 -2.072423 19.337029 -13.790292 0 1.000000 1.000000 1.000000 -0.087245 0.811421 -0.577913
3639 1 -2.743433 19.056757 -14.061102 0 1.000000 1.000000 1.000000 -0.114501 0.799180 -0.590085
3640 1 -2.718079 18.600719 -14.664321 0 1.000000 1.000000 1.000000 -0.114502 0.780627 -0.614419
3641 1 -3.368662 18.303033 -14.902448 0 1.000000 1.000000 1.000000 -0.140504 0.767490 -0.625474
3642 1 -3.333384 17.836721 -15.465733 0 1.000000 1.000000 1.000000 -0.140506 0.748675 -0.647876
3643 1 -3.961182 17.526861 -15.671091 0 1.000000 1.000000 1.000000 -0.165123 0.734856 -0.657816
3644 1 -3.915447 17.055663 -16.194322 0 1.000000 1.000000 1.000000 -0.165125 0.716007 -0.678283
3645 1 7.073459 22.767241 -0.350525 0 1.000000 1.000000 1.000000 0.295015 0.955376 -0.014899
3646 1 6.512793 22.925325 -0.706373 0 1.000000 1.000000 1.000000 0.274384 0.961157 -0.029861
3647 1 6.575180 22.873879 -1.422465 0 1.000000 1.000000 1.000000 0.274380 0.959754 -0.059905
3648 1 5.987665 23.007977 -1.798228 0 1.000000 1.000000 1.000000 0.252120 0.964741 -0.075570
3649 1 6.037976 22.924761 -2.537059 0 1.000000 1.000000 1.000000 0.252117 0.961798 -0.106689
3650 1 5.424463 23.030661 -2.930014 0 1.000000 1.000000 1.000000 0.228261 0.965804 -0.122964
3651 1 5.462854 22.912202 -3.687361 0 1.000000 1.000000 1.000000 0.228259 0.961191 -0.154954
3652 1 4.824904 22.985920 -4.093890 0 1.000000 1.000000 1.000000 0.202889 0.964027 -0.171718
3653 1 4.851987 22.829277 -4.864555 0 1.000000 1.000000 1.000000 0.202887 0.957646 -0.204329
3654 1 4.191927 22.867321 -5.280192 0 1.000000 1.000000 1.000000 0.176136 0.959137 -0.221431
3655 1 4.208810 22.670341 -6.058112 0 1.000000 1.000000 1.000000 0.176135 0.950933 -0.254367
3656 1 3.529741 22.669976 -6.477661 0 1.000000 1.000000 1.000000 0.148190 0.950923 -0.271634
3657 1 3.538014 22.431532 -7.256110 0 1.000000 1.000000 1.000000 0.148189 0.940893 -0.304567
3658 1 2.843758 22.391027 -7.673846 0 1.000000 1.000000 1.000000 0.119287 0.939261 -0.321806
3659 1 2.845444 22.111197 -8.445720 0 1.000000 1.000000 1.000000 0.119287 0.927458 -0.354389
3660 1 2.140427 22.030012 -8.855671 0 1.000000 1.000000 1.000000 0.089704 0.924129 -0.371400
3661 1 2.137879 21.710179 -9.613832 0 1.000000 1.000000 1.000000 0.089704 0.910667 -0.403284
3662 1 1.426954 21.589061 -10.010095 0 1.000000 1.000000 1.000000 0.059749 0.905616 -0.419868
3663 1 1.422717 21.231903 -10.747740 0 1.000000 1.000000 1.000000 0.059750 0.890662 -0.450722
3664 1 0.710943 21.072875 -11.124813 0 1.000000 1.000000 1.000000 0.029742 0.883920 -0.466692
3665 1 0.707598 20.682239 -11.835818 0 1.000000 1.000000 1.000000 0.029742 0.867688 -0.496218
3666 1 0.000000 20.488476 -12.188901 0 1.000000 1.000000 1.000000 -0.000000 0.859337 -0.511410
3667 1 0.000000 20.069154 -12.868110 0 1.000000 1.000000 1.000000 -0.000000 0.842076 -0.539359
3668 1 -0.698662 19.844770 -13.193332 0 1.000000 1.000000 1.000000 -0.029180 0.832245 -0.553640
3669 1 -0.693133 19.402205 -13.836749 0 1.000000 1.000000 1.000000 -0.029180 0.814221 -0.579821
3670 1 -1.378561 19.151968 -14.131307 0 1.000000 1.000000 1.000000 -0.057533 0.803078 -0.593090
3671 1 -1.365695 18.691927 -14.736186 0 1.000000 1.000000 1.000000 -0.057534 0.784561 -0.617377
3672 1 -2.034203 18.420952 -14.998389 0 1.000000 1.000000 1.000000 -0.084839 0.772297 -0.629571
3673 1 -2.012628 17.949214 -15.563212 0 1.000000 1.000000 1.000000 -0.084841 0.753547 -0.651897
3674 1 -2.661226 17.662669 -15.792428 0 1.000000 1.000000 1.000000 -0.110924 0.740367 -0.662987
3675 1 -2.630029 17.184746 -16.316806 0 1.000000 1.000000 1.000000 -0.110926 0.721622 -0.683343
3676 1 -3.256451 16.887601 -16.513342 0 1.000000 1.000000 1.000000 -0.135664 0.707733 -0.693332
3677 1 -3.215154 16.408528 -16.997851 0 1.000000 1.000000 1.000000 -0.135666 0.689201 -0.711756
3678 1 8.217600 22.380353 -0.344442 0 1.000000 1.000000 1.000000 0.342792 0.939292 -0.014981
3679 1 7.690401 22.558470 -0.694967 0 1.000000 1.000000 1.000000 0.323944 0.945630 -0.029053
3680 1 7.761693 22.500973 -1.399161 0 1.000000 1.000000 1.000000 0.323940 0.944221 -0.059242
3681 1 7.207138 22.658297 -1.770810 0 1.000000 1.000000 1.000000 0.303426 0.949968 -0.074116
3682 1 7.265844 22.570603 -2.497766 0 1.000000 1.000000 1.000000 0.303423 0.947017 -0.105329
3683 1 6.684198 22.702969 -2.888252 0 1.000000 1.000000 1.000000 0.281240 0.951986 -0.120938
3684 1 6.730152 22.581666 -3.634085 0 1.000000 1.000000 1.000000 0.281237 0.947366 -0.152979
3685 1 6.122321 22.685000 -4.040241 0 1.000000 1.000000 1.000000 0.257424 0.951365 -0.169224
3686 1 6.155784 22.527112 -4.800107 0 1.000000 1.000000 1.000000 0.257422 0.944981 -0.201855
3687 1 5.523401 22.597672 -5.217893 0 1.000000 1.000000 1.000000 0.232069 0.947816 -0.218607
3688 1 5.545120 22.400898 -5.986068 0 1.000000 1.000000 1.000000 0.232067 0.939612 -0.251543
3689 1 4.890589 22.435524 -6.410651 0 1.000000 1.000000 1.000000 0.205316 0.941103 -0.268645
3690 1 4.901814 22.198475 -7.180698 0 1.000000 1.000000 1.000000 0.205315 0.931075 -0.301570
3691 1 4.228308 22.194848 -7.606609 0 1.000000 1.000000 1.000000 0.177362 0.931065 -0.318841
3692 1 4.230770 21.917244 -8.371630 0 1.000000 1.000000 1.000000 0.177362 0.919266 -0.351416
3693 1 3.542161 21.874097 -8.793005 0 1.000000 1.000000 1.000000 0.148451 0.917634 -0.368660
3694 1 3.538003 21.556891 -9.545958 0 1.000000 1.000000 1.000000 0.148451 0.904173 -0.400541
3695 1 2.838737 21.474158 -9.956834 0 1.000000 1.000000 1.000000 0.118865 0.900844 -0.417554
3696 1 2.830398 21.119568 -10.690887 0 1.000000 1.000000 1.000000 0.118865 0.885888 -0.448412
3697 1 2.125303 20.998431 -11.085529 0 1.000000 1.000000 1.000000 0.088913 0.880838 -0.464994
3698 1 2.115375 20.609858 -11.794411 0 1.000000 1.000000 1.000000 0.088914 0.864602 -0.494528
3699 1 1.409444 20.452695 -12.167625 0 1.000000 1.000000 1.000000 0.058914 0.857861 -0.510494
3700 1 1.400508 20.034549 -12.845931 0 1.000000 1.000000 1.000000 0.058915 0.840595 -0.538451
3701 1 0.698662 19.844770 -13.193332 0 1.000000 1.000000 1.000000 0.029180 0.832245 -0.553640
3702 1 0.693133 19.402205 -13.836749 0 1.000000 1.000000 1.000000 0.029180 0.814221 -0.579821
3703 1 0.000000 19.184022 -14.154943 0 1.000000 1.000000 1.000000 -0.000000 0.804390 -0.594102
3704 1 0.000000 18.722628 -14.760376 0 1.000000 1.000000 1.000000 -0.000000 0.785885 -0.618372
3705 1 -0.680267 18.480770 -15.047059 0 1.000000 1.000000 1.000000 -0.028371 0.774734 -0.631650
3706 1 -0.673006 18.006263 -15.612646 0 1.000000 1.000000 1.000000 -0.028371 0.756018 -0.653935
3707 1 -1.336859 17.745682 -15.866595 0 1.000000 1.000000 1.000000 -0.055719 0.743734 -0.666149
3708 1 -1.321042 17.263615 -16.391641 0 1.000000 1.000000 1.000000 -0.055720 0.725054 -0.686434
3709 1 -1.965614 16.989224 -16.612635 0 1.000000 1.000000 1.000000 -0.081882 0.711835 -0.697558
3710 1 -1.940392 16.504755 -17.097464 0 1.000000 1.000000 1.000000 -0.081883 0.693409 -0.715877
3711 1 -2.563510 16.221205 -17.286143 0 1.000000 1.000000 1.000000 -0.106739 0.679453 -0.725914
3712 1 -2.528450 15.738929 -17.731916 0 1.000000 1.000000 1.000000 -0.106741 0.661465 -0.742341
3713 1 9.300909 21.952952 -0.337731 0 1.000000 1.000000 1.000000 0.388054 0.921514 -0.015051
3714 1 8.808535 22.146780 -0.682173 0 1.000000 1.000000 1.000000 0.370978 0.928214 -0.028165
3715 1 8.887196 22.082897 -1.373041 0 1.000000 1.000000 1.000000 0.370973 0.926800 -0.058479
3716 1 8.367553 22.258973 -1.739504 0 1.000000 1.000000 1.000000 0.352227 0.933104 -0.072474
3717 1 8.433300 22.166494 -2.452937 0 1.000000 1.000000 1.000000 0.352223 0.930147 -0.103760
3718 1 7.886146 22.320800 -2.839550 0 1.000000 1.000000 1.000000 0.331770 0.935877 -0.118590
3719 1 7.938533 22.196430 -3.571998 0 1.000000 1.000000 1.000000 0.331767 0.931252 -0.150664
3720 1 7.364185 22.324931 -3.976048 0 1.000000 1.000000 1.000000 0.309610 0.936216 -0.166253
3721 1 7.403158 22.165726 -4.723032 0 1.000000 1.000000 1.000000 0.309608 0.929832 -0.198885
3722 1 6.802588 22.264572 -5.140936 0 1.000000 1.000000 1.000000 0.285795 0.933831 -0.215129
3723 1 6.828549 22.068156 -5.897102 0 1.000000 1.000000 1.000000 0.285793 0.925632 -0.248047
3724 1 6.203465 22.133922 -6.324449 0 1.000000 1.000000 1.000000 0.260422 0.928470 -0.264809
3725 1 6.217322 21.898718 -7.083705 0 1.000000 1.000000 1.000000 0.260421 0.918450 -0.297708
3726 1 5.570202 21.928644 -7.515372 0 1.000000 1.000000 1.000000 0.233646 0.919943 -0.314825
3727 1 5.573368 21.654071 -8.271099 0 1.000000 1.000000 1.000000 0.233645 0.908152 -0.347376
3728 1 4.907443 21.646297 -8.701446 0 1.000000 1.000000 1.000000 0.205670 0.908142 -0.364661
3729 1 4.901801 21.332915 -9.446784 0 1.000000 1.000000 1.000000 0.205670 0.894687 -0.396529
3730 1 4.220970 21.286656 -9.869921 0 1.000000 1.000000 1.000000 0.176745 0.893055 -0.413781
3731 1 4.208786 20.936230 -10.598101 0 1.000000 1.000000 1.000000 0.176746 0.878099 -0.444639
3732 1 3.517480 20.851875 -11.008191 0 1.000000 1.000000 1.000000 0.147159 0.874770 -0.461652
3733 1 3.501276 20.467343 -11.712881 0 1.000000 1.000000 1.000000 0.147160 0.858526 -0.491200
3734 1 2.804266 20.346462 -12.104458 0 1.000000 1.000000 1.000000 0.117220 0.853478 -0.507775
3735 1 2.786668 19.931795 -12.780075 0 1.000000 1.000000 1.000000 0.117222 0.836198 -0.535754
3736 1 2.088841 19.777045 -13.148333 0 1.000000 1.000000 1.000000 0.087244 0.829461 -0.551708
3737 1 2.072423 19.337029 -13.790292 0 1.000000 1.000000 1.000000 0.087245 0.811421 -0.577913
3738 1 1.378561 19.151968 -14.131307 0 1.000000 1.000000 1.000000 0.057533 0.803078 -0.593090
3739 1 1.365695 18.691927 -14.736186 0 1.000000 1.000000 1.000000 0.057534 0.784561 -0.617377
3740 1 0.680267 18.480770 -15.047059 0 1.000000 1.000000 1.000000 0.028371 0.774734 -0.631650
3741 1 0.673006 18.006263 -15.612646 0 1.000000 1.000000 1.000000 0.028371 0.756018 -0.653935
3742 1 0.000000 17.773614 -15.891550 0 1.000000 1.000000 1.000000 -0.000000 0.744867 -0.667213
3743 1 0.000000 17.290147 -16.416815 0 1.000000 1.000000 1.000000 -0.000000 0.726209 -0.687474
3744 1 -0.657189 17.040728 -16.662957 0 1.000000 1.000000 1.000000 -0.027375 0.713912 -0.699700
3745 1 -0.648705 16.553506 -17.147930 0 1.000000 1.000000 1.000000 -0.027376 0.695542 -0.717964
3746 1 -1.287336 16.291923 -17.361443 0 1.000000 1.000000 1.000000 -0.053599 0.682290 -0.729114
3747 1 -1.269579 15.805665 -17.807048 0 1.000000 1.000000 1.000000 -0.053600 0.664400 -0.745453
3748 1 -1.887574 15.536221 -17.988842 0 1.000000 1.000000 1.000000 -0.078559 0.650386 -0.755531
3749 1 -1.860151 15.055038 -18.396705 0 1.000000 1.000000 1.000000 -0.078560 0.633131 -0.770048
3750 1 10.320443 21.493216 -0.330521 0 1.000000 1.000000 1.000000 0.430675 0.902381 -0.015104
3751 1 9.863352 21.698618 -0.668251 0 1.000000 1.000000 1.000000 0.415324 0.909266 -0.027222
3752 1 9.947855 21.628259 -1.344646 0 1.000000 1.000000 1.000000 0.415319 0.907849 -0.057629
3753 1 9.464072 21.818711 -1.704993 0 1.000000 1.000000 1.000000 0.398319 0.914520 -0.070684
3754 1 9.535486 21.721354 -2.403564 0 1.000000 1.000000 1.000000 0.398314 0.911559 -0.102013
3755 1 9.024357 21.893061 -2.785046 0 1.000000 1.000000 1.000000 0.379603 0.917851 -0.115981
3756 1 9.082005 21.765572 -3.502565 0 1.000000 1.000000 1.000000 0.379599 0.913227 -0.148055
3757 1 8.543335 21.914635 -3.902904 0 1.000000 1.000000 1.000000 0.359146 0.918958 -0.162884
3758 1 8.586887 21.754154 -4.635258 0 1.000000 1.000000 1.000000 0.359143 0.912580 -0.195486
3759 1 8.021057 21.876744 -5.051336 0 1.000000 1.000000 1.000000 0.336959 0.917550 -0.211094
3760 1 8.050605 21.680889 -5.793561 0 1.000000 1.000000 1.000000 0.336957 0.909363 -0.243964
3761 1 7.458666 21.773454 -6.221423 0 1.000000 1.000000 1.000000 0.313100 0.913370 -0.260237
3762 1 7.474786 21.540526 -6.967807 0 1.000000 1.000000 1.000000 0.313099 0.903367 -0.293082
3763 1 6.858525 21.600024 -7.402742 0 1.000000 1.000000 1.000000 0.287679 0.906210 -0.309877
3764 1 6.862308 21.329206 -8.147002 0 1.000000 1.000000 1.000000 0.287679 0.894436 -0.342381
3765 1 6.224270 21.353326 -8.583692 0 1.000000 1.000000 1.000000 0.260859 0.895932 -0.359526
3766 1 6.217307 21.044836 -9.319226 0 1.000000 1.000000 1.000000 0.260859 0.882490 -0.391362
3767 1 5.560764 21.032199 -9.751971 0 1.000000 1.000000 1.000000 0.232852 0.882481 -0.408666
3768 1 5.545093 20.687381 -10.472160 0 1.000000 1.000000 1.000000 0.232853 0.867530 -0.439513
3769 1 4.873946 20.637672 -10.895153 0 1.000000 1.000000 1.000000 0.203917 0.865897 -0.456771
3770 1 4.851949 20.258995 -11.593689 0 1.000000 1.000000 1.000000 0.203919 0.849647 -0.486330
3771 1 4.170585 20.173021 -12.001327 0 1.000000 1.000000 1.000000 0.174342 0.846319 -0.503337
3772 1 4.144854 19.763990 -12.672526 0 1.000000 1.000000 1.000000 0.174344 0.829020 -0.531347
3773 1 3.457948 19.643644 -13.059697 0 1.000000 1.000000 1.000000 0.144433 0.823977 -0.547905
3774 1 3.431130 19.208621 -13.698764 0 1.000000 1.000000 1.000000 0.144435 0.805907 -0.574154
3775 1 2.743433 19.056757 -14.061102 0 1.000000 1.000000 1.000000 0.114501 0.799180 -0.590085
3776 1 2.718079 18.600719 -14.664321 0 1.000000 1.000000 1.000000 0.114502 0.780627 -0.614419
3777 1 2.034203 18.420952 -14.998389 0 1.000000 1.000000 1.000000 0.084839 0.772297 -0.629571
3778 1 2.012628 17.949214 -15.563212 0 1.000000 1.000000 1.000000 0.084841 0.753547 -0.651897
3779 1 1.336859 17.745682 -15.866595 0 1.000000 1.000000 1.000000 0.055719 0.743734 -0.666149
3780 1 1.321042 17.263615 -16.391641 0 1.000000 1.000000 1.000000 0.055720 0.725054 -0.686434
3781 1 0.657189 17.040728 -16.662957 0 1.000000 1.000000 1.000000 0.027375 0.713912 -0.699700
3782 1 0.648705 16.553506 -17.147930 0 1.000000 1.000000 1.000000 0.027376 0.695542 -0.717964
3783 1 0.000000 16.315702 -17.386762 0 1.000000 1.000000 1.000000 0.000000 0.683244 -0.730190
3784 1 0.000000 15.828099 -17.832305 0 1.000000 1.000000 1.000000 0.000000 0.665387 -0.746499
3785 1 -0.630948 15.579645 -18.039079 0 1.000000 1.000000 1.000000 -0.026258 0.652117 -0.757664
3786 1 -0.621731 15.095896 -18.446595 0 1.000000 1.000000 1.000000 -0.026259 0.634939 -0.772116
3787 1 -1.232939 14.840733 -18.622427 0 1.000000 1.000000 1.000000 -0.051294 0.620881 -0.782225
3788 1 -1.214150 14.364445 -18.993885 0 1.000000 1.000000 1.000000 -0.051294 0.604507 -0.794946
3789 1 11.274924 21.008977 -0.322937 0 1.000000 1.000000 1.000000 0.470600 0.882217 -0.015134
3790 1 10.852800 21.222137 -0.653457 0 1.000000 1.000000 1.000000 0.456898 0.889132 -0.026244
3791 1 10.941688 21.145427 -1.314499 0 1.000000 1.000000 1.000000 0.456893 0.887713 -0.056701
3792 1 10.493834 21.346147 -1.667957 0 1.000000 1.000000 1.000000 0.441582 0.894580 -0.068786
3793 1 10.569586 21.244008 -2.350628 0 1.000000 1.000000 1.000000 0.441578 0.891620 -0.100116
3794 1 10.095020 21.428764 -2.725888 0 1.000000 1.000000 1.000000 0.424577 0.898291 -0.113171
3795 1 10.156775 21.298254 -3.427263 0 1.000000 1.000000 1.000000 0.424573 0.893674 -0.145205
3796 1 9.654889 21.463355 -3.822458 0 1.000000 1.000000 1.000000 0.405826 0.899978 -0.159199
3797 1 9.702085 21.301745 -4.538780 0 1.000000 1.000000 1.000000 0.405823 0.893615 -0.191731
3798 1 9.172752 21.443481 -4.951241 0 1.000000 1.000000 1.000000 0.385308 0.899362 -0.206604
3799 1 9.205209 21.248431 -5.677941 0 1.000000 1.000000 1.000000 0.385306 0.891198 -0.239387
3800 1 8.648891 21.363249 -6.104183 0 1.000000 1.000000 1.000000 0.363044 0.896186 -0.255049
3801 1 8.666883 21.133004 -6.835950 0 1.000000 1.000000 1.000000 0.363043 0.886210 -0.287804
3802 1 8.084716 21.217715 -7.271712 0 1.000000 1.000000 1.000000 0.339103 0.890231 -0.304133
3803 1 8.089018 20.951286 -8.002641 0 1.000000 1.000000 1.000000 0.339103 0.878486 -0.336557
3804 1 7.482870 21.003279 -8.442996 0 1.000000 1.000000 1.000000 0.313608 0.881339 -0.353401
3805 1 7.474771 20.700600 -9.166803 0 1.000000 1.000000 1.000000 0.313609 0.867922 -0.385178
3806 1 6.847246 20.718038 -9.606343 0 1.000000 1.000000 1.000000 0.286731 0.869421 -0.402359
3807 1 6.828519 20.380072 -10.316631 0 1.000000 1.000000 1.000000 0.286732 0.854485 -0.433175
3808 1 6.182910 20.362053 -10.749704 0 1.000000 1.000000 1.000000 0.258695 0.854476 -0.450497
3809 1 6.155742 19.990824 -11.440273 0 1.000000 1.000000 1.000000 0.258696 0.838225 -0.480057
3810 1 5.495927 19.937475 -11.861265 0 1.000000 1.000000 1.000000 0.229759 0.836593 -0.497315
3811 1 5.462801 19.536012 -12.526410 0 1.000000 1.000000 1.000000 0.229762 0.819275 -0.525355
3812 1 4.793091 19.448501 -12.930034 0 1.000000 1.000000 1.000000 0.200215 0.815951 -0.542345
3813 1 4.756647 19.020707 -13.564819 0 1.000000 1.000000 1.000000 0.200217 0.797842 -0.568649
3814 1 4.081593 18.901173 -13.946379 0 1.000000 1.000000 1.000000 0.170362 0.792808 -0.585177
3815 1 4.044478 18.451623 -14.546844 0 1.000000 1.000000 1.000000 0.170365 0.774200 -0.609582
3816 1 3.368662 18.303033 -14.902448 0 1.000000 1.000000 1.000000 0.140504 0.767490 -0.625474
3817 1 3.333384 17.836721 -15.465733 0 1.000000 1.000000 1.000000 0.140506 0.748675 -0.647876
3818 1 2.661226 17.662669 -15.792428 0 1.000000 1.000000 1.000000 0.110924 0.740367 -0.662987
3819 1 2.630029 17.184746 -16.316806 0 1.000000 1.000000 1.000000 0.110926 0.721622 -0.683343
3820 1 1.965614 16.989224 -16.612635 0 1.000000 1.000000 1.000000 0.081882 0.711835 -0.697558
3821 1 1.940392 16.504755 -17.097464 0 1.000000 1.000000 1.000000 0.081883 0.693409 -0.715877
3822 1 1.287336 16.291923 -17.361443 0 1.000000 1.000000 1.000000 0.053599 0.682290 -0.729114
3823 1 1.269579 15.805665 -17.807048 0 1.000000 1.000000 1.000000 0.053600 0.664400 -0.745453
3824 1 0.630948 15.579645 -18.039079 0 1.000000 1.000000 1.000000 0.026258 0.652117 -0.757664
3825 1 0.621731 15.095896 -18.446595 0 1.000000 1.000000 1.000000 0.026259 0.634939 -0.772116
3826 1 0.000000 14.860601 -18.647337 0 1.000000 1.000000 1.000000 0.000000 0.621667 -0.783281
3827 1 0.000000 14.383091 -19.018523 0 1.000000 1.000000 1.000000 0.000000 0.605338 -0.795969
3828 1 -0.602943 14.142099 -19.189239 0 1.000000 1.000000 1.000000 -0.025076 0.591256 -0.806094
3829 1 -0.593408 13.673945 -19.526300 0 1.000000 1.000000 1.000000 -0.025077 0.575872 -0.817155
3830 1 12.164492 20.507486 -0.315093 0 1.000000 1.000000 1.000000 0.507833 0.861323 -0.015138
3831 1 11.776400 20.724999 -0.638030 0 1.000000 1.000000 1.000000 0.495682 0.868137 -0.025251
3832 1 11.868331 20.642231 -1.283091 0 1.000000 1.000000 1.000000 0.495677 0.866719 -0.055708
3833 1 11.455743 20.849498 -1.629039 0 1.000000 1.000000 1.000000 0.481974 0.873634 -0.066818
3834 1 11.534594 20.742830 -2.295057 0 1.000000 1.000000 1.000000 0.481969 0.870679 -0.098100
3835 1 11.096291 20.936619 -2.663188 0 1.000000 1.000000 1.000000 0.466618 0.877565 -0.110217
3836 1 11.161060 20.803315 -3.347518 0 1.000000 1.000000 1.000000 0.466614 0.872961 -0.142164
3837 1 10.696109 20.980195 -3.736332 0 1.000000 1.000000 1.000000 0.449537 0.879663 -0.155276
3838 1 10.746050 20.817685 -4.435560 0 1.000000 1.000000 1.000000 0.449533 0.873322 -0.187692
3839 1 10.253911 20.974134 -4.842813 0 1.000000 1.000000 1.000000 0.430684 0.879661 -0.201761
3840 1 10.288613 20.780167 -5.552754 0 1.000000 1.000000 1.000000 0.430681 0.871530 -0.234412
3841 1 9.769244 20.912728 -5.975421 0 1.000000 1.000000 1.000000 0.410048 0.877312 -0.249370
3842 1 9.788715 20.685542 -6.691173 0 1.000000 1.000000 1.000000 0.410046 0.867377 -0.281992
3843 1 9.242672 20.791001 -7.125461 0 1.000000 1.000000 1.000000 0.387663 0.872393 -0.297739
3844 1 9.247394 20.529495 -7.841522 0 1.000000 1.000000 1.000000 0.387662 0.860692 -0.330042
3845 1 8.675906 20.605070 -8.282941 0 1.000000 1.000000 1.000000 0.363610 0.864732 -0.346447
3846 1 8.666869 20.308956 -8.993387 0 1.000000 1.000000 1.000000 0.363611 0.851355 -0.378129
3847 1 8.071881 20.352494 -9.436893 0 1.000000 1.000000 1.000000 0.338025 0.854218 -0.395032
3848 1 8.050576 20.022405 -10.135615 0 1.000000 1.000000 1.000000 0.338026 0.839311 -0.425787
3849 1 7.434739 20.032546 -10.575812 0 1.000000 1.000000 1.000000 0.311090 0.840815 -0.443006
3850 1 7.403114 19.670094 -11.256786 0 1.000000 1.000000 1.000000 0.311092 0.824574 -0.472545
3851 1 6.769726 19.646391 -11.688174 0 1.000000 1.000000 1.000000 0.283033 0.824566 -0.489880
3852 1 6.730095 19.254146 -12.345754 0 1.000000 1.000000 1.000000 0.283036 0.807235 -0.517941
3853 1 6.082984 19.197115 -12.762998 0 1.000000 1.000000 1.000000 0.254118 0.805604 -0.535188
3854 1 6.037909 18.778508 -13.392178 0 1.000000 1.000000 1.000000 0.254121 0.787455 -0.561549
3855 1 5.381281 18.689611 -13.790375 0 1.000000 1.000000 1.000000 0.224632 0.784138 -0.578506
3856 1 5.333425 18.248774 -14.387012 0 1.000000 1.000000 1.000000 0.224635 0.765463 -0.602997
3857 1 4.671676 18.130320 -14.761921 0 1.000000 1.000000 1.000000 0.194870 0.760445 -0.619475
3858 1 4.623659 17.671870 -15.322883 0 1.000000 1.000000 1.000000 0.194872 0.741541 -0.641983
3859 1 3.961182 17.526861 -15.671091 0 1.000000 1.000000 1.000000 0.165123 0.734856 -0.657816
3860 1 3.915447 17.055663 -16.194322 0 1.000000 1.000000 1.000000 0.165125 0.716007 -0.678283
3861 1 3.256451 16.887601 -16.513342 0 1.000000 1.000000 1.000000 0.135664 0.707733 -0.693332
3862 1 3.215154 16.408528 -16.997851 0 1.000000 1.000000 1.000000 0.135666 0.689201 -0.711756
3863 1 2.563510 16.221205 -17.286143 0 1.000000 1.000000 1.000000 0.106739 0.679453 -0.725914
3864 1 2.528450 15.738929 -17.731916 0 1.000000 1.000000 1.000000 0.106741 0.661465 -0.742341
3865 1 1.887574 15.536221 -17.988842 0 1.000000 1.000000 1.000000 0.078559 0.650386 -0.755531
3866 1 1.860151 15.055038 -18.396705 0 1.000000 1.000000 1.000000 0.078560 0.633131 -0.770048
3867 1 1.232939 14.840733 -18.622427 0 1.000000 1.000000 1.000000 0.051294 0.620881 -0.782225
3868 1 1.214150 14.364445 -18.993885 0 1.000000 1.000000 1.000000 0.051294 0.604507 -0.794946
3869 1 0.602943 14.142099 -19.189239 0 1.000000 1.000000 1.000000 0.025076 0.591256 -0.806094
3870 1 0.593408 13.673945 -19.526300 0 1.000000 1.000000 1.000000 0.025077 0.575872 -0.817155
3871 1 0.000000 13.446784 -19.692645 0 1.000000 1.000000 1.000000 0.000000 0.561789 -0.827281
3872 1 0.000000 12.989417 -19.997655 0 1.000000 1.000000 1.000000 0.000000 0.547465 -0.836829
3873 1 12.989417 19.997655 0.000000 0 1.000000 1.000000 1.000000 0.547465 0.836829 0.000000
3874 1 13.673945 19.526300 0.593408 0 1.000000 1.000000 1.000000 0.575872 0.817155 0.025077
3875 1 13.446784 19.692645 0.000000 0 1.000000 1.000000 1.000000 0.561789 0.827281 0.000000
3876 1 13.673945 19.526300 -0.593408 0 1.000000 1.000000 1.000000 0.575872 0.817155 -0.025077
3877 1 14.364445 18.993885 1.214150 0 1.000000 1.000000 1.000000 0.604507 0.794946 0.051294
3878 1 14.142099 19.189239 0.602943 0 1.000000 1.000000 1.000000 0.591256 0.806094 0.025076
3879 1 14.383091 19.018523 0.000000 0 1.000000 1.000000 1.000000 0.605338 0.795969 0.000000
3880 1 14.142099 19.189239 -0.602943 0 1.000000 1.000000 1.000000 0.591256 0.806094 -0.025076
3881 1 14.364445 18.993885 -1.214150 0 1.000000 1.000000 1.000000 0.604507 0.794946 -0.051294
3882 1 15.055038 18.396705 1.860151 0 1.000000 1.000000 1.000000 0.633131 0.770048 0.078560
3883 1 14.840733 18.622427 1.232939 0 1.000000 1.000000 1.000000 0.620881 0.782225 0.051294
3884 1 15.095896 18.446595 0.621731 0 1.000000 1.000000 1.000000 0.634939 0.772116 0.026259
3885 1 14.860601 18.647337 0.000000 0 1.000000 1.000000 1.000000 0.621667 0.783281 0.000000
3886 1 15.095896 18.446595 -0.621731 0 1.000000 1.000000 1.000000 0.634939 0.772116 -0.026259
3887 1 14.840733 18.622427 -1.232939 0 1.000000 1.000000 1.000000 0.620881 0.782225 -0.051294
3888 1 15.055038 18.396705 -1.860151 0 1.000000 1.000000 1.000000 0.633131 0.770048 -0.078560
3889 1 15.738929 17.731916 2.528450 0 1.000000 1.000000 1.000000 0.661465 0.742341 0.106741
3890 1 15.536221 17.988842 1.887574 0 1.000000 1.000000 1.000000 0.650386 0.755531 0.078559
3891 1 15.805665 17.807048 1.269579 0 1.000000 1.000000 1.000000 0.664400 0.745453 0.053600
3892 1 15.579645 18.039079 0.630948 0 1.000000 1.000000 1.000000 0.652117 0.757664 0.026258
3893 1 15.828099 17.832305 0.000000 0 1.000000 1.000000 1.000000 0.665387 0.746499 0.000000
3894 1 15.579645 18.039079 -0.630948 0 1.000000 1.000000 1.000000 0.652117 0.757664 -0.026258
3895 1 15.805665 17.807048 -1.269579 0 1.000000 1.000000 1.000000 0.664400 0.745453 -0.053600
3896 1 15.536221 17.988842 -1.887574 0 1.000000 1.000000 1.000000 0.650386 0.755531 -0.078559
3897 1 15.738929 17.731916 -2.528450 0 1.000000 1.000000 1.000000 0.661465 0.742341 -0.106741
3898 1 16.408528 16.997851 3.215154 0 1.000000 1.000000 1.000000 0.689201 0.711756 0.135666
3899 1 16.221205 17.286143 2.563510 0 1.000000 1.000000 1.000000 0.679453 0.725914 0.106739
3900 1 16.504755 17.097464 1.940392 0 1.000000 1.000000 1.000000 0.693409 0.715877 0.081883
3901 1 16.291923 17.361443 1.287336 0 1.000000 1.000000 1.000000 0.682290 0.729114 0.053599
3902 1 16.553506 17.147930 0.648705 0 1.000000 1.000000 1.000000 0.695542 0.717964 0.027376
3903 1 16.315702 17.386762 0.000000 0 1.000000 1.000000 1.000000 0.683244 0.730190 0.000000
3904 1 16.553506 17.147930 -0.648705 0 1.000000 1.000000 1.000000 0.695542 0.717964 -0.027376
3905 1 16.291923 17.361443 -1.287336 0 1.000000 1.000000 1.000000 0.682290 0.729114 -0.053599
3906 1 16.504755 17.097464 -1.940392 0 1.000000 1.000000 1.000000 0.693409 0.715877 -0.081883
3907 1 16.221205 17.286143 -2.563510 0 1.000000 1.000000 1.000000 0.679453 0.725914 -0.106739
3908 1 16.408528 16.997851 -3.215154 0 1.000000 1.000000 1.000000 0.689201 0.711756 -0.135666
3909 1 17.055663 16.194322 3.915447 0 1.000000 1.000000 1.000000 0.716007 0.678283 0.165125
3910 1 16.887601 16.513342 3.256451 0 1.000000 1.000000 1.000000 0.707733 0.693332 0.135664
3911 1 17.184746 16.316806 2.630029 0 1.000000 1.000000 1.000000 0.721622 0.683343 0.110926
3912 1 16.989224 16.612635 1.965614 0 1.000000 1.000000 1.000000 0.711835 0.697558 0.081882
3913 1 17.263615 16.391641 1.321042 0 1.000000 1.000000 1.000000 0.725054 0.686434 0.055720
3914 1 17.040728 16.662957 0.657189 0 1.000000 1.000000 1.000000 0.713912 0.699700 0.027375
3915 1 17.290147 16.416815 0.000000 0 1.000000 1.000000 1.000000 0.726209 0.687474 0.000000
3916 1 17.040728 16.662957 -0.657189 0 1.000000 1.000000 1.000000 0.713912 0.699700 -0.027375
3917 1 17.263615 16.391641 -1.321042 0 1.000000 1.000000 1.000000 0.725054 0.686434 -0.055720
3918 1 16.989224 16.612635 -1.965614 0 1.000000 1.000000 1.000000 0.711835 0.697558 -0.081882
3919 1 17.184746 16.316806 -2.630029 0 1.000000 1.000000 1.000000 0.721622 0.683343 -0.110926
3920 1 16.887601 16.513342 -3.256451 0 1.000000 1.000000 1.000000 0.707733 0.693332 -0.135664
3921 1 17.055663 16.194322 -3.915447 0 1.000000 1.000000 1.000000 0.716007 0.678283 -0.165125
3922 1 17.671870 15.322883 4.623659 0 1.000000 1.000000 1.000000 0.741541 0.641983 0.194872
3923 1 17.526861 15.671091 3.961182 0 1.000000 1.000000 1.000000 0.734856 0.657816 0.165123
3924 1 17.836721 15.465733 3.333384 0 1.000000 1.000000 1.000000 0.748675 0.647876 0.140506
3925 1 17.662669 15.792428 2.661226 0 1.000000 1.000000 1.000000 0.740367 0.662987 0.110924
3926 1 17.949214 15.563212 2.012628 0 1.000000 1.000000 1.000000 0.753547 0.651897 0.084841
3927 1 17.745682 15.866595 1.336859 0 1.000000 1.000000 1.000000 0.743734 0.666149 0.055719
3928 1 18.006263 15.612646 0.673006 0 1.000000 1.000000 1.000000 0.756018 0.653935 0.028371
3929 1 17.773614 15.891550 0.000000 0 1.000000 1.000000 1.000000 0.744867 0.667213 0.000000
3930 1 18.006263 15.612646 -0.673006 0 1.000000 1.000000 1.000000 0.756018 0.653935 -0.028371
3931 1 17.745682 15.866595 -1.336859 0 1.000000 1.000000 1.000000 0.743734 0.666149 -0.055719
3932 1 17.949214 15.563212 -2.012628 0 1.000000 1.000000 1.000000 0.753547 0.651897 -0.084841
3933 1 17.662669 15.792428 -2.661226 0 1.000000 1.000000 1.000000 0.740367 0.662987 -0.110924
3934 1 17.836721 15.465733 -3.333384 0 1.000000 1.000000 1.000000 0.748675 0.647876 -0.140506
3935 1 17.526861 15.671091 -3.961182 0 1.000000 1.000000 1.000000 0.734856 0.657816 -0.165123
3936 1 17.671870 15.322883 -4.623659 0 1.000000 1.000000 1.000000 0.741541 0.641983 -0.194872
3937 1 18.248774 14.387012 5.333425 0 1.000000 1.000000 1.000000 0.765463 0.602997 0.224635
3938 1 18.130320 14.761921 4.671676 0 1.000000 1.000000 1.000000 0.760445 0.619475 0.194870
3939 1 18.451623 14.546844 4.044478 0 1.000000 1.000000 1.000000 0.774200 0.609582 0.170365
3940 1 18.303033 14.902448 3.368662 0 1.000000 1.000000 1.000000 0.767490 0.625474 0.140504
3941 1 18.600719 14.664321 2.718079 0 1.000000 1.000000 1.000000 0.780627 0.614419 0.114502
3942 1 18.420952 14.998389 2.034203 0 1.000000 1.000000 1.000000 0.772297 0.629571 0.084839
3943 1 18.691927 14.736186 1.365695 0 1.000000 1.000000 1.000000 0.784561 0.617377 0.057534
3944 1 18.480770 15.047059 0.680267 0 1.000000 1.000000 1.000000 0.774734 0.631650 0.028371
3945 1 18.722628 14.760376 0.000000 0 1.000000 1.000000 1.000000 0.785885 0.618372 0.000000
3946 1 18.480770 15.047059 -0.680267 0 1.000000 1.000000 1.000000 0.774734 0.631650 -0.028371
3947 1 18.691927 14.736186 -1.365695 0 1.000000 1.000000 1.000000 0.784561 0.617377 -0.057534
3948 1 18.420952 14.998389 -2.034203 0 1.000000 1.000000 1.000000 0.772297 0.629571 -0.084839
3949 1 18.600719 14.664321 -2.718079 0 1.000000 1.000000 1.000000 0.780627 0.614419 -0.114502
3950 1 18.303033 14.902448 -3.368662 0 1.000000 1.000000 1.000000 0.767490 0.625474 -0.140504
3951 1 18.451623 14.546844 -4.044478 0 1.000000 1.000000 1.000000 0.774200 0.609582 -0.170365
3952 1 18.130320 14.761921 -4.671676 0 1.000000 1.000000 1.000000 0.760445 0.619475 -0.194870
3953 1 18.248774 14.387012 -5.333425 0 1.000000 1.000000 1.000000 0.765463 0.602997 -0.224635
3954 1 18.778508 13.392178 6.037909 0 1.000000 1.000000 1.000000 0.787455 0.561549 0.254121
3955 1 18.689611 13.790375 5.381281 0 1.000000 1.000000 1.000000 0.784138 0.578506 0.224632
3956 1 19.020707 13.564819 4.756647 0 1.000000 1.000000 1.000000 0.797842 0.568649 0.200217
3957 1 18.901173 13.946379 4.081593 0 1.000000 1.000000 1.000000 0.792808 0.585177 0.170362
3958 1 19.208621 13.698764 3.431130 0 1.000000 1.000000 1.000000 0.805907 0.574154 0.144435
3959 1 19.056757 14.061102 2.743433 0 1.000000 1.000000 1.000000 0.799180 0.590085 0.114501
3960 1 19.337029 13.790292 2.072423 0 1.000000 1.000000 1.000000 0.811421 0.577913 0.087245
3961 1 19.151968 14.131307 1.378561 0 1.000000 1.000000 1.000000 0.803078 0.593090 0.057533
3962 1 19.402205 13.836749 0.693133 0 1.000000 1.000000 1.000000 0.814221 0.579821 0.029180
3963 1 19.184022 14.154943 0.000000 0 1.000000 1.000000 1.000000 0.804390 0.594102 0.000000
3964 1 19.402205 13.836749 -0.693133 0 1.000000 1.000000 1.000000 0.814221 0.579821 -0.029180
3965 1 19.151968 14.131307 -1.378561 0 1.000000 1.000000 1.000000 0.803078 0.593090 -0.057533
3966 1 19.337029 13.790292 -2.072423 0 1.000000 1.000000 1.000000 0.811421 0.577913 -0.087245
3967 1 19.056757 14.061102 -2.743433 0 1.000000 1.000000 1.000000 0.799180 0.590085 -0.114501
3968 1 19.208621 13.698764 -3.431130 0 1.000000 1.000000 1.000000 0.805907 0.574154 -0.144435
3969 1 18.901173 13.946379 -4.081593 0 1.000000 1.000000 1.000000 0.792808 0.585177 -0.170362
3970 1 19.020707 13.564819 -4.756647 0 1.000000 1.000000 1.000000 0.797842 0.568649 -0.200217
3971 1 18.689611 13.790375 -5.381281 0 1.000000 1.000000 1.000000 0.784138 0.578506 -0.224632
3972 1 18.778508 13.392178 -6.037909 0 1.000000 1.000000 1.000000 0.787455 0.561549 -0.254121
3973 1 19.254146 12.345754 6.730095 0 1.000000 1.000000 1.000000 0.807235 0.517941 0.283036
3974 1 19.197115 12.762998 6.082984 0 1.000000 1.000000 1.000000 0.805604 0.535188 0.254118
3975 1 19.536012 12.526410 5.462801 0 1.000000 1.000000 1.000000 0.819275 0.525355 0.229762
3976 1 19.448501 12.930034 4.793091 0 1.000000 1.000000 1.000000 0.815951 0.542345 0.200215
3977 1 19.763990 12.672526 4.144854 0 1.000000 1.000000 1.000000 0.829020 0.531347 0.174344
3978 1 19.643644 13.059697 3.457948 0 1.000000 1.000000 1.000000 0.823977 0.547905 0.144433
3979 1 19.931795 12.780075 2.786668 0 1.000000 1.000000 1.000000 0.836198 0.535754 0.117222
3980 1 19.777045 13.148333 2.088841 0 1.000000 1.000000 1.000000 0.829461 0.551708 0.087244
3981 1 20.034549 12.845931 1.400508 0 1.000000 1.000000 1.000000 0.840595 0.538451 0.058915
3982 1 19.844770 13.193332 0.698662 0 1.000000 1.000000 1.000000 0.832245 0.553640 0.029180
3983 1 20.069154 12.868110 0.000000 0 1.000000 1.000000 1.000000 0.842076 0.539359 0.000000
3984 1 19.844770 13.193332 -0.698662 0 1.000000 1.000000 1.000000 0.832245 0.553640 -0.029180
3985 1 20.034549 12.845931 -1.400508 0 1.000000 1.000000 1.000000 0.840595 0.538451 -0.058915
3986 1 19.777045 13.148333 -2.088841 0 1.000000 1.000000 1.000000 0.829461 0.551708 -0.087244
3987 1 19.931795 12.780075 -2.786668 0 1.000000 1.000000 1.000000 0.836198 0.535754 -0.117222
3988 1 19.643644 13.059697 -3.457948 0 1.000000 1.000000 1.000000 0.823977 0.547905 -0.144433
3989 1 19.763990 12.672526 -4.144854 0 1.000000 1.000000 1.000000 0.829020 0.531347 -0.174344
3990 1 19.448501 12.930034 -4.793091 0 1.000000 1.000000 1.000000 0.815951 0.542345 -0.200215
3991 1 19.536012 12.526410 -5.462801 0 1.000000 1.000000 1.000000 0.819275 0.525355 -0.229762
3992 1 19.197115 12.762998 -6.082984 0 1.000000 1.000000 1.000000 0.805604 0.535188 -0.254118
3993 1 19.254146 12.345754 -6.730095 0 1.000000 1.000000 1.000000 0.807235 0.517941 -0.283036
3994 1 19.670094 11.256786 7.403114 0 1.000000 1.000000 1.000000 0.824574 0.472545 0.311092
3995 1 19.646391 11.688174 6.769726 0 1.000000 1.000000 1.000000 0.824566 0.489880 0.283033
3996 1 19.990824 11.440273 6.155742 0 1.000000 1.000000 1.000000 0.838225 0.480057 0.258696
3997 1 19.937475 11.861265 5.495927 0 1.000000 1.000000 1.000000 0.836593 0.497315 0.229759
3998 1 20.258995 11.593689 4.851949 0 1.000000 1.000000 1.000000 0.849647 0.486330 0.203919
3999 1 20.173021 12.001327 4.170585 0 1.000000 1.000000 1.000000 0.846319 0.503337 0.174342
4000 1 20.467343 11.712881 3.501276 0 1.000000 1.000000 1.000000 0.858526 0.491200 0.147160
4001 1 20.346462 12.104458 2.804266 0 1.000000 1.000000 1.000000 0.853478 0.507775 0.117220
4002 1 20.609858 11.794411 2.115375 0 1.000000 1.000000 1.000000 0.864602 0.494528 0.088914
4003 1 20.452695 12.167625 1.409444 0 1.000000 1.000000 1.000000 0.857861 0.510494 0.058914
4004 1 20.682239 11.835818 0.707598 0 1.000000 1.000000 1.000000 0.867688 0.496218 0.029742
4005 1 20.488476 12.188901 0.000000 0 1.000000 1.000000 1.000000 0.859337 0.511410 0.000000
4006 1 20.682239 11.835818 -0.707598 0 1.000000 1.000000 1.000000 0.867688 0.496218 -0.029742
4007 1 20.452695 12.167625 -1.409444 0 1.000000 1.000000 1.000000 0.857861 0.510494 -0.058914
4008 1 20.609858 11.794411 -2.115375 0 1.000000 1.000000 1.000000 0.864602 0.494528 -0.088914
4009 1 20.346462 12.104458 -2.804266 0 1.000000 1.000000 1.000000 0.853478 0.507775 -0.117220
4010 1 20.467343 11.712881 -3.501276 0 1.000000 1.000000 1.000000 0.858526 0.491200 -0.147160
4011 1 20.173021 12.001327 -4.170585 0 1.000000 1.000000 1.000000 0.846319 0.503337 -0.174342
4012 1 20.258995 11.593689 -4.851949 0 1.000000 1.000000 1.000000 0.849647 0.486330 -0.203919
4013 1 19.937475 11.861265 -5.495927 0 1.000000 1.000000 1.000000 0.836593 0.497315 -0.229759
4014 1 19.990824 11.440273 -6.155742 0 1.000000 1.000000 1.000000 0.838225 0.480057 -0.258696
4015 1 19.646391 11.688174 -6.769726 0 1.000000 1.000000 1.000000 0.824566 0.489880 -0.283033
4016 1 19.670094 11.256786 -7.403114 0 1.000000 1.000000 1.000000 0.824574 0.472545 -0.311092
4017 1 20.022405 10.135615 8.050576 0 1.000000 1.000000 1.000000 0.839311 0.425787 0.338026
4018 1 20.032546 10.575812 7.434739 0 1.000000 1.000000 1.000000 0.840815 0.443006 0.311090
4019 1 20.380072 10.316631 6.828519 0 1.000000 1.000000 1.000000 0.854485 0.433175 0.286732
4020 1 20.362053 10.749704 6.182910 0 1.000000 1.000000 1.000000 0.854476 0.450497 0.258695
4021 1 20.687381 10.472160 5.545093 0 1.000000 1.000000 1.000000 0.867530 0.439513 0.232853
4022 1 20.637672 10.895153 4.873946 0 1.000000 1.000000 1.000000 0.865897 0.456771 0.203917
4023 1 20.936230 10.598101 4.208786 0 1.000000 1.000000 1.000000 0.878099 0.444639 0.176746
4024 1 20.851875 11.008191 3.517480 0 1.000000 1.000000 1.000000 0.874770 0.461652 0.147159
4025 1 21.119568 10.690887 2.830398 0 1.000000 1.000000 1.000000 0.885888 0.448412 0.118865
4026 1 20.998431 11.085529 2.125303 0 1.000000 1.000000 1.000000 0.880838 0.464994 0.088913
4027 1 21.231903 10.747740 1.422717 0 1.000000 1.000000 1.000000 0.890662 0.450722 0.059750
4028 1 21.072875 11.124813 0.710943 0 1.000000 1.000000 1.000000 0.883920 0.466692 0.029742
4029 1 21.269748 10.766892 0.000000 0 1.000000 1.000000 1.000000 0.892271 0.451500 0.000000
4030 1 21.072875 11.124813 -0.710943 0 1.000000 1.000000 1.000000 0.883920 0.466692 -0.029742
4031 1 21.231903 10.747740 -1.422717 0 1.000000 1.000000 1.000000 0.890662 0.450722 -0.059750
4032 1 20.998431 11.085529 -2.125303 0 1.000000 1.000000 1.000000 0.880838 0.464994 -0.088913
4033 1 21.119568 10.690887 -2.830398 0 1.000000 1.000000 1.000000 0.885888 0.448412 -0.118865
4034 1 20.851875 11.008191 -3.517480 0 1.000000 1.000000 1.000000 0.874770 0.461652 -0.147159
4035 1 20.936230 10.598101 -4.208786 0 1.000000 1.000000 1.000000 0.878099 0.444639 -0.176746
4036 1 20.637672 10.895153 -4.873946 0 1.000000 1.000000 1.000000 0.865897 0.456771 -0.203917
4037 1 20.687381 10.472160 -5.545093 0 1.000000 1.000000 1.000000 0.867530 0.439513 -0.232853
4038 1 20.362053 10.749704 -6.182910 0 1.000000 1.000000 1.000000 0.854476 0.450497 -0.258695
4039 1 20.380072 10.316631 -6.828519 0 1.000000 1.000000 1.000000 0.854485 0.433175 -0.286732
4040 1 20.032546 10.575812 -7.434739 0 1.000000 1.000000 1.000000 0.840815 0.443006 -0.311090
4041 1 20.022405 10.135615 -8.050576 0 1.000000 1.000000 1.000000 0.839311 0.425787 -0.338026
4042 1 20.308956 8.993387 8.666869 0 1.000000 1.000000 1.000000 0.851355 0.378129 0.363611
4043 1 20.352494 9.436893 8.071881 0 1.000000 1.000000 1.000000 0.854218 0.395032 0.338025
4044 1 20.700600 9.166803 7.474771 0 1.000000 1.000000 1.000000 0.867922 0.385178 0.313609
4045 1 20.718038 9.606343 6.847246 0 1.000000 1.000000 1.000000 0.869421 0.402359 0.286731
4046 1 21.044836 9.319226 6.217307 0 1.000000 1.000000 1.000000 0.882490 0.391362 0.260859
4047 1 21.032199 9.751971 5.560764 0 1.000000 1.000000 1.000000 0.882481 0.408666 0.232852
4048 1 21.332915 9.446784 4.901801 0 1.000000 1.000000 1.000000 0.894687 0.396529 0.205670
4049 1 21.286656 9.869921 4.220970 0 1.000000 1.000000 1.000000 0.893055 0.413781 0.176745
4050 1 21.556891 9.545958 3.538003 0 1.000000 1.000000 1.000000 0.904173 0.400541 0.148451
4051 1 21.474158 9.956834 2.838737 0 1.000000 1.000000 1.000000 0.900844 0.417554 0.118865
4052 1 21.710179 9.613832 2.137879 0 1.000000 1.000000 1.000000 0.910667 0.403284 0.089704
4053 1 21.589061 10.010095 1.426954 0 1.000000 1.000000 1.000000 0.905616 0.419868 0.059749
4054 1 21.788057 9.648315 0.715179 0 1.000000 1.000000 1.000000 0.913967 0.404677 0.030009
4055 1 21.627773 10.028039 0.000000 0 1.000000 1.000000 1.000000 0.907224 0.420648 0.000000
4056 1 21.788057 9.648315 -0.715179 0 1.000000 1.000000 1.000000 0.913967 0.404677 -0.030009
4057 1 21.589061 10.010095 -1.426954 0 1.000000 1.000000 1.000000 0.905616 0.419868 -0.059749
4058 1 21.710179 9.613832 -2.137879 0 1.000000 1.000000 1.000000 0.910667 0.403284 -0.089704
4059 1 21.474158 9.956834 -2.838737 0 1.000000 1.000000 1.000000 0.900844 0.417554 -0.118865
4060 1 21.556891 9.545958 -3.538003 0 1.000000 1.000000 1.000000 0.904173 0.400541 -0.148451
4061 1 21.286656 9.869921 -4.220970 0 1.000000 1.000000 1.000000 0.893055 0.413781 -0.176745
4062 1 21.332915 9.446784 -4.901801 0 1.000000 1.000000 1.000000 0.894687 0.396529 -0.205670
4063 1 21.032199 9.751971 -5.560764 0 1.000000 1.000000 1.000000 0.882481 0.408666 -0.232852
4064 1 21.044836 9.319226 -6.217307 0 1.000000 1.000000 1.000000 0.882490 0.391362 -0.260859
4065 1 20.718038 9.606343 -6.847246 0 1.000000 1.000000 1.000000 0.869421 0.402359 -0.286731
4066 1 20.700600 9.166803 -7.474771 0 1.000000 1.000000 1.000000 0.867922 0.385178 -0.313609
4067 1 20.352494 9.436893 -8.071881 0 1.000000 1.000000 1.000000 0.854218 0.395032 -0.338025
4068 1 20.308956 8.993387 -8.666869 0 1.000000 1.000000 1.000000 0.851355 0.378129 -0.363611
4069 1 20.529495 7.841522 9.247394 0 1.000000 1.000000 1.000000 0.860692 0.330042 0.387662
4070 1 20.605070 8.282941 8.675906 0 1.000000 1.000000 1.000000 0.864732 0.346447 0.363610
4071 1 20.951286 8.002641 8.089018 0 1.000000 1.000000 1.000000 0.878486 0.336557 0.339103
4072 1 21.003279 8.442996 7.482870 0 1.000000 1.000000 1.000000 0.881339 0.353401 0.313608
4073 1 21.329206 8.147002 6.862308 0 1.000000 1.000000 1.000000 0.894436 0.342381 0.287679
4074 1 21.353326 8.583692 6.224270 0 1.000000 1.000000 1.000000 0.895932 0.359526 0.260859
4075 1 21.654071 8.271099 5.573368 0 1.000000 1.000000 1.000000 0.908152 0.347376 0.233645
4076 1 21.646297 8.701446 4.907443 0 1.000000 1.000000 1.000000 0.908142 0.364661 0.205670
4077 1 21.917244 8.371630 4.230770 0 1.000000 1.000000 1.000000 0.919266 0.351416 0.177362
4078 1 21.874097 8.793005 3.542161 0 1.000000 1.000000 1.000000 0.917634 0.368660 0.148451
4079 1 22.111197 8.445720 2.845444 0 1.000000 1.000000 1.000000 0.927458 0.354389 0.119287
4080 1 22.030012 8.855671 2.140427 0 1.000000 1.000000 1.000000 0.924129 0.371400 0.089704
4081 1 22.230063 8.491127 1.430361 0 1.000000 1.000000 1.000000 0.932480 0.356209 0.059964
4082 1 22.109227 8.887509 0.716038 0 1.000000 1.000000 1.000000 0.927429 0.372793 0.030009
4083 1 22.270112 8.506426 0.000000 0 1.000000 1.000000 1.000000 0.934172 0.356822 0.000000
4084 1 22.109227 8.887509 -0.716038 0 1.000000 1.000000 1.000000 0.927429 0.372793 -0.030009
4085 1 22.230063 8.491127 -1.430361 0 1.000000 1.000000 1.000000 0.932480 0.356209 -0.059964
4086 1 22.030012 8.855671 -2.140427 0 1.000000 1.000000 1.000000 0.924129 0.371400 -0.089704
4087 1 22.111197 8.445720 -2.845444 0 1.000000 1.000000 1.000000 0.927458 0.354389 -0.119287
4088 1 21.874097 8.793005 -3.542161 0 1.000000 1.000000 1.000000 0.917634 0.368660 -0.148451
4089 1 21.917244 8.371630 -4.230770 0 1.000000 1.000000 1.000000 0.919266 0.351416 -0.177362
4090 1 21.646297 8.701446 -4.907443 0 1.000000 1.000000 1.000000 0.908142 0.364661 -0.205670
4091 1 21.654071 8.271099 -5.573368 0 1.000000 1.000000 1.000000 0.908152 0.347376 -0.233645
4092 1 21.353326 8.583692 -6.224270 0 1.000000 1.000000 1.000000 0.895932 0.359526 -0.260859
4093 1 21.329206 8.147002 -6.862308 0 1.000000 1.000000 1.000000 0.894436 0.342381 -0.287679
4094 1 21.003279 8.442996 -7.482870 0 1.000000 1.000000 1.000000 0.881339 0.353401 -0.313608
4095 1 20.951286 8.002641 -8.089018 0 1.000000 1.000000 1.000000 0.878486 0.336557 -0.339103
4096 1 20.605070 8.282941 -8.675906 0 1.000000 1.000000 1.000000 0.864732 0.346447 -0.363610
4097 1 20.529495 7.841522 -9.247394 0 1.000000 1.000000 1.000000 0.860692 0.330042 -0.387662
4098 1 20.685542 6.691173 9.788715 0 1.000000 1.000000 1.000000 0.867377 0.281992 0.410046
4099 1 20.791001 7.125461 9.242672 0 1.000000 1.000000 1.000000 0.872393 0.297739 0.387663
4100 1 21.133004 6.835950 8.666883 0 1.000000 1.000000 1.000000 0.886210 0.287804 0.363043
4101 1 21.217715 7.271712 8.084716 0 1.000000 1.000000 1.000000 0.890231 0.304133 0.339103
4102 1 21.540526 6.967807 7.474786 0 1.000000 1.000000 1.000000 0.903367 0.293082 0.313099
4103 1 21.600024 7.402742 6.858525 0 1.000000 1.000000 1.000000 0.906210 0.309877 0.287679
4104 1 21.898718 7.083705 6.217322 0 1.000000 1.000000 1.000000 0.918450 0.297708 0.260421
4105 1 21.928644 7.515372 5.570202 0 1.000000 1.000000 1.000000 0.919943 0.314825 0.233646
4106 1 22.198475 7.180698 4.901814 0 1.000000 1.000000 1.000000 0.931075 0.301570 0.205315
4107 1 22.194848 7.606609 4.228308 0 1.000000 1.000000 1.000000 0.931065 0.318841 0.177362
4108 1 22.431532 7.256110 3.538014 0 1.000000 1.000000 1.000000 0.940893 0.304567 0.148189
4109 1 22.391027 7.673846 2.843758 0 1.000000 1.000000 1.000000 0.939261 0.321806 0.119287
4110 1 22.591034 7.307721 2.137885 0 1.000000 1.000000 1.000000 0.947612 0.306614 0.089544
4111 1 22.511255 7.715052 1.429505 0 1.000000 1.000000 1.000000 0.944284 0.323625 0.059964
4112 1 22.672068 7.333943 0.715182 0 1.000000 1.000000 1.000000 0.951027 0.307654 0.029955
4113 1 22.551762 7.728935 0.000000 0 1.000000 1.000000 1.000000 0.945976 0.324238 0.000000
4114 1 22.672068 7.333943 -0.715182 0 1.000000 1.000000 1.000000 0.951027 0.307654 -0.029955
4115 1 22.511255 7.715052 -1.429505 0 1.000000 1.000000 1.000000 0.944284 0.323625 -0.059964
4116 1 22.591034 7.307721 -2.137885 0 1.000000 1.000000 1.000000 0.947612 0.306614 -0.089544
4117 1 22.391027 7.673846 -2.843758 0 1.000000 1.000000 1.000000 0.939261 0.321806 -0.119287
4118 1 22.431532 7.256110 -3.538014 0 1.000000 1.000000 1.000000 0.940893 0.304567 -0.148189
4119 1 22.194848 7.606609 -4.228308 0 1.000000 1.000000 1.000000 0.931065 0.318841 -0.177362
4120 1 22.198475 7.180698 -4.901814 0 1.000000 1.000000 1.000000 0.931075 0.301570 -0.205315
4121 1 21.928644 7.515372 -5.570202 0 1.000000 1.000000 1.000000 0.919943 0.314825 -0.233646
4122 1 21.898718 7.083705 -6.217322 0 1.000000 1.000000 1.000000 0.918450 0.297708 -0.260421
4123 1 21.600024 7.402742 -6.858525 0 1.000000 1.000000 1.000000 0.906210 0.309877 -0.287679
4124 1 21.540526 6.967807 -7.474786 0 1.000000 1.000000 1.000000 0.903367 0.293082 -0.313099
4125 1 21.217715 7.271712 -8.084716 0 1.000000 1.000000 1.000000 0.890231 0.304133 -0.339103
4126 1 21.133004 6.835950 -8.666883 0 1.000000 1.000000 1.000000 0.886210 0.287804 -0.363043
4127 1 20.791001 7.125461 -9.242672 0 1.000000 1.000000 1.000000 0.872393 0.297739 -0.387663
4128 1 20.685542 6.691173 -9.788715 0 1.000000 1.000000 1.000000 0.867377 0.281992 -0.410046
4129 1 20.780167 5.552754 10.288613 0 1.000000 1.000000 1.000000 0.871530 0.234412 0.430681
4130 1 20.912728 5.975421 9.769244 0 1.000000 1.000000 1.000000 0.877312 0.249370 0.410048
4131 1 21.248431 5.677941 9.205209 0 1.000000 1.000000 1.000000 0.891198 0.239387 0.385306
4132 1 21.363249 6.104183 8.648891 0 1.000000 1.000000 1.000000 0.896186 0.255049 0.363044
4133 1 21.680889 5.793561 8.050605 0 1.000000 1.000000 1.000000 0.909363 0.243964 0.336957
4134 1 21.773454 6.221423 7.458666 0 1.000000 1.000000 1.000000 0.913370 0.260237 0.313100
4135 1 22.068156 5.897102 6.828549 0 1.000000 1.000000 1.000000 0.925632 0.248047 0.285793
4136 1 22.133922 6.324449 6.203465 0 1.000000 1.000000 1.000000 0.928470 0.264809 0.260422
4137 1 22.400898 5.986068 5.545120 0 1.000000 1.000000 1.000000 0.939612 0.251543 0.232067
4138 1 22.435524 6.410651 4.890589 0 1.000000 1.000000 1.000000 0.941103 0.268645 0.205316
4139 1 22.670341 6.058112 4.208810 0 1.000000 1.000000 1.000000 0.950933 0.254367 0.176135
4140 1 22.669976 6.477661 3.529741 0 1.000000 1.000000 1.000000 0.950923 0.271634 0.148190
4141 1 22.868851 6.111191 2.830415 0 1.000000 1.000000 1.000000 0.959275 0.256442 0.118447
4142 1 22.830414 6.523516 2.132815 0 1.000000 1.000000 1.000000 0.957643 0.273682 0.089545
4143 1 22.990484 6.143715 1.422726 0 1.000000 1.000000 1.000000 0.964386 0.257712 0.059537
4144 1 22.911918 6.546811 0.713473 0 1.000000 1.000000 1.000000 0.961057 0.274724 0.029955
4145 1 23.031461 6.154672 0.000000 0 1.000000 1.000000 1.000000 0.966108 0.258140 0.000000
4146 1 22.911918 6.546811 -0.713473 0 1.000000 1.000000 1.000000 0.961057 0.274724 -0.029955
4147 1 22.990484 6.143715 -1.422726 0 1.000000 1.000000 1.000000 0.964386 0.257712 -0.059537
4148 1 22.830414 6.523516 -2.132815 0 1.000000 1.000000 1.000000 0.957643 0.273682 -0.089545
4149 1 22.868851 6.111191 -2.830415 0 1.000000 1.000000 1.000000 0.959275 0.256442 -0.118447
4150 1 22.669976 6.477661 -3.529741 0 1.000000 1.000000 1.000000 0.950923 0.271634 -0.148190
4151 1 22.670341 6.058112 -4.208810 0 1.000000 1.000000 1.000000 0.950933 0.254367 -0.176135
4152 1 22.435524 6.410651 -4.890589 0 1.000000 1.000000 1.000000 0.941103 0.268645 -0.205316
4153 1 22.400898 5.986068 -5.545120 0 1.000000 1.000000 1.000000 0.939612 0.251543 -0.232067
4154 1 22.133922 6.324449 -6.203465 0 1.000000 1.000000 1.000000 0.928470 0.264809 -0.260422
4155 1 22.068156 5.897102 -6.828549 0 1.000000 1.000000 1.000000 0.925632 0.248047 -0.285793
4156 1 21.773454 6.221423 -7.458666 0 1.000000 1.000000 1.000000 0.913370 0.260237 -0.313100
4157 1 21.680889 5.793561 -8.050605 0 1.000000 1.000000 1.000000 0.909363 0.243964 -0.336957
4158 1 21.363249 6.104183 -8.648891 0 1.000000 1.000000 1.000000 0.896186 0.255049 -0.363044
4159 1 21.248431 5.677941 -9.205209 0 1.000000 1.000000 1.000000 0.891198 0.239387 -0.385306
4160 1 20.912728 5.975421 -9.769244 0 1.000000 1.000000 1.000000 0.877312 0.249370 -0.410048
4161 1 20.780167 5.552754 -10.288613 0 1.000000 1.000000 1.000000 0.871530 0.234412 -0.430681
4162 1 20.817685 4.435560 10.746050 0 1.000000 1.000000 1.000000 0.873322 0.187692 0.449533
4163 1 20.974134 4.842813 10.253911 0 1.000000 1.000000 1.000000 0.879661 0.201761 0.430684
4164 1 21.301745 4.538780 9.702085 0 1.000000 1.000000 1.000000 0.893615 0.191731 0.405823
4165 1 21.443481 4.951241 9.172752 0 1.000000 1.000000 1.000000 0.899362 0.206604 0.385308
4166 1 21.754154 4.635258 8.586887 0 1.000000 1.000000 1.000000 0.912580 0.195486 0.359143
4167 1 21.876744 5.051336 8.021057 0 1.000000 1.000000 1.000000 0.917550 0.211094 0.336959
4168 1 22.165726 4.723032 7.403158 0 1.000000 1.000000 1.000000 0.929832 0.198885 0.309608
4169 1 22.264572 5.140936 6.802588 0 1.000000 1.000000 1.000000 0.933831 0.215129 0.285795
4170 1 22.527112 4.800107 6.155784 0 1.000000 1.000000 1.000000 0.944981 0.201855 0.257422
4171 1 22.597672 5.217893 5.523401 0 1.000000 1.000000 1.000000 0.947816 0.218607 0.232069
4172 1 22.829277 4.864555 4.851987 0 1.000000 1.000000 1.000000 0.957646 0.204329 0.202887
4173 1 22.867321 5.280192 4.191927 0 1.000000 1.000000 1.000000 0.959137 0.221431 0.176136
4174 1 23.064037 4.914629 3.501306 0 1.000000 1.000000 1.000000 0.967487 0.206244 0.146401
4175 1 23.065933 5.326080 2.818863 0 1.000000 1.000000 1.000000 0.967476 0.223516 0.118448
4176 1 23.224618 4.948881 2.115395 0 1.000000 1.000000 1.000000 0.974217 0.207551 0.088448
4177 1 23.187607 5.354192 1.416858 0 1.000000 1.000000 1.000000 0.972585 0.224796 0.059538
4178 1 23.306174 4.966278 0.707605 0 1.000000 1.000000 1.000000 0.977636 0.208213 0.029586
4179 1 23.228594 5.363662 0.000000 0 1.000000 1.000000 1.000000 0.974306 0.225227 0.000000
4180 1 23.306174 4.966278 -0.707605 0 1.000000 1.000000 1.000000 0.977636 0.208213 -0.029586
4181 1 23.187607 5.354192 -1.416858 0 1.000000 1.000000 1.000000 0.972585 0.224796 -0.059538
4182 1 23.224618 4.948881 -2.115395 0 1.000000 1.000000 1.000000 0.974217 0.207551 -0.088448
4183 1 23.065933 5.326080 -2.818863 0 1.000000 1.000000 1.000000 0.967476 0.223516 -0.118448
4184 1 23.064037 4.914629 -3.501306 0 1.000000 1.000000 1.000000 0.967487 0.206244 -0.146401
4185 1 22.867321 5.280192 -4.191927 0 1.000000 1.000000 1.000000 0.959137 0.221431 -0.176136
4186 1 22.829277 4.864555 -4.851987 0 1.000000 1.000000 1.000000 0.957646 0.204329 -0.202887
4187 1 22.597672 5.217893 -5.523401 0 1.000000 1.000000 1.000000 0.947816 0.218607 -0.232069
4188 1 22.527112 4.800107 -6.155784 0 1.000000 1.000000 1.000000 0.944981 0.201855 -0.257422
4189 1 22.264572 5.140936 -6.802588 0 1.000000 1.000000 1.000000 0.933831 0.215129 -0.285795
4190 1 22.165726 4.723032 -7.403158 0 1.000000 1.000000 1.000000 0.929832 0.198885 -0.309608
4191 1 21.876744 5.051336 -8.021057 0 1.000000 1.000000 1.000000 0.917550 0.211094 -0.336959
4192 1 21.754154 4.635258 -8.586887 0 1.000000 1.000000 1.000000 0.912580 0.195486 -0.359143
4193 1 21.443481 4.951241 -9.172752 0 1.000000 1.000000 1.000000 0.899362 0.206604 -0.385308
4194 1 21.301745 4.538780 -9.702085 0 1.000000 1.000000 1.000000 0.893615 0.191731 -0.405823
4195 1 20.974134 4.842813 -10.253911 0 1.000000 1.000000 1.000000 0.879661 0.201761 -0.430684
4196 1 20.817685 4.435560 -10.746050 0 1.000000 1.000000 1.000000 0.873322 0.187692 -0.449533
4197 1 20.803315 3.347518 11.161060 0 1.000000 1.000000 1.000000 0.872961 0.142164 0.466614
4198 1 20.980195 3.736332 10.696109 0 1.000000 1.000000 1.000000 0.879663 0.155276 0.449537
4199 1 21.298254 3.427263 10.156775 0 1.000000 1.000000 1.000000 0.893674 0.145205 0.424573
4200 1 21.463355 3.822458 9.654889 0 1.000000 1.000000 1.000000 0.899978 0.159199 0.405826
4201 1 21.765572 3.502565 9.082005 0 1.000000 1.000000 1.000000 0.913227 0.148055 0.379599
4202 1 21.914635 3.902904 8.543335 0 1.000000 1.000000 1.000000 0.918958 0.162884 0.359146
4203 1 22.196430 3.571998 7.938533 0 1.000000 1.000000 1.000000 0.931252 0.150664 0.331767
4204 1 22.324931 3.976048 7.364185 0 1.000000 1.000000 1.000000 0.936216 0.166253 0.309610
4205 1 22.581666 3.634085 6.730152 0 1.000000 1.000000 1.000000 0.947366 0.152979 0.281237
4206 1 22.685000 4.040241 6.122321 0 1.000000 1.000000 1.000000 0.951365 0.169224 0.257424
4207 1 22.912202 3.687361 5.462854 0 1.000000 1.000000 1.000000 0.961191 0.154954 0.228259
4208 1 22.985920 4.093890 4.824904 0 1.000000 1.000000 1.000000 0.964027 0.171718 0.202889
4209 1 23.179546 3.730455 4.144899 0 1.000000 1.000000 1.000000 0.972370 0.156543 0.173177
4210 1 23.219619 4.135556 3.481361 0 1.000000 1.000000 1.000000 0.973862 0.173662 0.146402
4211 1 23.376326 3.762176 2.786700 0 1.000000 1.000000 1.000000 0.980599 0.157708 0.116424
4212 1 23.379429 4.164049 2.103177 0 1.000000 1.000000 1.000000 0.980588 0.174994 0.088449
4213 1 23.496823 3.781600 1.400525 0 1.000000 1.000000 1.000000 0.985637 0.158419 0.058510
4214 1 23.460578 4.178518 0.703490 0 1.000000 1.000000 1.000000 0.984004 0.175672 0.029586
4215 1 23.537403 3.788142 0.000000 0 1.000000 1.000000 1.000000 0.987334 0.158658 0.000000
4216 1 23.460578 4.178518 -0.703490 0 1.000000 1.000000 1.000000 0.984004 0.175672 -0.029586
4217 1 23.496823 3.781600 -1.400525 0 1.000000 1.000000 1.000000 0.985637 0.158419 -0.058510
4218 1 23.379429 4.164049 -2.103177 0 1.000000 1.000000 1.000000 0.980588 0.174994 -0.088449
4219 1 23.376326 3.762176 -2.786700 0 1.000000 1.000000 1.000000 0.980599 0.157708 -0.116424
4220 1 23.219619 4.135556 -3.481361 0 1.000000 1.000000 1.000000 0.973862 0.173662 -0.146402
4221 1 23.179546 3.730455 -4.144899 0 1.000000 1.000000 1.000000 0.972370 0.156543 -0.173177
4222 1 22.985920 4.093890 -4.824904 0 1.000000 1.000000 1.000000 0.964027 0.171718 -0.202889
4223 1 22.912202 3.687361 -5.462854 0 1.000000 1.000000 1.000000 0.961191 0.154954 -0.228259
4224 1 22.685000 4.040241 -6.122321 0 1.000000 1.000000 1.000000 0.951365 0.169224 -0.257424
4225 1 22.581666 3.634085 -6.730152 0 1.000000 1.000000 1.000000 0.947366 0.152979 -0.281237
4226 1 22.324931 3.976048 -7.364185 0 1.000000 1.000000 1.000000 0.936216 0.166253 -0.309610
4227 1 22.196430 3.571998 -7.938533 0 1.000000 1.000000 1.000000 0.931252 0.150664 -0.331767
4228 1 21.914635 3.902904 -8.543335 0 1.000000 1.000000 1.000000 0.918958 0.162884 -0.359146
4229 1 21.765572 3.502565 -9.082005 0 1.000000 1.000000 1.000000 0.913227 0.148055 -0.379599
4230 1 21.463355 3.822458 -9.654889 0 1.000000 1.000000 1.000000 0.899978 0.159199 -0.405826
4231 1 21.298254 3.427263 -10.156775 0 1.000000 1.000000 1.000000 0.893674 0.145205 -0.424573
4232 1 20.980195 3.736332 -10.696109 0 1.000000 1.000000 1.000000 0.879663 0.155276 -0.449537
4233 1 20.803315 3.347518 -11.161060 0 1.000000 1.000000 1.000000 0.872961 0.142164 -0.466614
4234 1 20.742830 2.295057 11.534594 0 1.000000 1.000000 1.000000 0.870679 0.098100 0.481969
4235 1 20.936619 2.663188 11.096291 0 1.000000 1.000000 1.000000 0.877565 0.110217 0.466618
4236 1 21.244008 2.350628 10.569586 0 1.000000 1.000000 1.000000 0.891620 0.100116 0.441578
4237 1 21.428764 2.725888 10.095020 0 1.000000 1.000000 1.000000 0.898291 0.113171 0.424577
4238 1 21.721354 2.403564 9.535486 0 1.000000 1.000000 1.000000 0.911559 0.102013 0.398314
4239 1 21.893061 2.785046 9.024357 0 1.000000 1.000000 1.000000 0.917851 0.115981 0.379603
4240 1 22.166494 2.452937 8.433300 0 1.000000 1.000000 1.000000 0.930147 0.103760 0.352223
4241 1 22.320800 2.839550 7.886146 0 1.000000 1.000000 1.000000 0.935877 0.118590 0.331770
4242 1 22.570603 2.497766 7.265844 0 1.000000 1.000000 1.000000 0.947017 0.105329 0.303423
4243 1 22.702969 2.888252 6.684198 0 1.000000 1.000000 1.000000 0.951986 0.120938 0.281240
4244 1 22.924761 2.537059 6.037976 0 1.000000 1.000000 1.000000 0.961798 0.106689 0.252117
4245 1 23.030661 2.930014 5.424463 0 1.000000 1.000000 1.000000 0.965804 0.122964 0.228261
4246 1 23.220391 2.569863 4.756707 0 1.000000 1.000000 1.000000 0.974133 0.107814 0.198597
4247 1 23.295558 2.963775 4.115093 0 1.000000 1.000000 1.000000 0.976976 0.124611 0.173179
4248 1 23.449761 2.595317 3.431177 0 1.000000 1.000000 1.000000 0.983702 0.108680 0.143244
4249 1 23.490455 2.988616 2.766323 0 1.000000 1.000000 1.000000 0.985197 0.125827 0.116425
4250 1 23.606497 2.612712 2.072453 0 1.000000 1.000000 1.000000 0.990240 0.109268 0.086515
4251 1 23.609762 3.003823 1.390179 0 1.000000 1.000000 1.000000 0.990230 0.126574 0.058510
4252 1 23.686051 2.621541 0.693144 0 1.000000 1.000000 1.000000 0.993558 0.109566 0.028935
4253 1 23.649936 3.008943 0.000000 0 1.000000 1.000000 1.000000 0.991925 0.126826 0.000000
4254 1 23.686051 2.621541 -0.693144 0 1.000000 1.000000 1.000000 0.993558 0.109566 -0.028935
4255 1 23.609762 3.003823 -1.390179 0 1.000000 1.000000 1.000000 0.990230 0.126574 -0.058510
4256 1 23.606497 2.612712 -2.072453 0 1.000000 1.000000 1.000000 0.990240 0.109268 -0.086515
4257 1 23.490455 2.988616 -2.766323 0 1.000000 1.000000 1.000000 0.985197 0.125827 -0.116425
4258 1 23.449761 2.595317 -3.431177 0 1.000000 1.000000 1.000000 0.983702 0.108680 -0.143244
4259 1 23.295558 2.963775 -4.115093 0 1.000000 1.000000 1.000000 0.976976 0.124611 -0.173179
4260 1 23.220391 2.569863 -4.756707 0 1.000000 1.000000 1.000000 0.974133 0.107814 -0.198597
4261 1 23.030661 2.930014 -5.424463 0 1.000000 1.000000 1.000000 0.965804 0.122964 -0.228261
4262 1 22.924761 2.537059 -6.037976 0 1.000000 1.000000 1.000000 0.961798 0.106689 -0.252117
4263 1 22.702969 2.888252 -6.684198 0 1.000000 1.000000 1.000000 0.951986 0.120938 -0.281240
4264 1 22.570603 2.497766 -7.265844 0 1.000000 1.000000 1.000000 0.947017 0.105329 -0.303423
4265 1 22.320800 2.839550 -7.886146 0 1.000000 1.000000 1.000000 0.935877 0.118590 -0.331770
4266 1 22.166494 2.452937 -8.433300 0 1.000000 1.000000 1.000000 0.930147 0.103760 -0.352223
4267 1 21.893061 2.785046 -9.024357 0 1.000000 1.000000 1.000000 0.917851 0.115981 -0.379603
4268 1 21.721354 2.403564 -9.535486 0 1.000000 1.000000 1.000000 0.911559 0.102013 -0.398314
4269 1 21.428764 2.725888 -10.095020 0 1.000000 1.000000 1.000000 0.898291 0.113171 -0.424577
4270 1 21.244008 2.350628 -10.569586 0 1.000000 1.000000 1.000000 0.891620 0.100116 -0.441578
4271 1 20.936619 2.663188 -11.096291 0 1.000000 1.000000 1.000000 0.877565 0.110217 -0.466618
4272 1 20.742830 2.295057 -11.534594 0 1.000000 1.000000 1.000000 0.870679 0.098100 -0.481969
4273 1 20.642231 1.283091 11.868331 0 1.000000 1.000000 1.000000 0.866719 0.055708 0.495677
4274 1 20.849498 1.629039 11.455743 0 1.000000 1.000000 1.000000 0.873634 0.066818 0.481974
4275 1 21.145427 1.314499 10.941688 0 1.000000 1.000000 1.000000 0.887713 0.056701 0.456893
4276 1 21.346147 1.667957 10.493834 0 1.000000 1.000000 1.000000 0.894580 0.068786 0.441582
4277 1 21.628259 1.344646 9.947855 0 1.000000 1.000000 1.000000 0.907849 0.057629 0.415319
4278 1 21.818711 1.704993 9.464072 0 1.000000 1.000000 1.000000 0.914520 0.070684 0.398319
4279 1 22.082897 1.373041 8.887196 0 1.000000 1.000000 1.000000 0.926800 0.058479 0.370973
4280 1 22.258973 1.739504 8.367553 0 1.000000 1.000000 1.000000 0.933104 0.072474 0.352227
4281 1 22.500973 1.399161 7.761693 0 1.000000 1.000000 1.000000 0.944221 0.059242 0.323940
4282 1 22.658297 1.770810 7.207138 0 1.000000 1.000000 1.000000 0.949968 0.074116 0.303426
4283 1 22.873879 1.422465 6.575180 0 1.000000 1.000000 1.000000 0.959754 0.059905 0.274380
4284 1 23.007977 1.798228 5.987665 0 1.000000 1.000000 1.000000 0.964741 0.075570 0.252120
4285 1 23.193149 1.442422 5.333499 0 1.000000 1.000000 1.000000 0.973048 0.060461 0.222537
4286 1 23.299663 1.821102 4.716055 0 1.000000 1.000000 1.000000 0.977068 0.076793 0.198600
4287 1 23.450911 1.458538 4.044540 0 1.000000 1.000000 1.000000 0.983778 0.060901 0.168738
4288 1 23.525842 1.838841 3.401278 0 1.000000 1.000000 1.000000 0.986629 0.077748 0.143246
4289 1 23.640370 1.470385 2.718124 0 1.000000 1.000000 1.000000 0.991662 0.061220 0.113392
4290 1 23.680331 1.850958 2.054154 0 1.000000 1.000000 1.000000 0.993160 0.078405 0.086517
4291 1 23.756269 1.477634 1.365719 0 1.000000 1.000000 1.000000 0.996485 0.061413 0.056971
4292 1 23.758723 1.857106 0.686982 0 1.000000 1.000000 1.000000 0.996475 0.078739 0.028935
4293 1 23.795282 1.480074 0.000000 0 1.000000 1.000000 1.000000 0.998108 0.061477 0.000000
4294 1 23.758723 1.857106 -0.686982 0 1.000000 1.000000 1.000000 0.996475 0.078739 -0.028935
4295 1 23.756269 1.477634 -1.365719 0 1.000000 1.000000 1.000000 0.996485 0.061413 -0.056971
4296 1 23.680331 1.850958 -2.054154 0 1.000000 1.000000 1.000000 0.993160 0.078405 -0.086517
4297 1 23.640370 1.470385 -2.718124 0 1.000000 1.000000 1.000000 0.991662 0.061220 -0.113392
4298 1 23.525842 1.838841 -3.401278 0 1.000000 1.000000 1.000000 0.986629 0.077748 -0.143246
4299 1 23.450911 1.458538 -4.044540 0 1.000000 1.000000 1.000000 0.983778 0.060901 -0.168738
4300 1 23.299663 1.821102 -4.716055 0 1.000000 1.000000 1.000000 0.977068 0.076793 -0.198600
4301 1 23.193149 1.442422 -5.333499 0 1.000000 1.000000 1.000000 0.973048 0.060461 -0.222537
4302 1 23.007977 1.798228 -5.987665 0 1.000000 1.000000 1.000000 0.964741 0.075570 -0.252120
4303 1 22.873879 1.422465 -6.575180 0 1.000000 1.000000 1.000000 0.959754 0.059905 -0.274380
4304 1 22.658297 1.770810 -7.207138 0 1.000000 1.000000 1.000000 0.949968 0.074116 -0.303426
4305 1 22.500973 1.399161 -7.761693 0 1.000000 1.000000 1.000000 0.944221 0.059242 -0.323940
4306 1 22.258973 1.739504 -8.367553 0 1.000000 1.000000 1.000000 0.933104 0.072474 -0.352227
4307 1 22.082897 1.373041 -8.887196 0 1.000000 1.000000 1.000000 0.926800 0.058479 -0.370973
4308 1 21.818711 1.704993 -9.464072 0 1.000000 1.000000 1.000000 0.914520 0.070684 -0.398319
4309 1 21.628259 1.344646 -9.947855 0 1.000000 1.000000 1.000000 0.907849 0.057629 -0.415319
4310 1 21.346147 1.667957 -10.493834 0 1.000000 1.000000 1.000000 0.894580 0.068786 -0.441582
4311 1 21.145427 1.314499 -10.941688 0 1.000000 1.000000 1.000000 0.887713 0.056701 -0.456893
4312 1 20.849498 1.629039 -11.455743 0 1.000000 1.000000 1.000000 0.873634 0.066818 -0.481974
4313 1 20.642231 1.283091 -11.868331 0 1.000000 1.000000 1.000000 0.866719 0.055708 -0.495677
4314 1 20.507486 0.315093 12.164492 0 1.000000 1.000000 1.000000 0.861323 0.015138 0.507833
4315 1 20.724999 0.638030 11.776400 0 1.000000 1.000000 1.000000 0.868137 0.025251 0.495682
4316 1 21.008977 0.322937 11.274924 0 1.000000 1.000000 1.000000 0.882217 0.015134 0.470600
4317 1 21.222137 0.653457 10.852800 0 1.000000 1.000000 1.000000 0.889132 0.026244 0.456898
4318 1 21.493216 0.330521 10.320443 0 1.000000 1.000000 1.000000 0.902381 0.015104 0.430675
4319 1 21.698618 0.668251 9.863352 0 1.000000 1.000000 1.000000 0.909266 0.027222 0.415324
4320 1 21.952952 0.337731 9.300909 0 1.000000 1.000000 1.000000 0.921514 0.015051 0.388054
4321 1 22.146780 0.682173 8.808535 0 1.000000 1.000000 1.000000 0.928214 0.028165 0.370978
4322 1 22.380353 0.344442 8.217600 0 1.000000 1.000000 1.000000 0.939292 0.014981 0.342792
4323 1 22.558470 0.694967 7.690401 0 1.000000 1.000000 1.000000 0.945630 0.029053 0.323944
4324 1 22.767241 0.350525 7.073459 0 1.000000 1.000000 1.000000 0.955376 0.014899 0.295015
4325 1 22.925325 0.706373 6.512793 0 1.000000 1.000000 1.000000 0.961157 0.029861 0.274384
4326 1 23.105422 0.355848 5.873269 0 1.000000 1.000000 1.000000 0.969430 0.014814 0.244921
4327 1 23.239146 0.716133 5.281490 0 1.000000 1.000000 1.000000 0.974444 0.030565 0.222540
4328 1 23.387074 0.360285 4.623735 0 1.000000 1.000000 1.000000 0.981129 0.014732 0.192790
4329 1 23.492325 0.724010 4.004230 0 1.000000 1.000000 1.000000 0.985168 0.031141 0.168741
4330 1 23.605194 0.363724 3.333444 0 1.000000 1.000000 1.000000 0.990187 0.014662 0.138976
4331 1 23.678308 0.729797 2.690600 0 1.000000 1.000000 1.000000 0.993049 0.031570 0.113393
4332 1 23.754038 0.366073 2.012667 0 1.000000 1.000000 1.000000 0.996367 0.014611 0.083905
4333 1 23.792037 0.733337 1.351755 0 1.000000 1.000000 1.000000 0.997868 0.031834 0.056972
4334 1 23.829522 0.367264 0.673019 0 1.000000 1.000000 1.000000 0.999500 0.014584 0.028056
4335 1 23.830312 0.734528 0.000000 0 1.000000 1.000000 1.000000 0.999490 0.031923 0.000000
4336 1 23.829522 0.367264 -0.673019 0 1.000000 1.000000 1.000000 0.999500 0.014584 -0.028056
4337 1 23.792037 0.733337 -1.351755 0 1.000000 1.000000 1.000000 0.997868 0.031834 -0.056972
4338 1 23.754038 0.366073 -2.012667 0 1.000000 1.000000 1.000000 0.996367 0.014611 -0.083905
4339 1 23.678308 0.729797 -2.690600 0 1.000000 1.000000 1.000000 0.993049 0.031570 -0.113393
4340 1 23.605194 0.363724 -3.333444 0 1.000000 1.000000 1.000000 0.990187 0.014662 -0.138976
4341 1 23.492325 0.724010 -4.004230 0 1.000000 1.000000 1.000000 0.985168 0.031141 -0.168741
4342 1 23.387074 0.360285 -4.623735 0 1.000000 1.000000 1.000000 0.981129 0.014732 -0.192790
4343 1 23.239146 0.716133 -5.281490 0 1.000000 1.000000 1.000000 0.974444 0.030565 -0.222540
4344 1 23.105422 0.355848 -5.873269 0 1.000000 1.000000 1.000000 0.969430 0.014814 -0.244921
4345 1 22.925325 0.706373 -6.512793 0 1.000000 1.000000 1.000000 0.961157 0.029861 -0.274384
4346 1 22.767241 0.350525 -7.073459 0 1.000000 1.000000 1.000000 0.955376 0.014899 -0.295015
4347 1 22.558470 0.694967 -7.690401 0 1.000000 1.000000 1.000000 0.945630 0.029053 -0.323944
4348 1 22.380353 0.344442 -8.217600 0 1.000000 1.000000 1.000000 0.939292 0.014981 -0.342792
4349 1 22.146780 0.682173 -8.808535 0 1.000000 1.000000 1.000000 0.928214 0.028165 -0.370978
4350 1 21.952952 0.337731 -9.300909 0 1.000000 1.000000 1.000000 0.921514 0.015051 -0.388054
4351 1 21.698618 0.668251 -9.863352 0 1.000000 1.000000 1.000000 0.909266 0.027222 -0.415324
4352 1 21.493216 0.330521 -10.320443 0 1.000000 1.000000 1.000000 0.902381 0.015104 -0.430675
4353 1 21.222137 0.653457 -10.852800 0 1.000000 1.000000 1.000000 0.889132 0.026244 -0.456898
4354 1 21.008977 0.322937 -11.274924 0 1.000000 1.000000 1.000000 0.882217 0.015134 -0.470600
4355 1 20.724999 0.638030 -11.776400 0 1.000000 1.000000 1.000000 0.868137 0.025251 -0.495682
4356 1 20.507486 0.315093 -12.164492 0 1.000000 1.000000 1.000000 0.861323 0.015138 -0.507833
4357 1 20.192393 -0.509831 12.674323 0 1.000000 1.000000 1.000000 0.846185 -0.024494 0.532327
4358 1 19.725886 -1.115930 13.351008 0 1.000000 1.000000 1.000000 0.826508 -0.049563 0.560738
4359 1 20.086969 -1.032354 12.808754 0 1.000000 1.000000 1.000000 0.842886 -0.040856 0.536538
4360 1 20.319294 -1.482677 12.390854 0 1.000000 1.000000 1.000000 0.851585 -0.065062 0.520164
4361 1 19.198158 -1.748944 14.033924 0 1.000000 1.000000 1.000000 0.804281 -0.075733 0.589404
4362 1 19.593098 -1.660259 13.488641 0 1.000000 1.000000 1.000000 0.822314 -0.067540 0.565012
4363 1 19.830928 -2.126904 13.068592 0 1.000000 1.000000 1.000000 0.831012 -0.091744 0.548637
4364 1 20.196041 -2.032898 12.513059 0 1.000000 1.000000 1.000000 0.847390 -0.083038 0.524438
4365 1 20.412309 -2.499330 12.069387 0 1.000000 1.000000 1.000000 0.855575 -0.107435 0.506408
4366 1 18.605434 -2.406611 14.717307 0 1.000000 1.000000 1.000000 0.779350 -0.102913 0.618080
4367 1 19.035429 -2.314192 14.172481 0 1.000000 1.000000 1.000000 0.799049 -0.095340 0.593659
4368 1 19.277632 -2.797414 13.751250 0 1.000000 1.000000 1.000000 0.807733 -0.119504 0.577310
4369 1 19.678191 -2.698810 13.192644 0 1.000000 1.000000 1.000000 0.825794 -0.111299 0.552881
4370 1 19.899363 -3.181665 12.745268 0 1.000000 1.000000 1.000000 0.833991 -0.135732 0.534823
4371 1 20.268368 -3.076190 12.177544 0 1.000000 1.000000 1.000000 0.850343 -0.127041 0.510664
4372 1 20.465585 -3.556247 11.707519 0 1.000000 1.000000 1.000000 0.857910 -0.151466 0.490967
4373 1 17.944793 -3.085769 15.394486 0 1.000000 1.000000 1.000000 0.751600 -0.130981 0.646484
4374 1 18.410448 -2.991353 14.854048 0 1.000000 1.000000 1.000000 0.772938 -0.124131 0.622220
4375 1 18.655634 -3.491206 14.432624 0 1.000000 1.000000 1.000000 0.781595 -0.148221 0.605921
4376 1 19.092823 -3.389685 13.874652 0 1.000000 1.000000 1.000000 0.801349 -0.140627 0.581433
4377 1 19.317790 -3.889049 13.424535 0 1.000000 1.000000 1.000000 0.809546 -0.165060 0.563374
4378 1 19.723771 -3.779632 12.853757 0 1.000000 1.000000 1.000000 0.827607 -0.156856 0.538946
4379 1 19.925213 -4.275849 12.378402 0 1.000000 1.000000 1.000000 0.835195 -0.181348 0.519194
4380 1 20.298022 -4.157938 11.799888 0 1.000000 1.000000 1.000000 0.851497 -0.172683 0.495109
4381 1 20.473242 -4.648437 11.303369 0 1.000000 1.000000 1.000000 0.858341 -0.196950 0.473773
4382 1 17.214487 -3.782316 16.058003 0 1.000000 1.000000 1.000000 0.720965 -0.159774 0.674301
4383 1 17.715657 -3.687990 15.526237 0 1.000000 1.000000 1.000000 0.743869 -0.153748 0.650400
4384 1 17.962192 -4.204281 15.105594 0 1.000000 1.000000 1.000000 0.752490 -0.177738 0.634167
4385 1 18.436515 -4.101912 14.552419 0 1.000000 1.000000 1.000000 0.773906 -0.170864 0.609816
4386 1 18.663929 -4.617641 14.100568 0 1.000000 1.000000 1.000000 0.782091 -0.195263 0.591781
4387 1 19.108015 -4.506299 13.530656 0 1.000000 1.000000 1.000000 0.801870 -0.187661 0.567263
4388 1 19.312634 -5.018563 13.050941 0 1.000000 1.000000 1.000000 0.809467 -0.212183 0.547486
4389 1 19.723851 -4.897530 12.469465 0 1.000000 1.000000 1.000000 0.827504 -0.203990 0.523091
4390 1 19.902584 -5.403509 11.965974 0 1.000000 1.000000 1.000000 0.834373 -0.228344 0.501678
4391 1 20.279167 -5.272327 11.378391 0 1.000000 1.000000 1.000000 0.850609 -0.219716 0.477692
4392 1 20.429642 -5.769390 10.855775 0 1.000000 1.000000 1.000000 0.856631 -0.243620 0.454789
4393 1 16.414248 -4.491220 16.699815 0 1.000000 1.000000 1.000000 0.687438 -0.189094 0.701194
4394 1 16.949904 -4.399386 16.181228 0 1.000000 1.000000 1.000000 0.711787 -0.183980 0.677872
4395 1 17.195937 -4.931625 15.762282 0 1.000000 1.000000 1.000000 0.720367 -0.207855 0.661716
4396 1 17.707056 -4.830845 15.218414 0 1.000000 1.000000 1.000000 0.743364 -0.201804 0.637718
4397 1 17.935345 -5.362513 14.765849 0 1.000000 1.000000 1.000000 0.751531 -0.226146 0.619726
4398 1 18.417896 -5.251678 14.201178 0 1.000000 1.000000 1.000000 0.772992 -0.219258 0.595322
4399 1 18.624432 -5.779615 13.718148 0 1.000000 1.000000 1.000000 0.780589 -0.243779 0.575546
4400 1 19.075084 -5.657843 13.137824 0 1.000000 1.000000 1.000000 0.800368 -0.236177 0.551028
4401 1 19.256388 -6.178962 12.628357 0 1.000000 1.000000 1.000000 0.807251 -0.260583 0.529568
4402 1 19.672670 -6.045662 12.037983 0 1.000000 1.000000 1.000000 0.825246 -0.252410 0.505231
4403 1 19.825966 -6.557073 11.506805 0 1.000000 1.000000 1.000000 0.831292 -0.276411 0.482235
4404 1 20.206355 -6.411984 10.912179 0 1.000000 1.000000 1.000000 0.847451 -0.267825 0.458363
4405 1 20.329695 -6.911100 10.364489 0 1.000000 1.000000 1.000000 0.852563 -0.291147 0.434015
4406 1 15.545551 -5.206613 17.311585 0 1.000000 1.000000 1.000000 0.651087 -0.218709 0.726809
4407 1 16.113685 -5.119910 16.810727 0 1.000000 1.000000 1.000000 0.676706 -0.214577 0.704291
4408 1 16.357199 -5.667271 16.394299 0 1.000000 1.000000 1.000000 0.685243 -0.238334 0.688214
4409 1 16.903794 -5.570821 15.864440 0 1.000000 1.000000 1.000000 0.709692 -0.233199 0.664797
4410 1 17.131201 -6.117677 15.412155 0 1.000000 1.000000 1.000000 0.717834 -0.257466 0.646858
4411 1 17.651633 -6.010149 14.857431 0 1.000000 1.000000 1.000000 0.740893 -0.251401 0.622796
4412 1 17.858634 -6.553080 14.372178 0 1.000000 1.000000 1.000000 0.748482 -0.275897 0.603039
4413 1 18.348883 -6.433381 13.797566 0 1.000000 1.000000 1.000000 0.769963 -0.269003 0.578614
4414 1 18.531640 -6.969020 13.283231 0 1.000000 1.000000 1.000000 0.776853 -0.293431 0.557134
4415 1 18.988492 -6.836373 12.694347 0 1.000000 1.000000 1.000000 0.796612 -0.285837 0.532641
4416 1 19.143829 -7.361550 12.155653 0 1.000000 1.000000 1.000000 0.802675 -0.309901 0.509583
4417 1 19.565021 -7.215549 11.558486 0 1.000000 1.000000 1.000000 0.820616 -0.301753 0.485318
4418 1 19.690582 -7.727416 11.000770 0 1.000000 1.000000 1.000000 0.825749 -0.325171 0.460871
4419 1 20.074868 -7.568055 10.401400 0 1.000000 1.000000 1.000000 0.841828 -0.316628 0.437117
4420 1 20.169210 -8.064191 9.830348 0 1.000000 1.000000 1.000000 0.845960 -0.339147 0.411499
4421 1 14.611806 -5.921943 17.885050 0 1.000000 1.000000 1.000000 0.612059 -0.248358 0.750801
4422 1 15.209384 -5.843149 17.406310 0 1.000000 1.000000 1.000000 0.638722 -0.245257 0.729304
4423 1 15.448270 -6.404442 16.993085 0 1.000000 1.000000 1.000000 0.647221 -0.268905 0.713299
4424 1 16.027951 -6.315267 16.481931 0 1.000000 1.000000 1.000000 0.672935 -0.264757 0.690697
4425 1 16.252584 -6.876205 16.030856 0 1.000000 1.000000 1.000000 0.681051 -0.288948 0.672814
4426 1 16.809237 -6.775065 15.490938 0 1.000000 1.000000 1.000000 0.705567 -0.283799 0.649333
4427 1 17.015100 -7.331971 15.004566 0 1.000000 1.000000 1.000000 0.713144 -0.308255 0.629607
4428 1 17.544065 -7.217514 14.440529 0 1.000000 1.000000 1.000000 0.736236 -0.302181 0.605510
4429 1 17.727005 -7.766737 13.922521 0 1.000000 1.000000 1.000000 0.743126 -0.326608 0.584030
4430 1 18.224332 -7.637942 13.339834 0 1.000000 1.000000 1.000000 0.764607 -0.319715 0.559606
4431 1 18.380795 -8.176017 12.794825 0 1.000000 1.000000 1.000000 0.770678 -0.343814 0.536514
4432 1 18.843440 -8.032271 12.199528 0 1.000000 1.000000 1.000000 0.790406 -0.336233 0.512060
4433 1 18.970663 -8.556070 11.632912 0 1.000000 1.000000 1.000000 0.795553 -0.359714 0.487545
4434 1 19.396613 -8.397215 11.031322 0 1.000000 1.000000 1.000000 0.813438 -0.351594 0.463357
4435 1 19.492748 -8.904067 10.448982 0 1.000000 1.000000 1.000000 0.817585 -0.374196 0.437643
4436 1 19.881060 -8.730403 9.847379 0 1.000000 1.000000 1.000000 0.833591 -0.365693 0.413998
4437 1 19.945231 -9.218181 9.255387 0 1.000000 1.000000 1.000000 0.836693 -0.387190 0.387335
4438 1 13.618423 -6.630227 18.412436 0 1.000000 1.000000 1.000000 0.570579 -0.277762 0.772844
4439 1 14.241415 -6.562118 17.959814 0 1.000000 1.000000 1.000000 0.598017 -0.275713 0.752568
4440 1 14.473567 -7.135781 17.550322 0 1.000000 1.000000 1.000000 0.606485 -0.299273 0.736622
4441 1 15.082845 -7.056899 17.062333 0 1.000000 1.000000 1.000000 0.633228 -0.296162 0.715060
4442 1 15.302758 -7.630441 16.613304 0 1.000000 1.000000 1.000000 0.641321 -0.320283 0.697227
4443 1 15.892816 -7.538921 16.092982 0 1.000000 1.000000 1.000000 0.667099 -0.316125 0.674569
4444 1 16.095840 -8.108425 15.606575 0 1.000000 1.000000 1.000000 0.674662 -0.340537 0.654878
4445 1 16.661471 -8.002615 15.058077 0 1.000000 1.000000 1.000000 0.699218 -0.335379 0.631359
4446 1 16.843209 -8.564149 14.537649 0 1.000000 1.000000 1.000000 0.706103 -0.359791 0.609893
4447 1 17.379779 -8.442728 13.966129 0 1.000000 1.000000 1.000000 0.729209 -0.353714 0.585782
4448 1 17.536342 -8.992529 13.416136 0 1.000000 1.000000 1.000000 0.735284 -0.377825 0.562678
4449 1 18.040032 -8.854612 12.827518 0 1.000000 1.000000 1.000000 0.756752 -0.370937 0.538268
4450 1 18.168263 -9.389253 12.253324 0 1.000000 1.000000 1.000000 0.761907 -0.394457 0.513713
4451 1 18.636249 -9.234456 11.654014 0 1.000000 1.000000 1.000000 0.781600 -0.386890 0.489304
4452 1 18.733889 -9.750997 11.061619 0 1.000000 1.000000 1.000000 0.785757 -0.409548 0.463526
4453 1 19.164438 -9.579462 10.458177 0 1.000000 1.000000 1.000000 0.803590 -0.401452 0.439408
4454 1 19.230215 -10.075551 9.853905 0 1.000000 1.000000 1.000000 0.806702 -0.423013 0.412664
4455 1 19.622696 -9.887933 9.252718 0 1.000000 1.000000 1.000000 0.822649 -0.414543 0.389106
4456 1 19.656332 -10.361860 8.642894 0 1.000000 1.000000 1.000000 0.824700 -0.434817 0.361667
4457 1 12.572735 -7.324341 18.886882 0 1.000000 1.000000 1.000000 0.526955 -0.306633 0.792651
4458 1 13.216225 -7.269548 18.463779 0 1.000000 1.000000 1.000000 0.554862 -0.305627 0.773770
4459 1 13.439638 -7.853662 18.058378 0 1.000000 1.000000 1.000000 0.563310 -0.329129 0.757862
4460 1 14.073988 -7.788004 17.597543 0 1.000000 1.000000 1.000000 0.590802 -0.327076 0.737546
4461 1 14.287271 -8.372310 17.151278 0 1.000000 1.000000 1.000000 0.598878 -0.351143 0.719752
4462 1 14.906763 -8.293629 16.655029 0 1.000000 1.000000 1.000000 0.625671 -0.348027 0.698150
4463 1 15.105227 -8.873996 16.169620 0 1.000000 1.000000 1.000000 0.633222 -0.372398 0.678490
4464 1 15.704247 -8.780312 15.641489 0 1.000000 1.000000 1.000000 0.659037 -0.368234 0.655800
4465 1 15.883338 -9.352544 15.119920 0 1.000000 1.000000 1.000000 0.665917 -0.392624 0.634351
4466 1 16.456670 -9.242192 14.564578 0 1.000000 1.000000 1.000000 0.690492 -0.387463 0.610814
4467 1 16.612229 -9.802232 14.011041 0 1.000000 1.000000 1.000000 0.696566 -0.411574 0.587709
4468 1 17.155332 -9.673989 13.434120 0 1.000000 1.000000 1.000000 0.719672 -0.405497 0.563599
4469 1 17.283846 -10.218106 12.853851 0 1.000000 1.000000 1.000000 0.724831 -0.429036 0.539025
4470 1 17.793088 -10.071286 12.261673 0 1.000000 1.000000 1.000000 0.746281 -0.422154 0.514636
4471 1 17.891895 -10.596251 11.660696 0 1.000000 1.000000 1.000000 0.750444 -0.444845 0.488822
4472 1 18.364710 -10.430758 11.059952 0 1.000000 1.000000 1.000000 0.770105 -0.437291 0.464452
4473 1 18.432125 -10.933971 10.444764 0 1.000000 1.000000 1.000000 0.773222 -0.458893 0.437658
4474 1 18.867080 -10.750297 9.842158 0 1.000000 1.000000 1.000000 0.791016 -0.450815 0.413592
4475 1 18.902439 -11.229859 9.219381 0 1.000000 1.000000 1.000000 0.793072 -0.471130 0.386100
4476 1 19.299209 -11.029039 8.621303 0 1.000000 1.000000 1.000000 0.808980 -0.462680 0.362598
4477 1 19.302830 -11.483768 7.997359 0 1.000000 1.000000 1.000000 0.809990 -0.481559 0.334689
4478 1 11.483768 -7.997359 19.302830 0 1.000000 1.000000 1.000000 0.481559 -0.334689 0.809990
4479 1 12.142138 -7.958217 18.911863 0 1.000000 1.000000 1.000000 0.509610 -0.334686 0.792643
4480 1 12.355009 -8.550551 18.510750 0 1.000000 1.000000 1.000000 0.518052 -0.358168 0.776748
4481 1 13.009020 -8.500789 18.080369 0 1.000000 1.000000 1.000000 0.545978 -0.357161 0.757855
4482 1 13.213891 -9.093692 17.637454 0 1.000000 1.000000 1.000000 0.554046 -0.381199 0.740081
4483 1 13.857792 -9.030872 17.169199 0 1.000000 1.000000 1.000000 0.581564 -0.379144 0.719745
4484 1 14.050039 -9.620034 16.685743 0 1.000000 1.000000 1.000000 0.589108 -0.403487 0.700107
4485 1 14.677983 -9.541839 16.182413 0 1.000000 1.000000 1.000000 0.615927 -0.400367 0.678483
4486 1 14.852988 -10.122833 15.660977 0 1.000000 1.000000 1.000000 0.622801 -0.424738 0.657051
4487 1 15.459324 -10.027223 15.126615 0 1.000000 1.000000 1.000000 0.648635 -0.420571 0.634344
4488 1 15.612742 -10.595714 14.571047 0 1.000000 1.000000 1.000000 0.654708 -0.444675 0.611246
4489 1 16.192316 -10.481075 14.010816 0 1.000000 1.000000 1.000000 0.679289 -0.439513 0.587703
4490 1 16.320340 -11.033034 13.426129 0 1.000000 1.000000 1.000000 0.684450 -0.463057 0.563122
4491 1 16.868768 -10.898307 12.846086 0 1.000000 1.000000 1.000000 0.707549 -0.456982 0.539019
4492 1 16.968363 -11.430207 12.238228 0 1.000000 1.000000 1.000000 0.711715 -0.479689 0.513186
4493 1 17.482248 -11.274970 11.645016 0 1.000000 1.000000 1.000000 0.733148 -0.472814 0.488817
4494 1 17.551315 -11.783942 11.020559 0 1.000000 1.000000 1.000000 0.736268 -0.494437 0.461997
4495 1 18.028376 -11.608435 10.421051 0 1.000000 1.000000 1.000000 0.755906 -0.486893 0.437654
4496 1 18.065840 -12.092361 9.786835 0 1.000000 1.000000 1.000000 0.757964 -0.507228 0.410134
4497 1 18.504947 -11.897459 9.187771 0 1.000000 1.000000 1.000000 0.775738 -0.499160 0.386096
4498 1 18.510750 -12.355009 8.550551 0 1.000000 1.000000 1.000000 0.776748 -0.518052 0.358168
4499 1 18.911863 -12.142138 7.958217 0 1.000000 1.000000 1.000000 0.792643 -0.509610 0.334686
4500 1 18.886882 -12.572735 7.324341 0 1.000000 1.000000 1.000000 0.792651 -0.526955 0.306633
4501 1 10.361860 -8.642894 19.656332 0 1.000000 1.000000 1.000000 0.434817 -0.361667 0.824700
4502 1 11.029039 -8.621303 19.299209 0 1.000000 1.000000 1.000000 0.462680 -0.362598 0.808980
4503 1 11.229859 -9.219381 18.902439 0 1.000000 1.000000 1.000000 0.471130 -0.386100 0.793072
4504 1 11.897459 -9.187771 18.504947 0 1.000000 1.000000 1.000000 0.499160 -0.386096 0.775738
4505 1 12.092361 -9.786835 18.065840 0 1.000000 1.000000 1.000000 0.507228 -0.410134 0.757964
4506 1 12.754783 -9.742518 17.628729 0 1.000000 1.000000 1.000000 0.535154 -0.409126 0.739071
4507 1 12.939302 -10.338129 17.148088 0 1.000000 1.000000 1.000000 0.542695 -0.433460 0.719441
4508 1 13.590657 -10.278465 16.673357 0 1.000000 1.000000 1.000000 0.570223 -0.431403 0.699097
4509 1 13.760216 -10.866004 16.153290 0 1.000000 1.000000 1.000000 0.577095 -0.455761 0.677675
4510 1 14.394602 -10.788568 15.644239 0 1.000000 1.000000 1.000000 0.603925 -0.452640 0.656042
4511 1 14.544764 -11.363457 15.088188 0 1.000000 1.000000 1.000000 0.609997 -0.476736 0.632950
4512 1 15.156568 -11.266214 14.549359 0 1.000000 1.000000 1.000000 0.635837 -0.472569 0.610238
4513 1 15.283313 -11.824141 13.962027 0 1.000000 1.000000 1.000000 0.640998 -0.496112 0.585657
4514 1 15.867511 -11.705600 13.399029 0 1.000000 1.000000 1.000000 0.665579 -0.490951 0.562114
4515 1 15.967482 -12.242745 12.786183 0 1.000000 1.000000 1.000000 0.669746 -0.513664 0.536274
4516 1 16.519905 -12.102078 12.205426 0 1.000000 1.000000 1.000000 0.692838 -0.507591 0.512178
4517 1 16.590614 -12.615287 11.573609 0 1.000000 1.000000 1.000000 0.695960 -0.529224 0.485347
4518 1 17.108138 -12.452387 10.981954 0 1.000000 1.000000 1.000000 0.717382 -0.522352 0.460989
4519 1 17.148088 -12.939302 10.338129 0 1.000000 1.000000 1.000000 0.719441 -0.542695 0.433460
4520 1 17.628729 -12.754783 9.742518 0 1.000000 1.000000 1.000000 0.739071 -0.535154 0.409126
4521 1 17.637454 -13.213891 9.093692 0 1.000000 1.000000 1.000000 0.740081 -0.554046 0.381199
4522 1 18.080369 -13.009020 8.500789 0 1.000000 1.000000 1.000000 0.757855 -0.545978 0.357161
4523 1 18.058378 -13.439638 7.853662 0 1.000000 1.000000 1.000000 0.757862 -0.563310 0.329129
4524 1 18.463779 -13.216225 7.269548 0 1.000000 1.000000 1.000000 0.773770 -0.554862 0.305627
4525 1 18.412436 -13.618423 6.630227 0 1.000000 1.000000 1.000000 0.772844 -0.570579 0.277762
4526 1 9.218181 -9.255387 19.945231 0 1.000000 1.000000 1.000000 0.387190 -0.387335 0.836693
4527 1 9.887933 -9.252718 19.622696 0 1.000000 1.000000 1.000000 0.414543 -0.389106 0.822649
4528 1 10.075551 -9.853905 19.230215 0 1.000000 1.000000 1.000000 0.423013 -0.412664 0.806702
4529 1 10.750297 -9.842158 18.867080 0 1.000000 1.000000 1.000000 0.450815 -0.413592 0.791016
4530 1 10.933971 -10.444764 18.432125 0 1.000000 1.000000 1.000000 0.458893 -0.437658 0.773222
4531 1 11.608435 -10.421051 18.028376 0 1.000000 1.000000 1.000000 0.486893 -0.437654 0.755906
4532 1 11.783942 -11.020559 17.551315 0 1.000000 1.000000 1.000000 0.494437 -0.461997 0.736268
4533 1 12.452387 -10.981954 17.108138 0 1.000000 1.000000 1.000000 0.522352 -0.460989 0.717382
4534 1 12.615287 -11.573609 16.590614 0 1.000000 1.000000 1.000000 0.529224 -0.485347 0.695960
4535 1 13.271760 -11.517324 16.110497 0 1.000000 1.000000 1.000000 0.556752 -0.483290 0.675617
4536 1 13.417629 -12.096347 15.555507 0 1.000000 1.000000 1.000000 0.562823 -0.507383 0.652528
4537 1 14.056247 -12.019917 15.042250 0 1.000000 1.000000 1.000000 0.589657 -0.504261 0.630893
4538 1 14.180941 -12.581748 14.454114 0 1.000000 1.000000 1.000000 0.594818 -0.527803 0.606313
4539 1 14.796203 -12.483216 13.912721 0 1.000000 1.000000 1.000000 0.620659 -0.523636 0.583599
4540 1 14.896121 -13.023753 13.296929 0 1.000000 1.000000 1.000000 0.624826 -0.546350 0.557758
4541 1 15.483201 -12.901823 12.733390 0 1.000000 1.000000 1.000000 0.649406 -0.541188 0.534216
4542 1 15.555507 -13.417629 12.096347 0 1.000000 1.000000 1.000000 0.652528 -0.562823 0.507383
4543 1 16.110497 -13.271760 11.517324 0 1.000000 1.000000 1.000000 0.675617 -0.556752 0.483290
4544 1 16.153290 -13.760216 10.866004 0 1.000000 1.000000 1.000000 0.677675 -0.577095 0.455761
4545 1 16.673357 -13.590657 10.278465 0 1.000000 1.000000 1.000000 0.699097 -0.570223 0.431403
4546 1 16.685743 -14.050039 9.620034 0 1.000000 1.000000 1.000000 0.700107 -0.589108 0.403487
4547 1 17.169199 -13.857792 9.030872 0 1.000000 1.000000 1.000000 0.719745 -0.581564 0.379144
4548 1 17.151278 -14.287271 8.372310 0 1.000000 1.000000 1.000000 0.719752 -0.598878 0.351143
4549 1 17.597543 -14.073988 7.788004 0 1.000000 1.000000 1.000000 0.737546 -0.590802 0.327076
4550 1 17.550322 -14.473567 7.135781 0 1.000000 1.000000 1.000000 0.736622 -0.606485 0.299273
4551 1 17.959814 -14.241415 6.562118 0 1.000000 1.000000 1.000000 0.752568 -0.598017 0.275713
4552 1 17.885050 -14.611806 5.921943 0 1.000000 1.000000 1.000000 0.750801 -0.612059 0.248358
4553 1 8.064191 -9.830348 20.169210 0 1.000000 1.000000 1.000000 0.339147 -0.411499 0.845960
4554 1 8.730403 -9.847379 19.881060 0 1.000000 1.000000 1.000000 0.365693 -0.413998 0.833591
4555 1 8.904067 -10.448982 19.492748 0 1.000000 1.000000 1.000000 0.374196 -0.437643 0.817585
4556 1 9.579462 -10.458177 19.164438 0 1.000000 1.000000 1.000000 0.401452 -0.439408 0.803590
4557 1 9.750997 -11.061619 18.733889 0 1.000000 1.000000 1.000000 0.409548 -0.463526 0.785757
4558 1 10.430758 -11.059952 18.364710 0 1.000000 1.000000 1.000000 0.437291 -0.464452 0.770105
4559 1 10.596251 -11.660696 17.891895 0 1.000000 1.000000 1.000000 0.444845 -0.488822 0.750444
4560 1 11.274970 -11.645016 17.482248 0 1.000000 1.000000 1.000000 0.472814 -0.488817 0.733148
4561 1 11.430207 -12.238228 16.968363 0 1.000000 1.000000 1.000000 0.479689 -0.513186 0.711715
4562 1 12.102078 -12.205426 16.519905 0 1.000000 1.000000 1.000000 0.507591 -0.512178 0.692838
4563 1 12.242745 -12.786183 15.967482 0 1.000000 1.000000 1.000000 0.513664 -0.536274 0.669746
4564 1 12.901823 -12.733390 15.483201 0 1.000000 1.000000 1.000000 0.541188 -0.534216 0.649406
4565 1 13.023753 -13.296929 14.896121 0 1.000000 1.000000 1.000000 0.546350 -0.557758 0.624826
4566 1 13.664254 -13.221718 14.380292 0 1.000000 1.000000 1.000000 0.573183 -0.554636 0.603192
4567 1 13.763686 -13.763686 13.763686 0 1.000000 1.000000 1.000000 0.577350 -0.577350 0.577350
4568 1 14.380292 -13.664254 13.221718 0 1.000000 1.000000 1.000000 0.603192 -0.573183 0.554636
4569 1 14.454114 -14.180941 12.581748 0 1.000000 1.000000 1.000000 0.606313 -0.594818 0.527803
4570 1 15.042250 -14.056247 12.019917 0 1.000000 1.000000 1.000000 0.630893 -0.589657 0.504261
4571 1 15.088188 -14.544764 11.363457 0 1.000000 1.000000 1.000000 0.632950 -0.609997 0.476736
4572 1 15.644239 -14.394602 10.788568 0 1.000000 1.000000 1.000000 0.656042 -0.603925 0.452640
4573 1 15.660977 -14.852988 10.122833 0 1.000000 1.000000 1.000000 0.657051 -0.622801 0.424738
4574 1 16.182413 -14.677983 9.541839 0 1.000000 1.000000 1.000000 0.678483 -0.615927 0.400367
4575 1 16.169620 -15.105227 8.873996 0 1.000000 1.000000 1.000000 0.678490 -0.633222 0.372398
4576 1 16.655029 -14.906763 8.293629 0 1.000000 1.000000 1.000000 0.698150 -0.625671 0.348027
4577 1 16.613304 -15.302758 7.630441 0 1.000000 1.000000 1.000000 0.697227 -0.641321 0.320283
4578 1 17.062333 -15.082845 7.056899 0 1.000000 1.000000 1.000000 0.715060 -0.633228 0.296162
4579 1 16.993085 -15.448270 6.404442 0 1.000000 1.000000 1.000000 0.713299 -0.647221 0.268905
4580 1 17.406310 -15.209384 5.843149 0 1.000000 1.000000 1.000000 0.729304 -0.638722 0.245257
4581 1 17.311585 -15.545551 5.206613 0 1.000000 1.000000 1.000000 0.726809 -0.651087 0.218709
4582 1 6.911100 -10.364489 20.329695 0 1.000000 1.000000 1.000000 0.291147 -0.434015 0.852563
4583 1 7.568055 -10.401400 20.074868 0 1.000000 1.000000 1.000000 0.316628 -0.437117 0.841828
4584 1 7.727416 -11.000770 19.690582 0 1.000000 1.000000 1.000000 0.325171 -0.460871 0.825749
4585 1 8.397215 -11.031322 19.396613 0 1.000000 1.000000 1.000000 0.351594 -0.463357 0.813438
4586 1 8.556070 -11.632912 18.970663 0 1.000000 1.000000 1.000000 0.359714 -0.487545 0.795553
4587 1 9.234456 -11.654014 18.636249 0 1.000000 1.000000 1.000000 0.386890 -0.489304 0.781600
4588 1 9.389253 -12.253324 18.168263 0 1.000000 1.000000 1.000000 0.394457 -0.513713 0.761907
4589 1 10.071286 -12.261673 17.793088 0 1.000000 1.000000 1.000000 0.422154 -0.514636 0.746281
4590 1 10.218106 -12.853851 17.283846 0 1.000000 1.000000 1.000000 0.429036 -0.539025 0.724831
4591 1 10.898307 -12.846086 16.868768 0 1.000000 1.000000 1.000000 0.456982 -0.539019 0.707549
4592 1 11.033034 -13.426129 16.320340 0 1.000000 1.000000 1.000000 0.463057 -0.563122 0.684450
4593 1 11.705600 -13.399029 15.867511 0 1.000000 1.000000 1.000000 0.490951 -0.562114 0.665579
4594 1 11.824141 -13.962027 15.283313 0 1.000000 1.000000 1.000000 0.496112 -0.585657 0.640998
4595 1 12.483216 -13.912721 14.796203 0 1.000000 1.000000 1.000000 0.523636 -0.583599 0.620659
4596 1 12.581748 -14.454114 14.180941 0 1.000000 1.000000 1.000000 0.527803 -0.606313 0.594818
4597 1 13.221718 -14.380292 13.664254 0 1.000000 1.000000 1.000000 0.554636 -0.603192 0.573183
4598 1 13.296929 -14.896121 13.023753 0 1.000000 1.000000 1.000000 0.557758 -0.624826 0.546350
4599 1 13.912721 -14.796203 12.483216 0 1.000000 1.000000 1.000000 0.583599 -0.620659 0.523636
4600 1 13.962027 -15.283313 11.824141 0 1.000000 1.000000 1.000000 0.585657 -0.640998 0.496112
4601 1 14.549359 -15.156568 11.266214 0 1.000000 1.000000 1.000000 0.610238 -0.635837 0.472569
4602 1 14.571047 -15.612742 10.595714 0 1.000000 1.000000 1.000000 0.611246 -0.654708 0.444675
4603 1 15.126615 -15.459324 10.027223 0 1.000000 1.000000 1.000000 0.634344 -0.648635 0.420571
4604 1 15.119920 -15.883338 9.352544 0 1.000000 1.000000 1.000000 0.634351 -0.665917 0.392624
4605 1 15.641489 -15.704247 8.780312 0 1.000000 1.000000 1.000000 0.655800 -0.659037 0.368234
4606 1 15.606575 -16.095840 8.108425 0 1.000000 1.000000 1.000000 0.654878 -0.674662 0.340537
4607 1 16.092982 -15.892816 7.538921 0 1.000000 1.000000 1.000000 0.674569 -0.667099 0.316125
4608 1 16.030856 -16.252584 6.876205 0 1.000000 1.000000 1.000000 0.672814 -0.681051 0.288948
4609 1 16.481931 -16.027951 6.315267 0 1.000000 1.000000 1.000000 0.690697 -0.672935 0.264757
4610 1 16.394299 -16.357199 5.667271 0 1.000000 1.000000 1.000000 0.688214 -0.685243 0.238334
4611 1 16.810727 -16.113685 5.119910 0 1.000000 1.000000 1.000000 0.704291 -0.676706 0.214577
4612 1 16.699815 -16.414248 4.491220 0 1.000000 1.000000 1.000000 0.701194 -0.687438 0.189094
4613 1 5.769390 -10.855775 20.429642 0 1.000000 1.000000 1.000000 0.243620 -0.454789 0.856631
4614 1 6.411984 -10.912179 20.206355 0 1.000000 1.000000 1.000000 0.267825 -0.458363 0.847451
4615 1 6.557073 -11.506805 19.825966 0 1.000000 1.000000 1.000000 0.276411 -0.482235 0.831292
4616 1 7.215549 -11.558486 19.565021 0 1.000000 1.000000 1.000000 0.301753 -0.485318 0.820616
4617 1 7.361550 -12.155653 19.143829 0 1.000000 1.000000 1.000000 0.309901 -0.509583 0.802675
4618 1 8.032271 -12.199528 18.843440 0 1.000000 1.000000 1.000000 0.336233 -0.512060 0.790406
4619 1 8.176017 -12.794825 18.380795 0 1.000000 1.000000 1.000000 0.343814 -0.536514 0.770678
4620 1 8.854612 -12.827518 18.040032 0 1.000000 1.000000 1.000000 0.370937 -0.538268 0.756752
4621 1 8.992529 -13.416136 17.536342 0 1.000000 1.000000 1.000000 0.377825 -0.562678 0.735284
4622 1 9.673989 -13.434120 17.155332 0 1.000000 1.000000 1.000000 0.405497 -0.563599 0.719672
4623 1 9.802232 -14.011041 16.612229 0 1.000000 1.000000 1.000000 0.411574 -0.587709 0.696566
4624 1 10.481075 -14.010816 16.192316 0 1.000000 1.000000 1.000000 0.439513 -0.587703 0.679289
4625 1 10.595714 -14.571047 15.612742 0 1.000000 1.000000 1.000000 0.444675 -0.611246 0.654708
4626 1 11.266214 -14.549359 15.156568 0 1.000000 1.000000 1.000000 0.472569 -0.610238 0.635837
4627 1 11.363457 -15.088188 14.544764 0 1.000000 1.000000 1.000000 0.476736 -0.632950 0.609997
4628 1 12.019917 -15.042250 14.056247 0 1.000000 1.000000 1.000000 0.504261 -0.630893 0.589657
4629 1 12.096347 -15.555507 13.417629 0 1.000000 1.000000 1.000000 0.507383 -0.652528 0.562823
4630 1 12.733390 -15.483201 12.901823 0 1.000000 1.000000 1.000000 0.534216 -0.649406 0.541188
4631 1 12.786183 -15.967482 12.242745 0 1.000000 1.000000 1.000000 0.536274 -0.669746 0.513664
4632 1 13.399029 -15.867511 11.705600 0 1.000000 1.000000 1.000000 0.562114 -0.665579 0.490951
4633 1 13.426129 -16.320340 11.033034 0 1.000000 1.000000 1.000000 0.563122 -0.684450 0.463057
4634 1 14.010816 -16.192316 10.481075 0 1.000000 1.000000 1.000000 0.587703 -0.679289 0.439513
4635 1 14.011041 -16.612229 9.802232 0 1.000000 1.000000 1.000000 0.587709 -0.696566 0.411574
4636 1 14.564578 -16.456670 9.242192 0 1.000000 1.000000 1.000000 0.610814 -0.690492 0.387463
4637 1 14.537649 -16.843209 8.564149 0 1.000000 1.000000 1.000000 0.609893 -0.706103 0.359791
4638 1 15.058077 -16.661471 8.002615 0 1.000000 1.000000 1.000000 0.631359 -0.699218 0.335379
4639 1 15.004566 -17.015100 7.331971 0 1.000000 1.000000 1.000000 0.629607 -0.713144 0.308255
4640 1 15.490938 -16.809237 6.775065 0 1.000000 1.000000 1.000000 0.649333 -0.705567 0.283799
4641 1 15.412155 -17.131201 6.117677 0 1.000000 1.000000 1.000000 0.646858 -0.717834 0.257466
4642 1 15.864440 -16.903794 5.570821 0 1.000000 1.000000 1.000000 0.664797 -0.709692 0.233199
4643 1 15.762282 -17.195937 4.931625 0 1.000000 1.000000 1.000000 0.661716 -0.720367 0.207855
4644 1 16.181228 -16.949904 4.399386 0 1.000000 1.000000 1.000000 0.677872 -0.711787 0.183980
4645 1 16.058003 -17.214487 3.782316 0 1.000000 1.000000 1.000000 0.674301 -0.720965 0.159774
4646 1 4.648437 -11.303369 20.473242 0 1.000000 1.000000 1.000000 0.196950 -0.473773 0.858341
4647 1 5.272327 -11.378391 20.279167 0 1.000000 1.000000 1.000000 0.219716 -0.477692 0.850609
4648 1 5.403509 -11.965974 19.902584 0 1.000000 1.000000 1.000000 0.228344 -0.501678 0.834373
4649 1 6.045662 -12.037983 19.672670 0 1.000000 1.000000 1.000000 0.252410 -0.505231 0.825246
4650 1 6.178962 -12.628357 19.256388 0 1.000000 1.000000 1.000000 0.260583 -0.529568 0.807251
4651 1 6.836373 -12.694347 18.988492 0 1.000000 1.000000 1.000000 0.285837 -0.532641 0.796612
4652 1 6.969020 -13.283231 18.531640 0 1.000000 1.000000 1.000000 0.293431 -0.557134 0.776853
4653 1 7.637942 -13.339834 18.224332 0 1.000000 1.000000 1.000000 0.319715 -0.559606 0.764607
4654 1 7.766737 -13.922521 17.727005 0 1.000000 1.000000 1.000000 0.326608 -0.584030 0.743126
4655 1 8.442728 -13.966129 17.379779 0 1.000000 1.000000 1.000000 0.353714 -0.585782 0.729209
4656 1 8.564149 -14.537649 16.843209 0 1.000000 1.000000 1.000000 0.359791 -0.609893 0.706103
4657 1 9.242192 -14.564578 16.456670 0 1.000000 1.000000 1.000000 0.387463 -0.610814 0.690492
4658 1 9.352544 -15.119920 15.883338 0 1.000000 1.000000 1.000000 0.392624 -0.634351 0.665917
4659 1 10.027223 -15.126615 15.459324 0 1.000000 1.000000 1.000000 0.420571 -0.634344 0.648635
4660 1 10.122833 -15.660977 14.852988 0 1.000000 1.000000 1.000000 0.424738 -0.657051 0.622801
4661 1 10.788568 -15.644239 14.394602 0 1.000000 1.000000 1.000000 0.452640 -0.656042 0.603925
4662 1 10.866004 -16.153290 13.760216 0 1.000000 1.000000 1.000000 0.455761 -0.677675 0.577095
4663 1 11.517324 -16.110497 13.271760 0 1.000000 1.000000 1.000000 0.483290 -0.675617 0.556752
4664 1 11.573609 -16.590614 12.615287 0 1.000000 1.000000 1.000000 0.485347 -0.695960 0.529224
4665 1 12.205426 -16.519905 12.102078 0 1.000000 1.000000 1.000000 0.512178 -0.692838 0.507591
4666 1 12.238228 -16.968363 11.430207 0 1.000000 1.000000 1.000000 0.513186 -0.711715 0.479689
4667 1 12.846086 -16.868768 10.898307 0 1.000000 1.000000 1.000000 0.539019 -0.707549 0.456982
4668 1 12.853851 -17.283846 10.218106 0 1.000000 1.000000 1.000000 0.539025 -0.724831 0.429036
4669 1 13.434120 -17.155332 9.673989 0 1.000000 1.000000 1.000000 0.563599 -0.719672 0.405497
4670 1 13.416136 -17.536342 8.992529 0 1.000000 1.000000 1.000000 0.562678 -0.735284 0.377825
4671 1 13.966129 -17.379779 8.442728 0 1.000000 1.000000 1.000000 0.585782 -0.729209 0.353714
4672 1 13.922521 -17.727005 7.766737 0 1.000000 1.000000 1.000000 0.584030 -0.743126 0.326608
4673 1 14.440529 -17.544065 7.217514 0 1.000000 1.000000 1.000000 0.605510 -0.736236 0.302181
4674 1 14.372178 -17.858634 6.553080 0 1.000000 1.000000 1.000000 0.603039 -0.748482 0.275897
4675 1 14.857431 -17.651633 6.010149 0 1.000000 1.000000 1.000000 0.622796 -0.740893 0.251401
4676 1 14.765849 -17.935345 5.362513 0 1.000000 1.000000 1.000000 0.619726 -0.751531 0.226146
4677 1 15.218414 -17.707056 4.830845 0 1.000000 1.000000 1.000000 0.637718 -0.743364 0.201804
4678 1 15.105594 -17.962192 4.204281 0 1.000000 1.000000 1.000000 0.634167 -0.752490 0.177738
4679 1 15.526237 -17.715657 3.687990 0 1.000000 1.000000 1.000000 0.650400 -0.743869 0.153748
4680 1 15.394486 -17.944793 3.085769 0 1.000000 1.000000 1.000000 0.646484 -0.751600 0.130981
4681 1 3.556247 -11.707519 20.465585 0 1.000000 1.000000 1.000000 0.151466 -0.490967 0.857910
4682 1 4.157938 -11.799888 20.298022 0 1.000000 1.000000 1.000000 0.172683 -0.495109 0.851497
4683 1 4.275849 -12.378402 19.925213 0 1.000000 1.000000 1.000000 0.181348 -0.519194 0.835195
4684 1 4.897530 -12.469465 19.723851 0 1.000000 1.000000 1.000000 0.203990 -0.523091 0.827504
4685 1 5.018563 -13.050941 19.312634 0 1.000000 1.000000 1.000000 0.212183 -0.547486 0.809467
4686 1 5.657843 -13.137824 19.075084 0 1.000000 1.000000 1.000000 0.236177 -0.551028 0.800368
4687 1 5.779615 -13.718148 18.624432 0 1.000000 1.000000 1.000000 0.243779 -0.575546 0.780589
4688 1 6.433381 -13.797566 18.348883 0 1.000000 1.000000 1.000000 0.269003 -0.578614 0.769963
4689 1 6.553080 -14.372178 17.858634 0 1.000000 1.000000 1.000000 0.275897 -0.603039 0.748482
4690 1 7.217514 -14.440529 17.544065 0 1.000000 1.000000 1.000000 0.302181 -0.605510 0.736236
4691 1 7.331971 -15.004566 17.015100 0 1.000000 1.000000 1.000000 0.308255 -0.629607 0.713144
4692 1 8.002615 -15.058077 16.661471 0 1.000000 1.000000 1.000000 0.335379 -0.631359 0.699218
4693 1 8.108425 -15.606575 16.095840 0 1.000000 1.000000 1.000000 0.340537 -0.654878 0.674662
4694 1 8.780312 -15.641489 15.704247 0 1.000000 1.000000 1.000000 0.368234 -0.655800 0.659037
4695 1 8.873996 -16.169620 15.105227 0 1.000000 1.000000 1.000000 0.372398 -0.678490 0.633222
4696 1 9.541839 -16.182413 14.677983 0 1.000000 1.000000 1.000000 0.400367 -0.678483 0.615927
4697 1 9.620034 -16.685743 14.050039 0 1.000000 1.000000 1.000000 0.403487 -0.700107 0.589108
4698 1 10.278465 -16.673357 13.590657 0 1.000000 1.000000 1.000000 0.431403 -0.699097 0.570223
4699 1 10.338129 -17.148088 12.939302 0 1.000000 1.000000 1.000000 0.433460 -0.719441 0.542695
4700 1 10.981954 -17.108138 12.452387 0 1.000000 1.000000 1.000000 0.460989 -0.717382 0.522352
4701 1 11.020559 -17.551315 11.783942 0 1.000000 1.000000 1.000000 0.461997 -0.736268 0.494437
4702 1 11.645016 -17.482248 11.274970 0 1.000000 1.000000 1.000000 0.488817 -0.733148 0.472814
4703 1 11.660696 -17.891895 10.596251 0 1.000000 1.000000 1.000000 0.488822 -0.750444 0.444845
4704 1 12.261673 -17.793088 10.071286 0 1.000000 1.000000 1.000000 0.514636 -0.746281 0.422154
4705 1 12.253324 -18.168263 9.389253 0 1.000000 1.000000 1.000000 0.513713 -0.761907 0.394457
4706 1 12.827518 -18.040032 8.854612 0 1.000000 1.000000 1.000000 0.538268 -0.756752 0.370937
4707 1 12.794825 -18.380795 8.176017 0 1.000000 1.000000 1.000000 0.536514 -0.770678 0.343814
4708 1 13.339834 -18.224332 7.637942 0 1.000000 1.000000 1.000000 0.559606 -0.764607 0.319715
4709 1 13.283231 -18.531640 6.969020 0 1.000000 1.000000 1.000000 0.557134 -0.776853 0.293431
4710 1 13.797566 -18.348883 6.433381 0 1.000000 1.000000 1.000000 0.578614 -0.769963 0.269003
4711 1 13.718148 -18.624432 5.779615 0 1.000000 1.000000 1.000000 0.575546 -0.780589 0.243779
4712 1 14.201178 -18.417896 5.251678 0 1.000000 1.000000 1.000000 0.595322 -0.772992 0.219258
4713 1 14.100568 -18.663929 4.617641 0 1.000000 1.000000 1.000000 0.591781 -0.782091 0.195263
4714 1 14.552419 -18.436515 4.101912 0 1.000000 1.000000 1.000000 0.609816 -0.773906 0.170864
4715 1 14.432624 -18.655634 3.491206 0 1.000000 1.000000 1.000000 0.605921 -0.781595 0.148221
4716 1 14.854048 -18.410448 2.991353 0 1.000000 1.000000 1.000000 0.622220 -0.772938 0.124131
4717 1 14.717307 -18.605434 2.406611 0 1.000000 1.000000 1.000000 0.618080 -0.779350 0.102913
4718 1 2.499330 -12.069387 20.412309 0 1.000000 1.000000 1.000000 0.107435 -0.506408 0.855575
4719 1 3.076190 -12.177544 20.268368 0 1.000000 1.000000 1.000000 0.127041 -0.510664 0.850343
4720 1 3.181665 -12.745268 19.899363 0 1.000000 1.000000 1.000000 0.135732 -0.534823 0.833991
4721 1 3.779632 -12.853757 19.723771 0 1.000000 1.000000 1.000000 0.156856 -0.538946 0.827607
4722 1 3.889049 -13.424535 19.317790 0 1.000000 1.000000 1.000000 0.165060 -0.563374 0.809546
4723 1 4.506299 -13.530656 19.108015 0 1.000000 1.000000 1.000000 0.187661 -0.567263 0.801870
4724 1 4.617641 -14.100568 18.663929 0 1.000000 1.000000 1.000000 0.195263 -0.591781 0.782091
4725 1 5.251678 -14.201178 18.417896 0 1.000000 1.000000 1.000000 0.219258 -0.595322 0.772992
4726 1 5.362513 -14.765849 17.935345 0 1.000000 1.000000 1.000000 0.226146 -0.619726 0.751531
4727 1 6.010149 -14.857431 17.651633 0 1.000000 1.000000 1.000000 0.251401 -0.622796 0.740893
4728 1 6.117677 -15.412155 17.131201 0 1.000000 1.000000 1.000000 0.257466 -0.646858 0.717834
4729 1 6.775065 -15.490938 16.809237 0 1.000000 1.000000 1.000000 0.283799 -0.649333 0.705567
4730 1 6.876205 -16.030856 16.252584 0 1.000000 1.000000 1.000000 0.288948 -0.672814 0.681051
4731 1 7.538921 -16.092982 15.892816 0 1.000000 1.000000 1.000000 0.316125 -0.674569 0.667099
4732 1 7.630441 -16.613304 15.302758 0 1.000000 1.000000 1.000000 0.320283 -0.697227 0.641321
4733 1 8.293629 -16.655029 14.906763 0 1.000000 1.000000 1.000000 0.348027 -0.698150 0.625671
4734 1 8.372310 -17.151278 14.287271 0 1.000000 1.000000 1.000000 0.351143 -0.719752 0.598878
4735 1 9.030872 -17.169199 13.857792 0 1.000000 1.000000 1.000000 0.379144 -0.719745 0.581564
4736 1 9.093692 -17.637454 13.213891 0 1.000000 1.000000 1.000000 0.381199 -0.740081 0.554046
4737 1 9.742518 -17.628729 12.754783 0 1.000000 1.000000 1.000000 0.409126 -0.739071 0.535154
4738 1 9.786835 -18.065840 12.092361 0 1.000000 1.000000 1.000000 0.410134 -0.757964 0.507228
4739 1 10.421051 -18.028376 11.608435 0 1.000000 1.000000 1.000000 0.437654 -0.755906 0.486893
4740 1 10.444764 -18.432125 10.933971 0 1.000000 1.000000 1.000000 0.437658 -0.773222 0.458893
4741 1 11.059952 -18.364710 10.430758 0 1.000000 1.000000 1.000000 0.464452 -0.770105 0.437291
4742 1 11.061619 -18.733889 9.750997 0 1.000000 1.000000 1.000000 0.463526 -0.785757 0.409548
4743 1 11.654014 -18.636249 9.234456 0 1.000000 1.000000 1.000000 0.489304 -0.781600 0.386890
4744 1 11.632912 -18.970663 8.556070 0 1.000000 1.000000 1.000000 0.487545 -0.795553 0.359714
4745 1 12.199528 -18.843440 8.032271 0 1.000000 1.000000 1.000000 0.512060 -0.790406 0.336233
4746 1 12.155653 -19.143829 7.361550 0 1.000000 1.000000 1.000000 0.509583 -0.802675 0.309901
4747 1 12.694347 -18.988492 6.836373 0 1.000000 1.000000 1.000000 0.532641 -0.796612 0.285837
4748 1 12.628357 -19.256388 6.178962 0 1.000000 1.000000 1.000000 0.529568 -0.807251 0.260583
4749 1 13.137824 -19.075084 5.657843 0 1.000000 1.000000 1.000000 0.551028 -0.800368 0.236177
4750 1 13.050941 -19.312634 5.018563 0 1.000000 1.000000 1.000000 0.547486 -0.809467 0.212183
4751 1 13.530656 -19.108015 4.506299 0 1.000000 1.000000 1.000000 0.567263 -0.801870 0.187661
4752 1 13.424535 -19.317790 3.889049 0 1.000000 1.000000 1.000000 0.563374 -0.809546 0.165060
4753 1 13.874652 -19.092823 3.389685 0 1.000000 1.000000 1.000000 0.581433 -0.801349 0.140627
4754 1 13.751250 -19.277632 2.797414 0 1.000000 1.000000 1.000000 0.577310 -0.807733 0.119504
4755 1 14.172481 -19.035429 2.314192 0 1.000000 1.000000 1.000000 0.593659 -0.799049 0.095340
4756 1 14.033924 -19.198158 1.748944 0 1.000000 1.000000 1.000000 0.589404 -0.804281 0.075733
4757 1 1.482677 -12.390854 20.319294 0 1.000000 1.000000 1.000000 0.065062 -0.520164 0.851585
4758 1 2.032898 -12.513059 20.196041 0 1.000000 1.000000 1.000000 0.083038 -0.524438 0.847390
4759 1 2.126904 -13.068592 19.830928 0 1.000000 1.000000 1.000000 0.091744 -0.548637 0.831012
4760 1 2.698810 -13.192644 19.678191 0 1.000000 1.000000 1.000000 0.111299 -0.552881 0.825794
4761 1 2.797414 -13.751250 19.277632 0 1.000000 1.000000 1.000000 0.119504 -0.577310 0.807733
4762 1 3.389685 -13.874652 19.092823 0 1.000000 1.000000 1.000000 0.140627 -0.581433 0.801349
4763 1 3.491206 -14.432624 18.655634 0 1.000000 1.000000 1.000000 0.148221 -0.605921 0.781595
4764 1 4.101912 -14.552419 18.436515 0 1.000000 1.000000 1.000000 0.170864 -0.609816 0.773906
4765 1 4.204281 -15.105594 17.962192 0 1.000000 1.000000 1.000000 0.177738 -0.634167 0.752490
4766 1 4.830845 -15.218414 17.707056 0 1.000000 1.000000 1.000000 0.201804 -0.637718 0.743364
4767 1 4.931625 -15.762282 17.195937 0 1.000000 1.000000 1.000000 0.207855 -0.661716 0.720367
4768 1 5.570821 -15.864440 16.903794 0 1.000000 1.000000 1.000000 0.233199 -0.664797 0.709692
4769 1 5.667271 -16.394299 16.357199 0 1.000000 1.000000 1.000000 0.238334 -0.688214 0.685243
4770 1 6.315267 -16.481931 16.027951 0 1.000000 1.000000 1.000000 0.264757 -0.690697 0.672935
4771 1 6.404442 -16.993085 15.448270 0 1.000000 1.000000 1.000000 0.268905 -0.713299 0.647221
4772 1 7.056899 -17.062333 15.082845 0 1.000000 1.000000 1.000000 0.296162 -0.715060 0.633228
4773 1 7.135781 -17.550322 14.473567 0 1.000000 1.000000 1.000000 0.299273 -0.736622 0.606485
4774 1 7.788004 -17.597543 14.073988 0 1.000000 1.000000 1.000000 0.327076 -0.737546 0.590802
4775 1 7.853662 -18.058378 13.439638 0 1.000000 1.000000 1.000000 0.329129 -0.757862 0.563310
4776 1 8.500789 -18.080369 13.009020 0 1.000000 1.000000 1.000000 0.357161 -0.757855 0.545978
4777 1 8.550551 -18.510750 12.355009 0 1.000000 1.000000 1.000000 0.358168 -0.776748 0.518052
4778 1 9.187771 -18.504947 11.897459 0 1.000000 1.000000 1.000000 0.386096 -0.775738 0.499160
4779 1 9.219381 -18.902439 11.229859 0 1.000000 1.000000 1.000000 0.386100 -0.793072 0.471130
4780 1 9.842158 -18.867080 10.750297 0 1.000000 1.000000 1.000000 0.413592 -0.791016 0.450815
4781 1 9.853905 -19.230215 10.075551 0 1.000000 1.000000 1.000000 0.412664 -0.806702 0.423013
4782 1 10.458177 -19.164438 9.579462 0 1.000000 1.000000 1.000000 0.439408 -0.803590 0.401452
4783 1 10.448982 -19.492748 8.904067 0 1.000000 1.000000 1.000000 0.437643 -0.817585 0.374196
4784 1 11.031322 -19.396613 8.397215 0 1.000000 1.000000 1.000000 0.463357 -0.813438 0.351594
4785 1 11.000770 -19.690582 7.727416 0 1.000000 1.000000 1.000000 0.460871 -0.825749 0.325171
4786 1 11.558486 -19.565021 7.215549 0 1.000000 1.000000 1.000000 0.485318 -0.820616 0.301753
4787 1 11.506805 -19.825966 6.557073 0 1.000000 1.000000 1.000000 0.482235 -0.831292 0.276411
4788 1 12.037983 -19.672670 6.045662 0 1.000000 1.000000 1.000000 0.505231 -0.825246 0.252410
4789 1 11.965974 -19.902584 5.403509 0 1.000000 1.000000 1.000000 0.501678 -0.834373 0.228344
4790 1 12.469465 -19.723851 4.897530 0 1.000000 1.000000 1.000000 0.523091 -0.827504 0.203990
4791 1 12.378402 -19.925213 4.275849 0 1.000000 1.000000 1.000000 0.519194 -0.835195 0.181348
4792 1 12.853757 -19.723771 3.779632 0 1.000000 1.000000 1.000000 0.538946 -0.827607 0.156856
4793 1 12.745268 -19.899363 3.181665 0 1.000000 1.000000 1.000000 0.534823 -0.833991 0.135732
4794 1 13.192644 -19.678191 2.698810 0 1.000000 1.000000 1.000000 0.552881 -0.825794 0.111299
4795 1 13.068592 -19.830928 2.126904 0 1.000000 1.000000 1.000000 0.548637 -0.831012 0.091744
4796 1 13.488641 -19.593098 1.660259 0 1.000000 1.000000 1.000000 0.565012 -0.822314 0.067540
4797 1 13.351008 -19.725886 1.115930 0 1.000000 1.000000 1.000000 0.560738 -0.826508 0.049563
4798 1 0.509831 -12.674323 20.192393 0 1.000000 1.000000 1.000000 0.024494 -0.532327 0.846185
4799 1 1.032354 -12.808754 20.086969 0 1.000000 1.000000 1.000000 0.040856 -0.536538 0.842886
4800 1 1.115930 -13.351008 19.725886 0 1.000000 1.000000 1.000000 0.049563 -0.560738 0.826508
4801 1 1.660259 -13.488641 19.593098 0 1.000000 1.000000 1.000000 0.067540 -0.565012 0.822314
4802 1 1.748944 -14.033924 19.198158 0 1.000000 1.000000 1.000000 0.075733 -0.589404 0.804281
4803 1 2.314192 -14.172481 19.035429 0 1.000000 1.000000 1.000000 0.095340 -0.593659 0.799049
4804 1 2.406611 -14.717307 18.605434 0 1.000000 1.000000 1.000000 0.102913 -0.618080 0.779350
4805 1 2.991353 -14.854048 18.410448 0 1.000000 1.000000 1.000000 0.124131 -0.622220 0.772938
4806 1 3.085769 -15.394486 17.944793 0 1.000000 1.000000 1.000000 0.130981 -0.646484 0.751600
4807 1 3.687990 -15.526237 17.715657 0 1.000000 1.000000 1.000000 0.153748 -0.650400 0.743869
4808 1 3.782316 -16.058003 17.214487 0 1.000000 1.000000 1.000000 0.159774 -0.674301 0.720965
4809 1 4.399386 -16.181228 16.949904 0 1.000000 1.000000 1.000000 0.183980 -0.677872 0.711787
4810 1 4.491220 -16.699815 16.414248 0 1.000000 1.000000 1.000000 0.189094 -0.701194 0.687438
4811 1 5.119910 -16.810727 16.113685 0 1.000000 1.000000 1.000000 0.214577 -0.704291 0.676706
4812 1 5.206613 -17.311585 15.545551 0 1.000000 1.000000 1.000000 0.218709 -0.726809 0.651087
4813 1 5.843149 -17.406310 15.209384 0 1.000000 1.000000 1.000000 0.245257 -0.729304 0.638722
4814 1 5.921943 -17.885050 14.611806 0 1.000000 1.000000 1.000000 0.248358 -0.750801 0.612059
4815 1 6.562118 -17.959814 14.241415 0 1.000000 1.000000 1.000000 0.275713 -0.752568 0.598017
4816 1 6.630227 -18.412436 13.618423 0 1.000000 1.000000 1.000000 0.277762 -0.772844 0.570579
4817 1 7.269548 -18.463779 13.216225 0 1.000000 1.000000 1.000000 0.305627 -0.773770 0.554862
4818 1 7.324341 -18.886882 12.572735 0 1.000000 1.000000 1.000000 0.306633 -0.792651 0.526955
4819 1 7.958217 -18.911863 12.142138 0 1.000000 1.000000 1.000000 0.334686 -0.792643 0.509610
4820 1 7.997359 -19.302830 11.483768 0 1.000000 1.000000 1.000000 0.334689 -0.809990 0.481559
4821 1 8.621303 -19.299209 11.029039 0 1.000000 1.000000 1.000000 0.362598 -0.808980 0.462680
4822 1 8.642894 -19.656332 10.361860 0 1.000000 1.000000 1.000000 0.361667 -0.824700 0.434817
4823 1 9.252718 -19.622696 9.887933 0 1.000000 1.000000 1.000000 0.389106 -0.822649 0.414543
4824 1 9.255387 -19.945231 9.218181 0 1.000000 1.000000 1.000000 0.387335 -0.836693 0.387190
4825 1 9.847379 -19.881060 8.730403 0 1.000000 1.000000 1.000000 0.413998 -0.833591 0.365693
4826 1 9.830348 -20.169210 8.064191 0 1.000000 1.000000 1.000000 0.411499 -0.845960 0.339147
4827 1 10.401400 -20.074868 7.568055 0 1.000000 1.000000 1.000000 0.437117 -0.841828 0.316628
4828 1 10.364489 -20.329695 6.911100 0 1.000000 1.000000 1.000000 0.434015 -0.852563 0.291147
4829 1 10.912179 -20.206355 6.411984 0 1.000000 1.000000 1.000000 0.458363 -0.847451 0.267825
4830 1 10.855775 -20.429642 5.769390 0 1.000000 1.000000 1.000000 0.454789 -0.856631 0.243620
4831 1 11.378391 -20.279167 5.272327 0 1.000000 1.000000 1.000000 0.477692 -0.850609 0.219716
4832 1 11.303369 -20.473242 4.648437 0 1.000000 1.000000 1.000000 0.473773 -0.858341 0.196950
4833 1 11.799888 -20.298022 4.157938 0 1.000000 1.000000 1.000000 0.495109 -0.851497 0.172683
4834 1 11.707519 -20.465585 3.556247 0 1.000000 1.000000 1.000000 0.490967 -0.857910 0.151466
4835 1 12.177544 -20.268368 3.076190 0 1.000000 1.000000 1.000000 0.510664 -0.850343 0.127041
4836 1 12.069387 -20.412309 2.499330 0 1.000000 1.000000 1.000000 0.506408 -0.855575 0.107435
4837 1 12.513059 -20.196041 2.032898 0 1.000000 1.000000 1.000000 0.524438 -0.847390 0.083038
4838 1 12.390854 -20.319294 1.482677 0 1.000000 1.000000 1.000000 0.520164 -0.851585 0.065062
4839 1 12.808754 -20.086969 1.032354 0 1.000000 1.000000 1.000000 0.536538 -0.842886 0.040856
4840 1 12.674323 -20.192393 0.509831 0 1.000000 1.000000 1.000000 0.532327 -0.846185 0.024494
4841 1 0.315093 12.164492 -20.507486 0 1.000000 1.000000 1.000000 0.015138 0.507833 -0.861323
4842 1 1.283091 11.868331 -20.642231 0 1.000000 1.000000 1.000000 0.055708 0.495677 -0.866719
4843 1 0.638030 11.776400 -20.724999 0 1.000000 1.000000 1.000000 0.025251 0.495682 -0.868137
4844 1 0.322937 11.274924 -21.008977 0 1.000000 1.000000 1.000000 0.015134 0.470600 -0.882217
4845 1 2.295057 11.534594 -20.742830 0 1.000000 1.000000 1.000000 0.098100 0.481969 -0.870679
4846 1 1.629039 11.455743 -20.849498 0 1.000000 1.000000 1.000000 0.066818 0.481974 -0.873634
4847 1 1.314499 10.941688 -21.145427 0 1.000000 1.000000 1.000000 0.056701 0.456893 -0.887713
4848 1 0.653457 10.852800 -21.222137 0 1.000000 1.000000 1.000000 0.026244 0.456898 -0.889132
4849 1 0.330521 10.320443 -21.493216 0 1.000000 1.000000 1.000000 0.015104 0.430675 -0.902381
4850 1 3.347518 11.161060 -20.803315 0 1.000000 1.000000 1.000000 0.142164 0.466614 -0.872961
4851 1 2.663188 11.096291 -20.936619 0 1.000000 1.000000 1.000000 0.110217 0.466618 -0.877565
4852 1 2.350628 10.569586 -21.244008 0 1.000000 1.000000 1.000000 0.100116 0.441578 -0.891620
4853 1 1.667957 10.493834 -21.346147 0 1.000000 1.000000 1.000000 0.068786 0.441582 -0.894580
4854 1 1.344646 9.947855 -21.628259 0 1.000000 1.000000 1.000000 0.057629 0.415319 -0.907849
4855 1 0.668251 9.863352 -21.698618 0 1.000000 1.000000 1.000000 0.027222 0.415324 -0.909266
4856 1 0.337731 9.300909 -21.952952 0 1.000000 1.000000 1.000000 0.015051 0.388054 -0.921514
4857 1 4.435560 10.746050 -20.817685 0 1.000000 1.000000 1.000000 0.187692 0.449533 -0.873322
4858 1 3.736332 10.696109 -20.980195 0 1.000000 1.000000 1.000000 0.155276 0.449537 -0.879663
4859 1 3.427263 10.156775 -21.298254 0 1.000000 1.000000 1.000000 0.145205 0.424573 -0.893674
4860 1 2.725888 10.095020 -21.428764 0 1.000000 1.000000 1.000000 0.113171 0.424577 -0.898291
4861 1 2.403564 9.535486 -21.721354 0 1.000000 1.000000 1.000000 0.102013 0.398314 -0.911559
4862 1 1.704993 9.464072 -21.818711 0 1.000000 1.000000 1.000000 0.070684 0.398319 -0.914520
4863 1 1.373041 8.887196 -22.082897 0 1.000000 1.000000 1.000000 0.058479 0.370973 -0.926800
4864 1 0.682173 8.808535 -22.146780 0 1.000000 1.000000 1.000000 0.028165 0.370978 -0.928214
4865 1 0.344442 8.217600 -22.380353 0 1.000000 1.000000 1.000000 0.014981 0.342792 -0.939292
4866 1 5.552754 10.288613 -20.780167 0 1.000000 1.000000 1.000000 0.234412 0.430681 -0.871530
4867 1 4.842813 10.253911 -20.974134 0 1.000000 1.000000 1.000000 0.201761 0.430684 -0.879661
4868 1 4.538780 9.702085 -21.301745 0 1.000000 1.000000 1.000000 0.191731 0.405823 -0.893615
4869 1 3.822458 9.654889 -21.463355 0 1.000000 1.000000 1.000000 0.159199 0.405826 -0.899978
4870 1 3.502565 9.082005 -21.765572 0 1.000000 1.000000 1.000000 0.148055 0.379599 -0.913227
4871 1 2.785046 9.024357 -21.893061 0 1.000000 1.000000 1.000000 0.115981 0.379603 -0.917851
4872 1 2.452937 8.433300 -22.166494 0 1.000000 1.000000 1.000000 0.103760 0.352223 -0.930147
4873 1 1.739504 8.367553 -22.258973 0 1.000000 1.000000 1.000000 0.072474 0.352227 -0.933104
4874 1 1.399161 7.761693 -22.500973 0 1.000000 1.000000 1.000000 0.059242 0.323940 -0.944221
4875 1 0.694967 7.690401 -22.558470 0 1.000000 1.000000 1.000000 0.029053 0.323944 -0.945630
4876 1 0.350525 7.073459 -22.767241 0 1.000000 1.000000 1.000000 0.014899 0.295015 -0.955376
4877 1 6.691173 9.788715 -20.685542 0 1.000000 1.000000 1.000000 0.281992 0.410046 -0.867377
4878 1 5.975421 9.769244 -20.912728 0 1.000000 1.000000 1.000000 0.249370 0.410048 -0.877312
4879 1 5.677941 9.205209 -21.248431 0 1.000000 1.000000 1.000000 0.239387 0.385306 -0.891198
4880 1 4.951241 9.172752 -21.443481 0 1.000000 1.000000 1.000000 0.206604 0.385308 -0.899362
4881 1 4.635258 8.586887 -21.754154 0 1.000000 1.000000 1.000000 0.195486 0.359143 -0.912580
4882 1 3.902904 8.543335 -21.914635 0 1.000000 1.000000 1.000000 0.162884 0.359146 -0.918958
4883 1 3.571998 7.938533 -22.196430 0 1.000000 1.000000 1.000000 0.150664 0.331767 -0.931252
4884 1 2.839550 7.886146 -22.320800 0 1.000000 1.000000 1.000000 0.118590 0.331770 -0.935877
4885 1 2.497766 7.265844 -22.570603 0 1.000000 1.000000 1.000000 0.105329 0.303423 -0.947017
4886 1 1.770810 7.207138 -22.658297 0 1.000000 1.000000 1.000000 0.074116 0.303426 -0.949968
4887 1 1.422465 6.575180 -22.873879 0 1.000000 1.000000 1.000000 0.059905 0.274380 -0.959754
4888 1 0.706373 6.512793 -22.925325 0 1.000000 1.000000 1.000000 0.029861 0.274384 -0.961157
4889 1 0.355848 5.873269 -23.105422 0 1.000000 1.000000 1.000000 0.014814 0.244921 -0.969430
4890 1 7.841522 9.247394 -20.529495 0 1.000000 1.000000 1.000000 0.330042 0.387662 -0.860692
4891 1 7.125461 9.242672 -20.791001 0 1.000000 1.000000 1.000000 0.297739 0.387663 -0.872393
4892 1 6.835950 8.666883 -21.133004 0 1.000000 1.000000 1.000000 0.287804 0.363043 -0.886210
4893 1 6.104183 8.648891 -21.363249 0 1.000000 1.000000 1.000000 0.255049 0.363044 -0.896186
4894 1 5.793561 8.050605 -21.680889 0 1.000000 1.000000 1.000000 0.243964 0.336957 -0.909363
4895 1 5.051336 8.021057 -21.876744 0 1.000000 1.000000 1.000000 0.211094 0.336959 -0.917550
4896 1 4.723032 7.403158 -22.165726 0 1.000000 1.000000 1.000000 0.198885 0.309608 -0.929832
4897 1 3.976048 7.364185 -22.324931 0 1.000000 1.000000 1.000000 0.166253 0.309610 -0.936216
4898 1 3.634085 6.730152 -22.581666 0 1.000000 1.000000 1.000000 0.152979 0.281237 -0.947366
4899 1 2.888252 6.684198 -22.702969 0 1.000000 1.000000 1.000000 0.120938 0.281240 -0.951986
4900 1 2.537059 6.037976 -22.924761 0 1.000000 1.000000 1.000000 0.106689 0.252117 -0.961798
4901 1 1.798228 5.987665 -23.007977 0 1.000000 1.000000 1.000000 0.075570 0.252120 -0.964741
4902 1 1.442422 5.333499 -23.193149 0 1.000000 1.000000 1.000000 0.060461 0.222537 -0.973048
4903 1 0.716133 5.281490 -23.239146 0 1.000000 1.000000 1.000000 0.030565 0.222540 -0.974444
4904 1 0.360285 4.623735 -23.387074 0 1.000000 1.000000 1.000000 0.014732 0.192790 -0.981129
4905 1 8.993387 8.666869 -20.308956 0 1.000000 1.000000 1.000000 0.378129 0.363611 -0.851355
4906 1 8.282941 8.675906 -20.605070 0 1.000000 1.000000 1.000000 0.346447 0.363610 -0.864732
4907 1 8.002641 8.089018 -20.951286 0 1.000000 1.000000 1.000000 0.336557 0.339103 -0.878486
4908 1 7.271712 8.084716 -21.217715 0 1.000000 1.000000 1.000000 0.304133 0.339103 -0.890231
4909 1 6.967807 7.474786 -21.540526 0 1.000000 1.000000 1.000000 0.293082 0.313099 -0.903367
4910 1 6.221423 7.458666 -21.773454 0 1.000000 1.000000 1.000000 0.260237 0.313100 -0.913370
4911 1 5.897102 6.828549 -22.068156 0 1.000000 1.000000 1.000000 0.248047 0.285793 -0.925632
4912 1 5.140936 6.802588 -22.264572 0 1.000000 1.000000 1.000000 0.215129 0.285795 -0.933831
4913 1 4.800107 6.155784 -22.527112 0 1.000000 1.000000 1.000000 0.201855 0.257422 -0.944981
4914 1 4.040241 6.122321 -22.685000 0 1.000000 1.000000 1.000000 0.169224 0.257424 -0.951365
4915 1 3.687361 5.462854 -22.912202 0 1.000000 1.000000 1.000000 0.154954 0.228259 -0.961191
4916 1 2.930014 5.424463 -23.030661 0 1.000000 1.000000 1.000000 0.122964 0.228261 -0.965804
4917 1 2.569863 4.756707 -23.220391 0 1.000000 1.000000 1.000000 0.107814 0.198597 -0.974133
4918 1 1.821102 4.716055 -23.299663 0 1.000000 1.000000 1.000000 0.076793 0.198600 -0.977068
4919 1 1.458538 4.044540 -23.450911 0 1.000000 1.000000 1.000000 0.060901 0.168738 -0.983778
4920 1 0.724010 4.004230 -23.492325 0 1.000000 1.000000 1.000000 0.031141 0.168741 -0.985168
4921 1 0.363724 3.333444 -23.605194 0 1.000000 1.000000 1.000000 0.014662 0.138976 -0.990187
4922 1 10.135615 8.050576 -20.022405 0 1.000000 1.000000 1.000000 0.425787 0.338026 -0.839311
4923 1 9.436893 8.071881 -20.352494 0 1.000000 1.000000 1.000000 0.395032 0.338025 -0.854218
4924 1 9.166803 7.474771 -20.700600 0 1.000000 1.000000 1.000000 0.385178 0.313609 -0.867922
4925 1 8.442996 7.482870 -21.003279 0 1.000000 1.000000 1.000000 0.353401 0.313608 -0.881339
4926 1 8.147002 6.862308 -21.329206 0 1.000000 1.000000 1.000000 0.342381 0.287679 -0.894436
4927 1 7.402742 6.858525 -21.600024 0 1.000000 1.000000 1.000000 0.309877 0.287679 -0.906210
4928 1 7.083705 6.217322 -21.898718 0 1.000000 1.000000 1.000000 0.297708 0.260421 -0.918450
4929 1 6.324449 6.203465 -22.133922 0 1.000000 1.000000 1.000000 0.264809 0.260422 -0.928470
4930 1 5.986068 5.545120 -22.400898 0 1.000000 1.000000 1.000000 0.251543 0.232067 -0.939612
4931 1 5.217893 5.523401 -22.597672 0 1.000000 1.000000 1.000000 0.218607 0.232069 -0.947816
4932 1 4.864555 4.851987 -22.829277 0 1.000000 1.000000 1.000000 0.204329 0.202887 -0.957646
4933 1 4.093890 4.824904 -22.985920 0 1.000000 1.000000 1.000000 0.171718 0.202889 -0.964027
4934 1 3.730455 4.144899 -23.179546 0 1.000000 1.000000 1.000000 0.156543 0.173177 -0.972370
4935 1 2.963775 4.115093 -23.295558 0 1.000000 1.000000 1.000000 0.124611 0.173179 -0.976976
4936 1 2.595317 3.431177 -23.449761 0 1.000000 1.000000 1.000000 0.108680 0.143244 -0.983702
4937 1 1.838841 3.401278 -23.525842 0 1.000000 1.000000 1.000000 0.077748 0.143246 -0.986629
4938 1 1.470385 2.718124 -23.640370 0 1.000000 1.000000 1.000000 0.061220 0.113392 -0.991662
4939 1 0.729797 2.690600 -23.678308 0 1.000000 1.000000 1.000000 0.031570 0.113393 -0.993049
4940 1 0.366073 2.012667 -23.754038 0 1.000000 1.000000 1.000000 0.014611 0.083905 -0.996367
4941 1 11.256786 7.403114 -19.670094 0 1.000000 1.000000 1.000000 0.472545 0.311092 -0.824574
4942 1 10.575812 7.434739 -20.032546 0 1.000000 1.000000 1.000000 0.443006 0.311090 -0.840815
4943 1 10.316631 6.828519 -20.380072 0 1.000000 1.000000 1.000000 0.433175 0.286732 -0.854485
4944 1 9.606343 6.847246 -20.718038 0 1.000000 1.000000 1.000000 0.402359 0.286731 -0.869421
4945 1 9.319226 6.217307 -21.044836 0 1.000000 1.000000 1.000000 0.391362 0.260859 -0.882490
4946 1 8.583692 6.224270 -21.353326 0 1.000000 1.000000 1.000000 0.359526 0.260859 -0.895932
4947 1 8.271099 5.573368 -21.654071 0 1.000000 1.000000 1.000000 0.347376 0.233645 -0.908152
4948 1 7.515372 5.570202 -21.928644 0 1.000000 1.000000 1.000000 0.314825 0.233646 -0.919943
4949 1 7.180698 4.901814 -22.198475 0 1.000000 1.000000 1.000000 0.301570 0.205315 -0.931075
4950 1 6.410651 4.890589 -22.435524 0 1.000000 1.000000 1.000000 0.268645 0.205316 -0.941103
4951 1 6.058112 4.208810 -22.670341 0 1.000000 1.000000 1.000000 0.254367 0.176135 -0.950933
4952 1 5.280192 4.191927 -22.867321 0 1.000000 1.000000 1.000000 0.221431 0.176136 -0.959137
4953 1 4.914629 3.501306 -23.064037 0 1.000000 1.000000 1.000000 0.206244 0.146401 -0.967487
4954 1 4.135556 3.481361 -23.219619 0 1.000000 1.000000 1.000000 0.173662 0.146402 -0.973862
4955 1 3.762176 2.786700 -23.376326 0 1.000000 1.000000 1.000000 0.157708 0.116424 -0.980599
4956 1 2.988616 2.766323 -23.490455 0 1.000000 1.000000 1.000000 0.125827 0.116425 -0.985197
4957 1 2.612712 2.072453 -23.606497 0 1.000000 1.000000 1.000000 0.109268 0.086515 -0.990240
4958 1 1.850958 2.054154 -23.680331 0 1.000000 1.000000 1.000000 0.078405 0.086517 -0.993160
4959 1 1.477634 1.365719 -23.756269 0 1.000000 1.000000 1.000000 0.061413 0.056971 -0.996485
4960 1 0.733337 1.351755 -23.792037 0 1.000000 1.000000 1.000000 0.031834 0.056972 -0.997868
4961 1 0.367264 0.673019 -23.829522 0 1.000000 1.000000 1.000000 0.014584 0.028056 -0.999500
4962 1 12.345754 6.730095 -19.254146 0 1.000000 1.000000 1.000000 0.517941 0.283036 -0.807235
4963 1 11.688174 6.769726 -19.646391 0 1.000000 1.000000 1.000000 0.489880 0.283033 -0.824566
4964 1 11.440273 6.155742 -19.990824 0 1.000000 1.000000 1.000000 0.480057 0.258696 -0.838225
4965 1 10.749704 6.182910 -20.362053 0 1.000000 1.000000 1.000000 0.450497 0.258695 -0.854476
4966 1 10.472160 5.545093 -20.687381 0 1.000000 1.000000 1.000000 0.439513 0.232853 -0.867530
4967 1 9.751971 5.560764 -21.032199 0 1.000000 1.000000 1.000000 0.408666 0.232852 -0.882481
4968 1 9.446784 4.901801 -21.332915 0 1.000000 1.000000 1.000000 0.396529 0.205670 -0.894687
4969 1 8.701446 4.907443 -21.646297 0 1.000000 1.000000 1.000000 0.364661 0.205670 -0.908142
4970 1 8.371630 4.230770 -21.917244 0 1.000000 1.000000 1.000000 0.351416 0.177362 -0.919266
4971 1 7.606609 4.228308 -22.194848 0 1.000000 1.000000 1.000000 0.318841 0.177362 -0.931065
4972 1 7.256110 3.538014 -22.431532 0 1.000000 1.000000 1.000000 0.304567 0.148189 -0.940893
4973 1 6.477661 3.529741 -22.669976 0 1.000000 1.000000 1.000000 0.271634 0.148190 -0.950923
4974 1 6.111191 2.830415 -22.868851 0 1.000000 1.000000 1.000000 0.256442 0.118447 -0.959275
4975 1 5.326080 2.818863 -23.065933 0 1.000000 1.000000 1.000000 0.223516 0.118448 -0.967476
4976 1 4.948881 2.115395 -23.224618 0 1.000000 1.000000 1.000000 0.207551 0.088448 -0.974217
4977 1 4.164049 2.103177 -23.379429 0 1.000000 1.000000 1.000000 0.174994 0.088449 -0.980588
4978 1 3.781600 1.400525 -23.496823 0 1.000000 1.000000 1.000000 0.158419 0.058510 -0.985637
4979 1 3.003823 1.390179 -23.609762 0 1.000000 1.000000 1.000000 0.126574 0.058510 -0.990230
4980 1 2.621541 0.693144 -23.686051 0 1.000000 1.000000 1.000000 0.109566 0.028935 -0.993558
4981 1 1.857106 0.686982 -23.758723 0 1.000000 1.000000 1.000000 0.078739 0.028935 -0.996475
4982 1 1.480074 0.000000 -23.795282 0 1.000000 1.000000 1.000000 0.061477 0.000000 -0.998108
4983 1 0.734528 0.000000 -23.830312 0 1.000000 1.000000 1.000000 0.031923 0.000000 -0.999490
4984 1 0.367264 -0.673019 -23.829522 0 1.000000 1.000000 1.000000 0.014584 -0.028056 -0.999500
4985 1 13.392178 6.037909 -18.778508 0 1.000000 1.000000 1.000000 0.561549 0.254121 -0.787455
4986 1 12.762998 6.082984 -19.197115 0 1.000000 1.000000 1.000000 0.535188 0.254118 -0.805604
4987 1 12.526410 5.462801 -19.536012 0 1.000000 1.000000 1.000000 0.525355 0.229762 -0.819275
4988 1 11.861265 5.495927 -19.937475 0 1.000000 1.000000 1.000000 0.497315 0.229759 -0.836593
4989 1 11.593689 4.851949 -20.258995 0 1.000000 1.000000 1.000000 0.486330 0.203919 -0.849647
4990 1 10.895153 4.873946 -20.637672 0 1.000000 1.000000 1.000000 0.456771 0.203917 -0.865897
4991 1 10.598101 4.208786 -20.936230 0 1.000000 1.000000 1.000000 0.444639 0.176746 -0.878099
4992 1 9.869921 4.220970 -21.286656 0 1.000000 1.000000 1.000000 0.413781 0.176745 -0.893055
4993 1 9.545958 3.538003 -21.556891 0 1.000000 1.000000 1.000000 0.400541 0.148451 -0.904173
4994 1 8.793005 3.542161 -21.874097 0 1.000000 1.000000 1.000000 0.368660 0.148451 -0.917634
4995 1 8.445720 2.845444 -22.111197 0 1.000000 1.000000 1.000000 0.354389 0.119287 -0.927458
4996 1 7.673846 2.843758 -22.391027 0 1.000000 1.000000 1.000000 0.321806 0.119287 -0.939261
4997 1 7.307721 2.137885 -22.591034 0 1.000000 1.000000 1.000000 0.306614 0.089544 -0.947612
4998 1 6.523516 2.132815 -22.830414 0 1.000000 1.000000 1.000000 0.273682 0.089545 -0.957643
4999 1 6.143715 1.422726 -22.990484 0 1.000000 1.000000 1.000000 0.257712 0.059537 -0.964386
5000 1 5.354192 1.416858 -23.187607 0 1.000000 1.000000 1.000000 0.224796 0.059538 -0.972585
5001 1 4.966278 0.707605 -23.306174 0 1.000000 1.000000 1.000000 0.208213 0.029586 -0.977636
5002 1 4.178518 0.703490 -23.460578 0 1.000000 1.000000 1.000000 0.175672 0.029586 -0.984004
5003 1 3.788142 0.000000 -23.537403 0 1.000000 1.000000 1.000000 0.158658 0.000000 -0.987334
5004 1 3.008943 0.000000 -23.649936 0 1.000000 1.000000 1.000000 0.126826 0.000000 -0.991925
5005 1 2.621541 -0.693144 -23.686051 0 1.000000 1.000000 1.000000 0.109566 -0.028935 -0.993558
5006 1 1.857106 -0.686982 -23.758723 0 1.000000 1.000000 1.000000 0.078739 -0.028935 -0.996475
5007 1 1.477634 -1.365719 -23.756269 0 1.000000 1.000000 1.000000 0.061413 -0.056971 -0.996485
5008 1 0.733337 -1.351755 -23.792037 0 1.000000 1.000000 1.000000 0.031834 -0.056972 -0.997868
5009 1 0.366073 -2.012667 -23.754038 0 1.000000 1.000000 1.000000 0.014611 -0.083905 -0.996367
5010 1 14.387012 5.333425 -18.248774 0 1.000000 1.000000 1.000000 0.602997 0.224635 -0.765463
5011 1 13.790375 5.381281 -18.689611 0 1.000000 1.000000 1.000000 0.578506 0.224632 -0.784138
5012 1 13.564819 4.756647 -19.020707 0 1.000000 1.000000 1.000000 0.568649 0.200217 -0.797842
5013 1 12.930034 4.793091 -19.448501 0 1.000000 1.000000 1.000000 0.542345 0.200215 -0.815951
5014 1 12.672526 4.144854 -19.763990 0 1.000000 1.000000 1.000000 0.531347 0.174344 -0.829020
5015 1 12.001327 4.170585 -20.173021 0 1.000000 1.000000 1.000000 0.503337 0.174342 -0.846319
5016 1 11.712881 3.501276 -20.467343 0 1.000000 1.000000 1.000000 0.491200 0.147160 -0.858526
5017 1 11.008191 3.517480 -20.851875 0 1.000000 1.000000 1.000000 0.461652 0.147159 -0.874770
5018 1 10.690887 2.830398 -21.119568 0 1.000000 1.000000 1.000000 0.448412 0.118865 -0.885888
5019 1 9.956834 2.838737 -21.474158 0 1.000000 1.000000 1.000000 0.417554 0.118865 -0.900844
5020 1 9.613832 2.137879 -21.710179 0 1.000000 1.000000 1.000000 0.403284 0.089704 -0.910667
5021 1 8.855671 2.140427 -22.030012 0 1.000000 1.000000 1.000000 0.371400 0.089704 -0.924129
5022 1 8.491127 1.430361 -22.230063 0 1.000000 1.000000 1.000000 0.356209 0.059964 -0.932480
5023 1 7.715052 1.429505 -22.511255 0 1.000000 1.000000 1.000000 0.323625 0.059964 -0.944284
5024 1 7.333943 0.715182 -22.672068 0 1.000000 1.000000 1.000000 0.307654 0.029955 -0.951027
5025 1 6.546811 0.713473 -22.911918 0 1.000000 1.000000 1.000000 0.274724 0.029955 -0.961057
5026 1 6.154672 0.000000 -23.031461 0 1.000000 1.000000 1.000000 0.258140 0.000000 -0.966108
5027 1 5.363662 0.000000 -23.228594 0 1.000000 1.000000 1.000000 0.225227 0.000000 -0.974306
5028 1 4.966278 -0.707605 -23.306174 0 1.000000 1.000000 1.000000 0.208213 -0.029586 -0.977636
5029 1 4.178518 -0.703490 -23.460578 0 1.000000 1.000000 1.000000 0.175672 -0.029586 -0.984004
5030 1 3.781600 -1.400525 -23.496823 0 1.000000 1.000000 1.000000 0.158419 -0.058510 -0.985637
5031 1 3.003823 -1.390179 -23.609762 0 1.000000 1.000000 1.000000 0.126574 -0.058510 -0.990230
5032 1 2.612712 -2.072453 -23.606497 0 1.000000 1.000000 1.000000 0.109268 -0.086515 -0.990240
5033 1 1.850958 -2.054154 -23.680331 0 1.000000 1.000000 1.000000 0.078405 -0.086517 -0.993160
5034 1 1.470385 -2.718124 -23.640370 0 1.000000 1.000000 1.000000 0.061220 -0.113392 -0.991662
5035 1 0.729797 -2.690600 -23.678308 0 1.000000 1.000000 1.000000 0.031570 -0.113393 -0.993049
5036 1 0.363724 -3.333444 -23.605194 0 1.000000 1.000000 1.000000 0.014662 -0.138976 -0.990187
5037 1 15.322883 4.623659 -17.671870 0 1.000000 1.000000 1.000000 0.641983 0.194872 -0.741541
5038 1 14.761921 4.671676 -18.130320 0 1.000000 1.000000 1.000000 0.619475 0.194870 -0.760445
5039 1 14.546844 4.044478 -18.451623 0 1.000000 1.000000 1.000000 0.609582 0.170365 -0.774200
5040 1 13.946379 4.081593 -18.901173 0 1.000000 1.000000 1.000000 0.585177 0.170362 -0.792808
5041 1 13.698764 3.431130 -19.208621 0 1.000000 1.000000 1.000000 0.574154 0.144435 -0.805907
5042 1 13.059697 3.457948 -19.643644 0 1.000000 1.000000 1.000000 0.547905 0.144433 -0.823977
5043 1 12.780075 2.786668 -19.931795 0 1.000000 1.000000 1.000000 0.535754 0.117222 -0.836198
5044 1 12.104458 2.804266 -20.346462 0 1.000000 1.000000 1.000000 0.507775 0.117220 -0.853478
5045 1 11.794411 2.115375 -20.609858 0 1.000000 1.000000 1.000000 0.494528 0.088914 -0.864602
5046 1 11.085529 2.125303 -20.998431 0 1.000000 1.000000 1.000000 0.464994 0.088913 -0.880838
5047 1 10.747740 1.422717 -21.231903 0 1.000000 1.000000 1.000000 0.450722 0.059750 -0.890662
5048 1 10.010095 1.426954 -21.589061 0 1.000000 1.000000 1.000000 0.419868 0.059749 -0.905616
5049 1 9.648315 0.715179 -21.788057 0 1.000000 1.000000 1.000000 0.404677 0.030009 -0.913967
5050 1 8.887509 0.716038 -22.109227 0 1.000000 1.000000 1.000000 0.372793 0.030009 -0.927429
5051 1 8.506426 0.000000 -22.270112 0 1.000000 1.000000 1.000000 0.356822 0.000000 -0.934172
5052 1 7.728935 0.000000 -22.551762 0 1.000000 1.000000 1.000000 0.324238 0.000000 -0.945976
5053 1 7.333943 -0.715182 -22.672068 0 1.000000 1.000000 1.000000 0.307654 -0.029955 -0.951027
5054 1 6.546811 -0.713473 -22.911918 0 1.000000 1.000000 1.000000 0.274724 -0.029955 -0.961057
5055 1 6.143715 -1.422726 -22.990484 0 1.000000 1.000000 1.000000 0.257712 -0.059537 -0.964386
5056 1 5.354192 -1.416858 -23.187607 0 1.000000 1.000000 1.000000 0.224796 -0.059538 -0.972585
5057 1 4.948881 -2.115395 -23.224618 0 1.000000 1.000000 1.000000 0.207551 -0.088448 -0.974217
5058 1 4.164049 -2.103177 -23.379429 0 1.000000 1.000000 1.000000 0.174994 -0.088449 -0.980588
5059 1 3.762176 -2.786700 -23.376326 0 1.000000 1.000000 1.000000 0.157708 -0.116424 -0.980599
5060 1 2.988616 -2.766323 -23.490455 0 1.000000 1.000000 1.000000 0.125827 -0.116425 -0.985197
5061 1 2.595317 -3.431177 -23.449761 0 1.000000 1.000000 1.000000 0.108680 -0.143244 -0.983702
5062 1 1.838841 -3.401278 -23.525842 0 1.000000 1.000000 1.000000 0.077748 -0.143246 -0.986629
5063 1 1.458538 -4.044540 -23.450911 0 1.000000 1.000000 1.000000 0.060901 -0.168738 -0.983778
5064 1 0.724010 -4.004230 -23.492325 0 1.000000 1.000000 1.000000 0.031141 -0.168741 -0.985168
5065 1 0.360285 -4.623735 -23.387074 0 1.000000 1.000000 1.000000 0.014732 -0.192790 -0.981129
5066 1 16.194322 3.915447 -17.055663 0 1.000000 1.000000 1.000000 0.678283 0.165125 -0.716007
5067 1 15.671091 3.961182 -17.526861 0 1.000000 1.000000 1.000000 0.657816 0.165123 -0.734856
5068 1 15.465733 3.333384 -17.836721 0 1.000000 1.000000 1.000000 0.647876 0.140506 -0.748675
5069 1 14.902448 3.368662 -18.303033 0 1.000000 1.000000 1.000000 0.625474 0.140504 -0.767490
5070 1 14.664321 2.718079 -18.600719 0 1.000000 1.000000 1.000000 0.614419 0.114502 -0.780627
5071 1 14.061102 2.743433 -19.056757 0 1.000000 1.000000 1.000000 0.590085 0.114501 -0.799180
5072 1 13.790292 2.072423 -19.337029 0 1.000000 1.000000 1.000000 0.577913 0.087245 -0.811421
5073 1 13.148333 2.088841 -19.777045 0 1.000000 1.000000 1.000000 0.551708 0.087244 -0.829461
5074 1 12.845931 1.400508 -20.034549 0 1.000000 1.000000 1.000000 0.538451 0.058915 -0.840595
5075 1 12.167625 1.409444 -20.452695 0 1.000000 1.000000 1.000000 0.510494 0.058914 -0.857861
5076 1 11.835818 0.707598 -20.682239 0 1.000000 1.000000 1.000000 0.496218 0.029742 -0.867688
5077 1 11.124813 0.710943 -21.072875 0 1.000000 1.000000 1.000000 0.466692 0.029742 -0.883920
5078 1 10.766892 -0.000000 -21.269748 0 1.000000 1.000000 1.000000 0.451500 0.000000 -0.892271
5079 1 10.028039 -0.000000 -21.627773 0 1.000000 1.000000 1.000000 0.420648 0.000000 -0.907224
5080 1 9.648315 -0.715179 -21.788057 0 1.000000 1.000000 1.000000 0.404677 -0.030009 -0.913967
5081 1 8.887509 -0.716038 -22.109227 0 1.000000 1.000000 1.000000 0.372793 -0.030009 -0.927429
5082 1 8.491127 -1.430361 -22.230063 0 1.000000 1.000000 1.000000 0.356209 -0.059964 -0.932480
5083 1 7.715052 -1.429505 -22.511255 0 1.000000 1.000000 1.000000 0.323625 -0.059964 -0.944284
5084 1 7.307721 -2.137885 -22.591034 0 1.000000 1.000000 1.000000 0.306614 -0.089544 -0.947612
5085 1 6.523516 -2.132815 -22.830414 0 1.000000 1.000000 1.000000 0.273682 -0.089545 -0.957643
5086 1 6.111191 -2.830415 -22.868851 0 1.000000 1.000000 1.000000 0.256442 -0.118447 -0.959275
5087 1 5.326080 -2.818863 -23.065933 0 1.000000 1.000000 1.000000 0.223516 -0.118448 -0.967476
5088 1 4.914629 -3.501306 -23.064037 0 1.000000 1.000000 1.000000 0.206244 -0.146401 -0.967487
5089 1 4.135556 -3.481361 -23.219619 0 1.000000 1.000000 1.000000 0.173662 -0.146402 -0.973862
5090 1 3.730455 -4.144899 -23.179546 0 1.000000 1.000000 1.000000 0.156543 -0.173177 -0.972370
5091 1 2.963775 -4.115093 -23.295558 0 1.000000 1.000000 1.000000 0.124611 -0.173179 -0.976976
5092 1 2.569863 -4.756707 -23.220391 0 1.000000 1.000000 1.000000 0.107814 -0.198597 -0.974133
5093 1 1.821102 -4.716055 -23.299663 0 1.000000 1.000000 1.000000 0.076793 -0.198600 -0.977068
5094 1 1.442422 -5.333499 -23.193149 0 1.000000 1.000000 1.000000 0.060461 -0.222537 -0.973048
5095 1 0.716133 -5.281490 -23.239146 0 1.000000 1.000000 1.000000 0.030565 -0.222540 -0.974444
5096 1 0.355848 -5.873269 -23.105422 0 1.000000 1.000000 1.000000 0.014814 -0.244921 -0.969430
5097 1 16.997851 3.215154 -16.408528 0 1.000000 1.000000 1.000000 0.711756 0.135666 -0.689201
5098 1 16.513342 3.256451 -16.887601 0 1.000000 1.000000 1.000000 0.693332 0.135664 -0.707733
5099 1 16.316806 2.630029 -17.184746 0 1.000000 1.000000 1.000000 0.683343 0.110926 -0.721622
5100 1 15.792428 2.661226 -17.662669 0 1.000000 1.000000 1.000000 0.662987 0.110924 -0.740367
5101 1 15.563212 2.012628 -17.949214 0 1.000000 1.000000 1.000000 0.651897 0.084841 -0.753547
5102 1 14.998389 2.034203 -18.420952 0 1.000000 1.000000 1.000000 0.629571 0.084839 -0.772297
5103 1 14.736186 1.365695 -18.691927 0 1.000000 1.000000 1.000000 0.617377 0.057534 -0.784561
5104 1 14.131307 1.378561 -19.151968 0 1.000000 1.000000 1.000000 0.593090 0.057533 -0.803078
5105 1 13.836749 0.693133 -19.402205 0 1.000000 1.000000 1.000000 0.579821 0.029180 -0.814221
5106 1 13.193332 0.698662 -19.844770 0 1.000000 1.000000 1.000000 0.553640 0.029180 -0.832245
5107 1 12.868110 -0.000000 -20.069154 0 1.000000 1.000000 1.000000 0.539359 0.000000 -0.842076
5108 1 12.188901 -0.000000 -20.488476 0 1.000000 1.000000 1.000000 0.511410 0.000000 -0.859337
5109 1 11.835818 -0.707598 -20.682239 0 1.000000 1.000000 1.000000 0.496218 -0.029742 -0.867688
5110 1 11.124813 -0.710943 -21.072875 0 1.000000 1.000000 1.000000 0.466692 -0.029742 -0.883920
5111 1 10.747740 -1.422717 -21.231903 0 1.000000 1.000000 1.000000 0.450722 -0.059750 -0.890662
5112 1 10.010095 -1.426954 -21.589061 0 1.000000 1.000000 1.000000 0.419868 -0.059749 -0.905616
5113 1 9.613832 -2.137879 -21.710179 0 1.000000 1.000000 1.000000 0.403284 -0.089704 -0.910667
5114 1 8.855671 -2.140427 -22.030012 0 1.000000 1.000000 1.000000 0.371400 -0.089704 -0.924129
5115 1 8.445720 -2.845444 -22.111197 0 1.000000 1.000000 1.000000 0.354389 -0.119287 -0.927458
5116 1 7.673846 -2.843758 -22.391027 0 1.000000 1.000000 1.000000 0.321806 -0.119287 -0.939261
5117 1 7.256110 -3.538014 -22.431532 0 1.000000 1.000000 1.000000 0.304567 -0.148189 -0.940893
5118 1 6.477661 -3.529741 -22.669976 0 1.000000 1.000000 1.000000 0.271634 -0.148190 -0.950923
5119 1 6.058112 -4.208810 -22.670341 0 1.000000 1.000000 1.000000 0.254367 -0.176135 -0.950933
5120 1 5.280192 -4.191927 -22.867321 0 1.000000 1.000000 1.000000 0.221431 -0.176136 -0.959137
5121 1 4.864555 -4.851987 -22.829277 0 1.000000 1.000000 1.000000 0.204329 -0.202887 -0.957646
5122 1 4.093890 -4.824904 -22.985920 0 1.000000 1.000000 1.000000 0.171718 -0.202889 -0.964027
5123 1 3.687361 -5.462854 -22.912202 0 1.000000 1.000000 1.000000 0.154954 -0.228259 -0.961191
5124 1 2.930014 -5.424463 -23.030661 0 1.000000 1.000000 1.000000 0.122964 -0.228261 -0.965804
5125 1 2.537059 -6.037976 -22.924761 0 1.000000 1.000000 1.000000 0.106689 -0.252117 -0.961798
5126 1 1.798228 -5.987665 -23.007977 0 1.000000 1.000000 1.000000 0.075570 -0.252120 -0.964741
5127 1 1.422465 -6.575180 -22.873879 0 1.000000 1.000000 1.000000 0.059905 -0.274380 -0.959754
5128 1 0.706373 -6.512793 -22.925325 0 1.000000 1.000000 1.000000 0.029861 -0.274384 -0.961157
5129 1 0.350525 -7.073459 -22.767241 0 1.000000 1.000000 1.000000 0.014899 -0.295015 -0.955376
5130 1 17.731916 2.528450 -15.738929 0 1.000000 1.000000 1.000000 0.742341 0.106741 -0.661465
5131 1 17.286143 2.563510 -16.221205 0 1.000000 1.000000 1.000000 0.725914 0.106739 -0.679453
5132 1 17.097464 1.940392 -16.504755 0 1.000000 1.000000 1.000000 0.715877 0.081883 -0.693409
5133 1 16.612635 1.965614 -16.989224 0 1.000000 1.000000 1.000000 0.697558 0.081882 -0.711835
5134 1 16.391641 1.321042 -17.263615 0 1.000000 1.000000 1.000000 0.686434 0.055720 -0.725054
5135 1 15.866595 1.336859 -17.745682 0 1.000000 1.000000 1.000000 0.666149 0.055719 -0.743734
5136 1 15.612646 0.673006 -18.006263 0 1.000000 1.000000 1.000000 0.653935 0.028371 -0.756018
5137 1 15.047059 0.680267 -18.480770 0 1.000000 1.000000 1.000000 0.631650 0.028371 -0.774734
5138 1 14.760376 -0.000000 -18.722628 0 1.000000 1.000000 1.000000 0.618372 0.000000 -0.785885
5139 1 14.154943 -0.000000 -19.184022 0 1.000000 1.000000 1.000000 0.594102 0.000000 -0.804390
5140 1 13.836749 -0.693133 -19.402205 0 1.000000 1.000000 1.000000 0.579821 -0.029180 -0.814221
5141 1 13.193332 -0.698662 -19.844770 0 1.000000 1.000000 1.000000 0.553640 -0.029180 -0.832245
5142 1 12.845931 -1.400508 -20.034549 0 1.000000 1.000000 1.000000 0.538451 -0.058915 -0.840595
5143 1 12.167625 -1.409444 -20.452695 0 1.000000 1.000000 1.000000 0.510494 -0.058914 -0.857861
5144 1 11.794411 -2.115375 -20.609858 0 1.000000 1.000000 1.000000 0.494528 -0.088914 -0.864602
5145 1 11.085529 -2.125303 -20.998431 0 1.000000 1.000000 1.000000 0.464994 -0.088913 -0.880838
5146 1 10.690887 -2.830398 -21.119568 0 1.000000 1.000000 1.000000 0.448412 -0.118865 -0.885888
5147 1 9.956834 -2.838737 -21.474158 0 1.000000 1.000000 1.000000 0.417554 -0.118865 -0.900844
5148 1 9.545958 -3.538003 -21.556891 0 1.000000 1.000000 1.000000 0.400541 -0.148451 -0.904173
5149 1 8.793005 -3.542161 -21.874097 0 1.000000 1.000000 1.000000 0.368660 -0.148451 -0.917634
5150 1 8.371630 -4.230770 -21.917244 0 1.000000 1.000000 1.000000 0.351416 -0.177362 -0.919266
5151 1 7.606609 -4.228308 -22.194848 0 1.000000 1.000000 1.000000 0.318841 -0.177362 -0.931065
5152 1 7.180698 -4.901814 -22.198475 0 1.000000 1.000000 1.000000 0.301570 -0.205315 -0.931075
5153 1 6.410651 -4.890589 -22.435524 0 1.000000 1.000000 1.000000 0.268645 -0.205316 -0.941103
5154 1 5.986068 -5.545120 -22.400898 0 1.000000 1.000000 1.000000 0.251543 -0.232067 -0.939612
5155 1 5.217893 -5.523401 -22.597672 0 1.000000 1.000000 1.000000 0.218607 -0.232069 -0.947816
5156 1 4.800107 -6.155784 -22.527112 0 1.000000 1.000000 1.000000 0.201855 -0.257422 -0.944981
5157 1 4.040241 -6.122321 -22.685000 0 1.000000 1.000000 1.000000 0.169224 -0.257424 -0.951365
5158 1 3.634085 -6.730152 -22.581666 0 1.000000 1.000000 1.000000 0.152979 -0.281237 -0.947366
5159 1 2.888252 -6.684198 -22.702969 0 1.000000 1.000000 1.000000 0.120938 -0.281240 -0.951986
5160 1 2.497766 -7.265844 -22.570603 0 1.000000 1.000000 1.000000 0.105329 -0.303423 -0.947017
5161 1 1.770810 -7.207138 -22.658297 0 1.000000 1.000000 1.000000 0.074116 -0.303426 -0.949968
5162 1 1.399161 -7.761693 -22.500973 0 1.000000 1.000000 1.000000 0.059242 -0.323940 -0.944221
5163 1 0.694967 -7.690401 -22.558470 0 1.000000 1.000000 1.000000 0.029053 -0.323944 -0.945630
5164 1 0.344442 -8.217600 -22.380353 0 1.000000 1.000000 1.000000 0.014981 -0.342792 -0.939292
5165 1 18.396705 1.860151 -15.055038 0 1.000000 1.000000 1.000000 0.770048 0.078560 -0.633131
5166 1 17.988842 1.887574 -15.536221 0 1.000000 1.000000 1.000000 0.755531 0.078559 -0.650386
5167 1 17.807048 1.269579 -15.805665 0 1.000000 1.000000 1.000000 0.745453 0.053600 -0.664400
5168 1 17.361443 1.287336 -16.291923 0 1.000000 1.000000 1.000000 0.729114 0.053599 -0.682290
5169 1 17.147930 0.648705 -16.553506 0 1.000000 1.000000 1.000000 0.717964 0.027376 -0.695542
5170 1 16.662957 0.657189 -17.040728 0 1.000000 1.000000 1.000000 0.699700 0.027375 -0.713912
5171 1 16.416815 -0.000000 -17.290147 0 1.000000 1.000000 1.000000 0.687474 0.000000 -0.726209
5172 1 15.891550 -0.000000 -17.773614 0 1.000000 1.000000 1.000000 0.667213 0.000000 -0.744867
5173 1 15.612646 -0.673006 -18.006263 0 1.000000 1.000000 1.000000 0.653935 -0.028371 -0.756018
5174 1 15.047059 -0.680267 -18.480770 0 1.000000 1.000000 1.000000 0.631650 -0.028371 -0.774734
5175 1 14.736186 -1.365695 -18.691927 0 1.000000 1.000000 1.000000 0.617377 -0.057534 -0.784561
5176 1 14.131307 -1.378561 -19.151968 0 1.000000 1.000000 1.000000 0.593090 -0.057533 -0.803078
5177 1 13.790292 -2.072423 -19.337029 0 1.000000 1.000000 1.000000 0.577913 -0.087245 -0.811421
5178 1 13.148333 -2.088841 -19.777045 0 1.000000 1.000000 1.000000 0.551708 -0.087244 -0.829461
5179 1 12.780075 -2.786668 -19.931795 0 1.000000 1.000000 1.000000 0.535754 -0.117222 -0.836198
5180 1 12.104458 -2.804266 -20.346462 0 1.000000 1.000000 1.000000 0.507775 -0.117220 -0.853478
5181 1 11.712881 -3.501276 -20.467343 0 1.000000 1.000000 1.000000 0.491200 -0.147160 -0.858526
5182 1 11.008191 -3.517480 -20.851875 0 1.000000 1.000000 1.000000 0.461652 -0.147159 -0.874770
5183 1 10.598101 -4.208786 -20.936230 0 1.000000 1.000000 1.000000 0.444639 -0.176746 -0.878099
5184 1 9.869921 -4.220970 -21.286656 0 1.000000 1.000000 1.000000 0.413781 -0.176745 -0.893055
5185 1 9.446784 -4.901801 -21.332915 0 1.000000 1.000000 1.000000 0.396529 -0.205670 -0.894687
5186 1 8.701446 -4.907443 -21.646297 0 1.000000 1.000000 1.000000 0.364661 -0.205670 -0.908142
5187 1 8.271099 -5.573368 -21.654071 0 1.000000 1.000000 1.000000 0.347376 -0.233645 -0.908152
5188 1 7.515372 -5.570202 -21.928644 0 1.000000 1.000000 1.000000 0.314825 -0.233646 -0.919943
5189 1 7.083705 -6.217322 -21.898718 0 1.000000 1.000000 1.000000 0.297708 -0.260421 -0.918450
5190 1 6.324449 -6.203465 -22.133922 0 1.000000 1.000000 1.000000 0.264809 -0.260422 -0.928470
5191 1 5.897102 -6.828549 -22.068156 0 1.000000 1.000000 1.000000 0.248047 -0.285793 -0.925632
5192 1 5.140936 -6.802588 -22.264572 0 1.000000 1.000000 1.000000 0.215129 -0.285795 -0.933831
5193 1 4.723032 -7.403158 -22.165726 0 1.000000 1.000000 1.000000 0.198885 -0.309608 -0.929832
5194 1 3.976048 -7.364185 -22.324931 0 1.000000 1.000000 1.000000 0.166253 -0.309610 -0.936216
5195 1 3.571998 -7.938533 -22.196430 0 1.000000 1.000000 1.000000 0.150664 -0.331767 -0.931252
5196 1 2.839550 -7.886146 -22.320800 0 1.000000 1.000000 1.000000 0.118590 -0.331770 -0.935877
5197 1 2.452937 -8.433300 -22.166494 0 1.000000 1.000000 1.000000 0.103760 -0.352223 -0.930147
5198 1 1.739504 -8.367553 -22.258973 0 1.000000 1.000000 1.000000 0.072474 -0.352227 -0.933104
5199 1 1.373041 -8.887196 -22.082897 0 1.000000 1.000000 1.000000 0.058479 -0.370973 -0.926800
5200 1 0.682173 -8.808535 -22.146780 0 1.000000 1.000000 1.000000 0.028165 -0.370978 -0.928214
5201 1 0.337731 -9.300909 -21.952952 0 1.000000 1.000000 1.000000 0.015051 -0.388054 -0.921514
5202 1 18.993885 1.214150 -14.364445 0 1.000000 1.000000 1.000000 0.794946 0.051294 -0.604507
5203 1 18.622427 1.232939 -14.840733 0 1.000000 1.000000 1.000000 0.782225 0.051294 -0.620881
5204 1 18.446595 0.621731 -15.095896 0 1.000000 1.000000 1.000000 0.772116 0.026259 -0.634939
5205 1 18.039079 0.630948 -15.579645 0 1.000000 1.000000 1.000000 0.757664 0.026258 -0.652117
5206 1 17.832305 -0.000000 -15.828099 0 1.000000 1.000000 1.000000 0.746499 0.000000 -0.665387
5207 1 17.386762 -0.000000 -16.315702 0 1.000000 1.000000 1.000000 0.730190 0.000000 -0.683244
5208 1 17.147930 -0.648705 -16.553506 0 1.000000 1.000000 1.000000 0.717964 -0.027376 -0.695542
5209 1 16.662957 -0.657189 -17.040728 0 1.000000 1.000000 1.000000 0.699700 -0.027375 -0.713912
5210 1 16.391641 -1.321042 -17.263615 0 1.000000 1.000000 1.000000 0.686434 -0.055720 -0.725054
5211 1 15.866595 -1.336859 -17.745682 0 1.000000 1.000000 1.000000 0.666149 -0.055719 -0.743734
5212 1 15.563212 -2.012628 -17.949214 0 1.000000 1.000000 1.000000 0.651897 -0.084841 -0.753547
5213 1 14.998389 -2.034203 -18.420952 0 1.000000 1.000000 1.000000 0.629571 -0.084839 -0.772297
5214 1 14.664321 -2.718079 -18.600719 0 1.000000 1.000000 1.000000 0.614419 -0.114502 -0.780627
5215 1 14.061102 -2.743433 -19.056757 0 1.000000 1.000000 1.000000 0.590085 -0.114501 -0.799180
5216 1 13.698764 -3.431130 -19.208621 0 1.000000 1.000000 1.000000 0.574154 -0.144435 -0.805907
5217 1 13.059697 -3.457948 -19.643644 0 1.000000 1.000000 1.000000 0.547905 -0.144433 -0.823977
5218 1 12.672526 -4.144854 -19.763990 0 1.000000 1.000000 1.000000 0.531347 -0.174344 -0.829020
5219 1 12.001327 -4.170585 -20.173021 0 1.000000 1.000000 1.000000 0.503337 -0.174342 -0.846319
5220 1 11.593689 -4.851949 -20.258995 0 1.000000 1.000000 1.000000 0.486330 -0.203919 -0.849647
5221 1 10.895153 -4.873946 -20.637672 0 1.000000 1.000000 1.000000 0.456771 -0.203917 -0.865897
5222 1 10.472160 -5.545093 -20.687381 0 1.000000 1.000000 1.000000 0.439513 -0.232853 -0.867530
5223 1 9.751971 -5.560764 -21.032199 0 1.000000 1.000000 1.000000 0.408666 -0.232852 -0.882481
5224 1 9.319226 -6.217307 -21.044836 0 1.000000 1.000000 1.000000 0.391362 -0.260859 -0.882490
5225 1 8.583692 -6.224270 -21.353326 0 1.000000 1.000000 1.000000 0.359526 -0.260859 -0.895932
5226 1 8.147002 -6.862308 -21.329206 0 1.000000 1.000000 1.000000 0.342381 -0.287679 -0.894436
5227 1 7.402742 -6.858525 -21.600024 0 1.000000 1.000000 1.000000 0.309877 -0.287679 -0.906210
5228 1 6.967807 -7.474786 -21.540526 0 1.000000 1.000000 1.000000 0.293082 -0.313099 -0.903367
5229 1 6.221423 -7.458666 -21.773454 0 1.000000 1.000000 1.000000 0.260237 -0.313100 -0.913370
5230 1 5.793561 -8.050605 -21.680889 0 1.000000 1.000000 1.000000 0.243964 -0.336957 -0.909363
5231 1 5.051336 -8.021057 -21.876744 0 1.000000 1.000000 1.000000 0.211094 -0.336959 -0.917550
5232 1 4.635258 -8.586887 -21.754154 0 1.000000 1.000000 1.000000 0.195486 -0.359143 -0.912580
5233 1 3.902904 -8.543335 -21.914635 0 1.000000 1.000000 1.000000 0.162884 -0.359146 -0.918958
5234 1 3.502565 -9.082005 -21.765572 0 1.000000 1.000000 1.000000 0.148055 -0.379599 -0.913227
5235 1 2.785046 -9.024357 -21.893061 0 1.000000 1.000000 1.000000 0.115981 -0.379603 -0.917851
5236 1 2.403564 -9.535486 -21.721354 0 1.000000 1.000000 1.000000 0.102013 -0.398314 -0.911559
5237 1 1.704993 -9.464072 -21.818711 0 1.000000 1.000000 1.000000 0.070684 -0.398319 -0.914520
5238 1 1.344646 -9.947855 -21.628259 0 1.000000 1.000000 1.000000 0.057629 -0.415319 -0.907849
5239 1 0.668251 -9.863352 -21.698618 0 1.000000 1.000000 1.000000 0.027222 -0.415324 -0.909266
5240 1 0.330521 -10.320443 -21.493216 0 1.000000 1.000000 1.000000 0.015104 -0.430675 -0.902381
5241 1 19.526300 0.593408 -13.673945 0 1.000000 1.000000 1.000000 0.817155 0.025077 -0.575872
5242 1 19.189239 0.602943 -14.142099 0 1.000000 1.000000 1.000000 0.806094 0.025076 -0.591256
5243 1 19.018523 -0.000000 -14.383091 0 1.000000 1.000000 1.000000 0.795969 -0.000000 -0.605338
5244 1 18.647337 -0.000000 -14.860601 0 1.000000 1.000000 1.000000 0.783281 -0.000000 -0.621667
5245 1 18.446595 -0.621731 -15.095896 0 1.000000 1.000000 1.000000 0.772116 -0.026259 -0.634939
5246 1 18.039079 -0.630948 -15.579645 0 1.000000 1.000000 1.000000 0.757664 -0.026258 -0.652117
5247 1 17.807048 -1.269579 -15.805665 0 1.000000 1.000000 1.000000 0.745453 -0.053600 -0.664400
5248 1 17.361443 -1.287336 -16.291923 0 1.000000 1.000000 1.000000 0.729114 -0.053599 -0.682290
5249 1 17.097464 -1.940392 -16.504755 0 1.000000 1.000000 1.000000 0.715877 -0.081883 -0.693409
5250 1 16.612635 -1.965614 -16.989224 0 1.000000 1.000000 1.000000 0.697558 -0.081882 -0.711835
5251 1 16.316806 -2.630029 -17.184746 0 1.000000 1.000000 1.000000 0.683343 -0.110926 -0.721622
5252 1 15.792428 -2.661226 -17.662669 0 1.000000 1.000000 1.000000 0.662987 -0.110924 -0.740367
5253 1 15.465733 -3.333384 -17.836721 0 1.000000 1.000000 1.000000 0.647876 -0.140506 -0.748675
5254 1 14.902448 -3.368662 -18.303033 0 1.000000 1.000000 1.000000 0.625474 -0.140504 -0.767490
5255 1 14.546844 -4.044478 -18.451623 0 1.000000 1.000000 1.000000 0.609582 -0.170365 -0.774200
5256 1 13.946379 -4.081593 -18.901173 0 1.000000 1.000000 1.000000 0.585177 -0.170362 -0.792808
5257 1 13.564819 -4.756647 -19.020707 0 1.000000 1.000000 1.000000 0.568649 -0.200217 -0.797842
5258 1 12.930034 -4.793091 -19.448501 0 1.000000 1.000000 1.000000 0.542345 -0.200215 -0.815951
5259 1 12.526410 -5.462801 -19.536012 0 1.000000 1.000000 1.000000 0.525355 -0.229762 -0.819275
5260 1 11.861265 -5.495927 -19.937475 0 1.000000 1.000000 1.000000 0.497315 -0.229759 -0.836593
5261 1 11.440273 -6.155742 -19.990824 0 1.000000 1.000000 1.000000 0.480057 -0.258696 -0.838225
5262 1 10.749704 -6.182910 -20.362053 0 1.000000 1.000000 1.000000 0.450497 -0.258695 -0.854476
5263 1 10.316631 -6.828519 -20.380072 0 1.000000 1.000000 1.000000 0.433175 -0.286732 -0.854485
5264 1 9.606343 -6.847246 -20.718038 0 1.000000 1.000000 1.000000 0.402359 -0.286731 -0.869421
5265 1 9.166803 -7.474771 -20.700600 0 1.000000 1.000000 1.000000 0.385178 -0.313609 -0.867922
5266 1 8.442996 -7.482870 -21.003279 0 1.000000 1.000000 1.000000 0.353401 -0.313608 -0.881339
5267 1 8.002641 -8.089018 -20.951286 0 1.000000 1.000000 1.000000 0.336557 -0.339103 -0.878486
5268 1 7.271712 -8.084716 -21.217715 0 1.000000 1.000000 1.000000 0.304133 -0.339103 -0.890231
5269 1 6.835950 -8.666883 -21.133004 0 1.000000 1.000000 1.000000 0.287804 -0.363043 -0.886210
5270 1 6.104183 -8.648891 -21.363249 0 1.000000 1.000000 1.000000 0.255049 -0.363044 -0.896186
5271 1 5.677941 -9.205209 -21.248431 0 1.000000 1.000000 1.000000 0.239387 -0.385306 -0.891198
5272 1 4.951241 -9.172752 -21.443481 0 1.000000 1.000000 1.000000 0.206604 -0.385308 -0.899362
5273 1 4.538780 -9.702085 -21.301745 0 1.000000 1.000000 1.000000 0.191731 -0.405823 -0.893615
5274 1 3.822458 -9.654889 -21.463355 0 1.000000 1.000000 1.000000 0.159199 -0.405826 -0.899978
5275 1 3.427263 -10.156775 -21.298254 0 1.000000 1.000000 1.000000 0.145205 -0.424573 -0.893674
5276 1 2.725888 -10.095020 -21.428764 0 1.000000 1.000000 1.000000 0.113171 -0.424577 -0.898291
5277 1 2.350628 -10.569586 -21.244008 0 1.000000 1.000000 1.000000 0.100116 -0.441578 -0.891620
5278 1 1.667957 -10.493834 -21.346147 0 1.000000 1.000000 1.000000 0.068786 -0.441582 -0.894580
5279 1 1.314499 -10.941688 -21.145427 0 1.000000 1.000000 1.000000 0.056701 -0.456893 -0.887713
5280 1 0.653457 -10.852800 -21.222137 0 1.000000 1.000000 1.000000 0.026244 -0.456898 -0.889132
5281 1 0.322937 -11.274924 -21.008977 0 1.000000 1.000000 1.000000 0.015134 -0.470600 -0.882217
5282 1 19.997655 0.000000 -12.989417 0 1.000000 1.000000 1.000000 0.836829 0.000000 -0.547465
5283 1 19.692645 -0.000000 -13.446784 0 1.000000 1.000000 1.000000 0.827281 0.000000 -0.561789
5284 1 19.526300 -0.593408 -13.673945 0 1.000000 1.000000 1.000000 0.817155 -0.025077 -0.575872
5285 1 19.189239 -0.602943 -14.142099 0 1.000000 1.000000 1.000000 0.806094 -0.025076 -0.591256
5286 1 18.993885 -1.214150 -14.364445 0 1.000000 1.000000 1.000000 0.794946 -0.051294 -0.604507
5287 1 18.622427 -1.232939 -14.840733 0 1.000000 1.000000 1.000000 0.782225 -0.051294 -0.620881
5288 1 18.396705 -1.860151 -15.055038 0 1.000000 1.000000 1.000000 0.770048 -0.078560 -0.633131
5289 1 17.988842 -1.887574 -15.536221 0 1.000000 1.000000 1.000000 0.755531 -0.078559 -0.650386
5290 1 17.731916 -2.528450 -15.738929 0 1.000000 1.000000 1.000000 0.742341 -0.106741 -0.661465
5291 1 17.286143 -2.563510 -16.221205 0 1.000000 1.000000 1.000000 0.725914 -0.106739 -0.679453
5292 1 16.997851 -3.215154 -16.408528 0 1.000000 1.000000 1.000000 0.711756 -0.135666 -0.689201
5293 1 16.513342 -3.256451 -16.887601 0 1.000000 1.000000 1.000000 0.693332 -0.135664 -0.707733
5294 1 16.194322 -3.915447 -17.055663 0 1.000000 1.000000 1.000000 0.678283 -0.165125 -0.716007
5295 1 15.671091 -3.961182 -17.526861 0 1.000000 1.000000 1.000000 0.657816 -0.165123 -0.734856
5296 1 15.322883 -4.623659 -17.671870 0 1.000000 1.000000 1.000000 0.641983 -0.194872 -0.741541
5297 1 14.761921 -4.671676 -18.130320 0 1.000000 1.000000 1.000000 0.619475 -0.194870 -0.760445
5298 1 14.387012 -5.333425 -18.248774 0 1.000000 1.000000 1.000000 0.602997 -0.224635 -0.765463
5299 1 13.790375 -5.381281 -18.689611 0 1.000000 1.000000 1.000000 0.578506 -0.224632 -0.784138
5300 1 13.392178 -6.037909 -18.778508 0 1.000000 1.000000 1.000000 0.561549 -0.254121 -0.787455
5301 1 12.762998 -6.082984 -19.197115 0 1.000000 1.000000 1.000000 0.535188 -0.254118 -0.805604
5302 1 12.345754 -6.730095 -19.254146 0 1.000000 1.000000 1.000000 0.517941 -0.283036 -0.807235
5303 1 11.688174 -6.769726 -19.646391 0 1.000000 1.000000 1.000000 0.489880 -0.283033 -0.824566
5304 1 11.256786 -7.403114 -19.670094 0 1.000000 1.000000 1.000000 0.472545 -0.311092 -0.824574
5305 1 10.575812 -7.434739 -20.032546 0 1.000000 1.000000 1.000000 0.443006 -0.311090 -0.840815
5306 1 10.135615 -8.050576 -20.022405 0 1.000000 1.000000 1.000000 0.425787 -0.338026 -0.839311
5307 1 9.436893 -8.071881 -20.352494 0 1.000000 1.000000 1.000000 0.395032 -0.338025 -0.854218
5308 1 8.993387 -8.666869 -20.308956 0 1.000000 1.000000 1.000000 0.378129 -0.363611 -0.851355
5309 1 8.282941 -8.675906 -20.605070 0 1.000000 1.000000 1.000000 0.346447 -0.363610 -0.864732
5310 1 7.841522 -9.247394 -20.529495 0 1.000000 1.000000 1.000000 0.330042 -0.387662 -0.860692
5311 1 7.125461 -9.242672 -20.791001 0 1.000000 1.000000 1.000000 0.297739 -0.387663 -0.872393
5312 1 6.691173 -9.788715 -20.685542 0 1.000000 1.000000 1.000000 0.281992 -0.410046 -0.867377
5313 1 5.975421 -9.769244 -20.912728 0 1.000000 1.000000 1.000000 0.249370 -0.410048 -0.877312
5314 1 5.552754 -10.288613 -20.780167 0 1.000000 1.000000 1.000000 0.234412 -0.430681 -0.871530
5315 1 4.842813 -10.253911 -20.974134 0 1.000000 1.000000 1.000000 0.201761 -0.430684 -0.879661
5316 1 4.435560 -10.746050 -20.817685 0 1.000000 1.000000 1.000000 0.187692 -0.449533 -0.873322
5317 1 3.736332 -10.696109 -20.980195 0 1.000000 1.000000 1.000000 0.155276 -0.449537 -0.879663
5318 1 3.347518 -11.161060 -20.803315 0 1.000000 1.000000 1.000000 0.142164 -0.466614 -0.872961
5319 1 2.663188 -11.096291 -20.936619 0 1.000000 1.000000 1.000000 0.110217 -0.466618 -0.877565
5320 1 2.295057 -11.534594 -20.742830 0 1.000000 1.000000 1.000000 0.098100 -0.481969 -0.870679
5321 1 1.629039 -11.455743 -20.849498 0 1.000000 1.000000 1.000000 0.066818 -0.481974 -0.873634
5322 1 1.283091 -11.868331 -20.642231 0 1.000000 1.000000 1.000000 0.055708 -0.495677 -0.866719
5323 1 0.638030 -11.776400 -20.724999 0 1.000000 1.000000 1.000000 0.025251 -0.495682 -0.868137
5324 1 0.315093 -12.164492 -20.507486 0 1.000000 1.000000 1.000000 0.015138 -0.507833 -0.861323
5325 1 20.192393 -0.509831 -12.674323 0 1.000000 1.000000 1.000000 0.846185 -0.024494 -0.532327
5326 1 20.319294 -1.482677 -12.390854 0 1.000000 1.000000 1.000000 0.851585 -0.065062 -0.520164
5327 1 20.086969 -1.032354 -12.808754 0 1.000000 1.000000 1.000000 0.842886 -0.040856 -0.536538
5328 1 19.725886 -1.115930 -13.351008 0 1.000000 1.000000 1.000000 0.826508 -0.049563 -0.560738
5329 1 20.412309 -2.499330 -12.069387 0 1.000000 1.000000 1.000000 0.855575 -0.107435 -0.506408
5330 1 20.196041 -2.032898 -12.513059 0 1.000000 1.000000 1.000000 0.847390 -0.083038 -0.524438
5331 1 19.830928 -2.126904 -13.068592 0 1.000000 1.000000 1.000000 0.831012 -0.091744 -0.548637
5332 1 19.593098 -1.660259 -13.488641 0 1.000000 1.000000 1.000000 0.822314 -0.067540 -0.565012
5333 1 19.198158 -1.748944 -14.033924 0 1.000000 1.000000 1.000000 0.804281 -0.075733 -0.589404
5334 1 20.465585 -3.556247 -11.707519 0 1.000000 1.000000 1.000000 0.857910 -0.151466 -0.490967
5335 1 20.268368 -3.076190 -12.177544 0 1.000000 1.000000 1.000000 0.850343 -0.127041 -0.510664
5336 1 19.899363 -3.181665 -12.745268 0 1.000000 1.000000 1.000000 0.833991 -0.135732 -0.534823
5337 1 19.678191 -2.698810 -13.192644 0 1.000000 1.000000 1.000000 0.825794 -0.111299 -0.552881
5338 1 19.277632 -2.797414 -13.751250 0 1.000000 1.000000 1.000000 0.807733 -0.119504 -0.577310
5339 1 19.035429 -2.314192 -14.172481 0 1.000000 1.000000 1.000000 0.799049 -0.095340 -0.593659
5340 1 18.605434 -2.406611 -14.717307 0 1.000000 1.000000 1.000000 0.779350 -0.102913 -0.618080
5341 1 20.473242 -4.648437 -11.303369 0 1.000000 1.000000 1.000000 0.858341 -0.196950 -0.473773
5342 1 20.298022 -4.157938 -11.799888 0 1.000000 1.000000 1.000000 0.851497 -0.172683 -0.495109
5343 1 19.925213 -4.275849 -12.378402 0 1.000000 1.000000 1.000000 0.835195 -0.181348 -0.519194
5344 1 19.723771 -3.779632 -12.853757 0 1.000000 1.000000 1.000000 0.827607 -0.156856 -0.538946
5345 1 19.317790 -3.889049 -13.424535 0 1.000000 1.000000 1.000000 0.809546 -0.165060 -0.563374
5346 1 19.092823 -3.389685 -13.874652 0 1.000000 1.000000 1.000000 0.801349 -0.140627 -0.581433
5347 1 18.655634 -3.491206 -14.432624 0 1.000000 1.000000 1.000000 0.781595 -0.148221 -0.605921
5348 1 18.410448 -2.991353 -14.854048 0 1.000000 1.000000 1.000000 0.772938 -0.124131 -0.622220
5349 1 17.944793 -3.085769 -15.394486 0 1.000000 1.000000 1.000000 0.751600 -0.130981 -0.646484
5350 1 20.429642 -5.769390 -10.855775 0 1.000000 1.000000 1.000000 0.856631 -0.243620 -0.454789
5351 1 20.279167 -5.272327 -11.378391 0 1.000000 1.000000 1.000000 0.850609 -0.219716 -0.477692
5352 1 19.902584 -5.403509 -11.965974 0 1.000000 1.000000 1.000000 0.834373 -0.228344 -0.501678
5353 1 19.723851 -4.897530 -12.469465 0 1.000000 1.000000 1.000000 0.827504 -0.203990 -0.523091
5354 1 19.312634 -5.018563 -13.050941 0 1.000000 1.000000 1.000000 0.809467 -0.212183 -0.547486
5355 1 19.108015 -4.506299 -13.530656 0 1.000000 1.000000 1.000000 0.801870 -0.187661 -0.567263
5356 1 18.663929 -4.617641 -14.100568 0 1.000000 1.000000 1.000000 0.782091 -0.195263 -0.591781
5357 1 18.436515 -4.101912 -14.552419 0 1.000000 1.000000 1.000000 0.773906 -0.170864 -0.609816
5358 1 17.962192 -4.204281 -15.105594 0 1.000000 1.000000 1.000000 0.752490 -0.177738 -0.634167
5359 1 17.715657 -3.687990 -15.526237 0 1.000000 1.000000 1.000000 0.743869 -0.153748 -0.650400
5360 1 17.214487 -3.782316 -16.058003 0 1.000000 1.000000 1.000000 0.720965 -0.159774 -0.674301
5361 1 20.329695 -6.911100 -10.364489 0 1.000000 1.000000 1.000000 0.852563 -0.291147 -0.434015
5362 1 20.206355 -6.411984 -10.912179 0 1.000000 1.000000 1.000000 0.847451 -0.267825 -0.458363
5363 1 19.825966 -6.557073 -11.506805 0 1.000000 1.000000 1.000000 0.831292 -0.276411 -0.482235
5364 1 19.672670 -6.045662 -12.037983 0 1.000000 1.000000 1.000000 0.825246 -0.252410 -0.505231
5365 1 19.256388 -6.178962 -12.628357 0 1.000000 1.000000 1.000000 0.807251 -0.260583 -0.529568
5366 1 19.075084 -5.657843 -13.137824 0 1.000000 1.000000 1.000000 0.800368 -0.236177 -0.551028
5367 1 18.624432 -5.779615 -13.718148 0 1.000000 1.000000 1.000000 0.780589 -0.243779 -0.575546
5368 1 18.417896 -5.251678 -14.201178 0 1.000000 1.000000 1.000000 0.772992 -0.219258 -0.595322
5369 1 17.935345 -5.362513 -14.765849 0 1.000000 1.000000 1.000000 0.751531 -0.226146 -0.619726
5370 1 17.707056 -4.830845 -15.218414 0 1.000000 1.000000 1.000000 0.743364 -0.201804 -0.637718
5371 1 17.195937 -4.931625 -15.762282 0 1.000000 1.000000 1.000000 0.720367 -0.207855 -0.661716
5372 1 16.949904 -4.399386 -16.181228 0 1.000000 1.000000 1.000000 0.711787 -0.183980 -0.677872
5373 1 16.414248 -4.491220 -16.699815 0 1.000000 1.000000 1.000000 0.687438 -0.189094 -0.701194
5374 1 20.169210 -8.064191 -9.830348 0 1.000000 1.000000 1.000000 0.845960 -0.339147 -0.411499
5375 1 20.074868 -7.568055 -10.401400 0 1.000000 1.000000 1.000000 0.841828 -0.316628 -0.437117
5376 1 19.690582 -7.727416 -11.000770 0 1.000000 1.000000 1.000000 0.825749 -0.325171 -0.460871
5377 1 19.565021 -7.215549 -11.558486 0 1.000000 1.000000 1.000000 0.820616 -0.301753 -0.485318
5378 1 19.143829 -7.361550 -12.155653 0 1.000000 1.000000 1.000000 0.802675 -0.309901 -0.509583
5379 1 18.988492 -6.836373 -12.694347 0 1.000000 1.000000 1.000000 0.796612 -0.285837 -0.532641
5380 1 18.531640 -6.969020 -13.283231 0 1.000000 1.000000 1.000000 0.776853 -0.293431 -0.557134
5381 1 18.348883 -6.433381 -13.797566 0 1.000000 1.000000 1.000000 0.769963 -0.269003 -0.578614
5382 1 17.858634 -6.553080 -14.372178 0 1.000000 1.000000 1.000000 0.748482 -0.275897 -0.603039
5383 1 17.651633 -6.010149 -14.857431 0 1.000000 1.000000 1.000000 0.740893 -0.251401 -0.622796
5384 1 17.131201 -6.117677 -15.412155 0 1.000000 1.000000 1.000000 0.717834 -0.257466 -0.646858
5385 1 16.903794 -5.570821 -15.864440 0 1.000000 1.000000 1.000000 0.709692 -0.233199 -0.664797
5386 1 16.357199 -5.667271 -16.394299 0 1.000000 1.000000 1.000000 0.685243 -0.238334 -0.688214
5387 1 16.113685 -5.119910 -16.810727 0 1.000000 1.000000 1.000000 0.676706 -0.214577 -0.704291
5388 1 15.545551 -5.206613 -17.311585 0 1.000000 1.000000 1.000000 0.651087 -0.218709 -0.726809
5389 1 19.945231 -9.218181 -9.255387 0 1.000000 1.000000 1.000000 0.836693 -0.387190 -0.387335
5390 1 19.881060 -8.730403 -9.847379 0 1.000000 1.000000 1.000000 0.833591 -0.365693 -0.413998
5391 1 19.492748 -8.904067 -10.448982 0 1.000000 1.000000 1.000000 0.817585 -0.374196 -0.437643
5392 1 19.396613 -8.397215 -11.031322 0 1.000000 1.000000 1.000000 0.813438 -0.351594 -0.463357
5393 1 18.970663 -8.556070 -11.632912 0 1.000000 1.000000 1.000000 0.795553 -0.359714 -0.487545
5394 1 18.843440 -8.032271 -12.199528 0 1.000000 1.000000 1.000000 0.790406 -0.336233 -0.512060
5395 1 18.380795 -8.176017 -12.794825 0 1.000000 1.000000 1.000000 0.770678 -0.343814 -0.536514
5396 1 18.224332 -7.637942 -13.339834 0 1.000000 1.000000 1.000000 0.764607 -0.319715 -0.559606
5397 1 17.727005 -7.766737 -13.922521 0 1.000000 1.000000 1.000000 0.743126 -0.326608 -0.584030
5398 1 17.544065 -7.217514 -14.440529 0 1.000000 1.000000 1.000000 0.736236 -0.302181 -0.605510
5399 1 17.015100 -7.331971 -15.004566 0 1.000000 1.000000 1.000000 0.713144 -0.308255 -0.629607
5400 1 16.809237 -6.775065 -15.490938 0 1.000000 1.000000 1.000000 0.705567 -0.283799 -0.649333
5401 1 16.252584 -6.876205 -16.030856 0 1.000000 1.000000 1.000000 0.681051 -0.288948 -0.672814
5402 1 16.027951 -6.315267 -16.481931 0 1.000000 1.000000 1.000000 0.672935 -0.264757 -0.690697
5403 1 15.448270 -6.404442 -16.993085 0 1.000000 1.000000 1.000000 0.647221 -0.268905 -0.713299
5404 1 15.209384 -5.843149 -17.406310 0 1.000000 1.000000 1.000000 0.638722 -0.245257 -0.729304
5405 1 14.611806 -5.921943 -17.885050 0 1.000000 1.000000 1.000000 0.612059 -0.248358 -0.750801
5406 1 19.656332 -10.361860 -8.642894 0 1.000000 1.000000 1.000000 0.824700 -0.434817 -0.361667
5407 1 19.622696 -9.887933 -9.252718 0 1.000000 1.000000 1.000000 0.822649 -0.414543 -0.389106
5408 1 19.230215 -10.075551 -9.853905 0 1.000000 1.000000 1.000000 0.806702 -0.423013 -0.412664
5409 1 19.164438 -9.579462 -10.458177 0 1.000000 1.000000 1.000000 0.803590 -0.401452 -0.439408
5410 1 18.733889 -9.750997 -11.061619 0 1.000000 1.000000 1.000000 0.785757 -0.409548 -0.463526
5411 1 18.636249 -9.234456 -11.654014 0 1.000000 1.000000 1.000000 0.781600 -0.386890 -0.489304
5412 1 18.168263 -9.389253 -12.253324 0 1.000000 1.000000 1.000000 0.761907 -0.394457 -0.513713
5413 1 18.040032 -8.854612 -12.827518 0 1.000000 1.000000 1.000000 0.756752 -0.370937 -0.538268
5414 1 17.536342 -8.992529 -13.416136 0 1.000000 1.000000 1.000000 0.735284 -0.377825 -0.562678
5415 1 17.379779 -8.442728 -13.966129 0 1.000000 1.000000 1.000000 0.729209 -0.353714 -0.585782
5416 1 16.843209 -8.564149 -14.537649 0 1.000000 1.000000 1.000000 0.706103 -0.359791 -0.609893
5417 1 16.661471 -8.002615 -15.058077 0 1.000000 1.000000 1.000000 0.699218 -0.335379 -0.631359
5418 1 16.095840 -8.108425 -15.606575 0 1.000000 1.000000 1.000000 0.674662 -0.340537 -0.654878
5419 1 15.892816 -7.538921 -16.092982 0 1.000000 1.000000 1.000000 0.667099 -0.316125 -0.674569
5420 1 15.302758 -7.630441 -16.613304 0 1.000000 1.000000 1.000000 0.641321 -0.320283 -0.697227
5421 1 15.082845 -7.056899 -17.062333 0 1.000000 1.000000 1.000000 0.633228 -0.296162 -0.715060
5422 1 14.473567 -7.135781 -17.550322 0 1.000000 1.000000 1.000000 0.606485 -0.299273 -0.736622
5423 1 14.241415 -6.562118 -17.959814 0 1.000000 1.000000 1.000000 0.598017 -0.275713 -0.752568
5424 1 13.618423 -6.630227 -18.412436 0 1.000000 1.000000 1.000000 0.570579 -0.277762 -0.772844
5425 1 19.302830 -11.483768 -7.997359 0 1.000000 1.000000 1.000000 0.809990 -0.481559 -0.334689
5426 1 19.299209 -11.029039 -8.621303 0 1.000000 1.000000 1.000000 0.808980 -0.462680 -0.362598
5427 1 18.902439 -11.229859 -9.219381 0 1.000000 1.000000 1.000000 0.793072 -0.471130 -0.386100
5428 1 18.867080 -10.750297 -9.842158 0 1.000000 1.000000 1.000000 0.791016 -0.450815 -0.413592
5429 1 18.432125 -10.933971 -10.444764 0 1.000000 1.000000 1.000000 0.773222 -0.458893 -0.437658
5430 1 18.364710 -10.430758 -11.059952 0 1.000000 1.000000 1.000000 0.770105 -0.437291 -0.464452
5431 1 17.891895 -10.596251 -11.660696 0 1.000000 1.000000 1.000000 0.750444 -0.444845 -0.488822
5432 1 17.793088 -10.071286 -12.261673 0 1.000000 1.000000 1.000000 0.746281 -0.422154 -0.514636
5433 1 17.283846 -10.218106 -12.853851 0 1.000000 1.000000 1.000000 0.724831 -0.429036 -0.539025
5434 1 17.155332 -9.673989 -13.434120 0 1.000000 1.000000 1.000000 0.719672 -0.405497 -0.563599
5435 1 16.612229 -9.802232 -14.011041 0 1.000000 1.000000 1.000000 0.696566 -0.411574 -0.587709
5436 1 16.456670 -9.242192 -14.564578 0 1.000000 1.000000 1.000000 0.690492 -0.387463 -0.610814
5437 1 15.883338 -9.352544 -15.119920 0 1.000000 1.000000 1.000000 0.665917 -0.392624 -0.634351
5438 1 15.704247 -8.780312 -15.641489 0 1.000000 1.000000 1.000000 0.659037 -0.368234 -0.655800
5439 1 15.105227 -8.873996 -16.169620 0 1.000000 1.000000 1.000000 0.633222 -0.372398 -0.678490
5440 1 14.906763 -8.293629 -16.655029 0 1.000000 1.000000 1.000000 0.625671 -0.348027 -0.698150
5441 1 14.287271 -8.372310 -17.151278 0 1.000000 1.000000 1.000000 0.598878 -0.351143 -0.719752
5442 1 14.073988 -7.788004 -17.597543 0 1.000000 1.000000 1.000000 0.590802 -0.327076 -0.737546
5443 1 13.439638 -7.853662 -18.058378 0 1.000000 1.000000 1.000000 0.563310 -0.329129 -0.757862
5444 1 13.216225 -7.269548 -18.463779 0 1.000000 1.000000 1.000000 0.554862 -0.305627 -0.773770
5445 1 12.572735 -7.324341 -18.886882 0 1.000000 1.000000 1.000000 0.526955 -0.306633 -0.792651
5446 1 18.886882 -12.572735 -7.324341 0 1.000000 1.000000 1.000000 0.792651 -0.526955 -0.306633
5447 1 18.911863 -12.142138 -7.958217 0 1.000000 1.000000 1.000000 0.792643 -0.509610 -0.334686
5448 1 18.510750 -12.355009 -8.550551 0 1.000000 1.000000 1.000000 0.776748 -0.518052 -0.358168
5449 1 18.504947 -11.897459 -9.187771 0 1.000000 1.000000 1.000000 0.775738 -0.499160 -0.386096
5450 1 18.065840 -12.092361 -9.786835 0 1.000000 1.000000 1.000000 0.757964 -0.507228 -0.410134
5451 1 18.028376 -11.608435 -10.421051 0 1.000000 1.000000 1.000000 0.755906 -0.486893 -0.437654
5452 1 17.551315 -11.783942 -11.020559 0 1.000000 1.000000 1.000000 0.736268 -0.494437 -0.461997
5453 1 17.482248 -11.274970 -11.645016 0 1.000000 1.000000 1.000000 0.733148 -0.472814 -0.488817
5454 1 16.968363 -11.430207 -12.238228 0 1.000000 1.000000 1.000000 0.711715 -0.479689 -0.513186
5455 1 16.868768 -10.898307 -12.846086 0 1.000000 1.000000 1.000000 0.707549 -0.456982 -0.539019
5456 1 16.320340 -11.033034 -13.426129 0 1.000000 1.000000 1.000000 0.684450 -0.463057 -0.563122
5457 1 16.192316 -10.481075 -14.010816 0 1.000000 1.000000 1.000000 0.679289 -0.439513 -0.587703
5458 1 15.612742 -10.595714 -14.571047 0 1.000000 1.000000 1.000000 0.654708 -0.444675 -0.611246
5459 1 15.459324 -10.027223 -15.126615 0 1.000000 1.000000 1.000000 0.648635 -0.420571 -0.634344
5460 1 14.852988 -10.122833 -15.660977 0 1.000000 1.000000 1.000000 0.622801 -0.424738 -0.657051
5461 1 14.677983 -9.541839 -16.182413 0 1.000000 1.000000 1.000000 0.615927 -0.400367 -0.678483
5462 1 14.050039 -9.620034 -16.685743 0 1.000000 1.000000 1.000000 0.589108 -0.403487 -0.700107
5463 1 13.857792 -9.030872 -17.169199 0 1.000000 1.000000 1.000000 0.581564 -0.379144 -0.719745
5464 1 13.213891 -9.093692 -17.637454 0 1.000000 1.000000 1.000000 0.554046 -0.381199 -0.740081
5465 1 13.009020 -8.500789 -18.080369 0 1.000000 1.000000 1.000000 0.545978 -0.357161 -0.757855
5466 1 12.355009 -8.550551 -18.510750 0 1.000000 1.000000 1.000000 0.518052 -0.358168 -0.776748
5467 1 12.142138 -7.958217 -18.911863 0 1.000000 1.000000 1.000000 0.509610 -0.334686 -0.792643
5468 1 11.483768 -7.997359 -19.302830 0 1.000000 1.000000 1.000000 0.481559 -0.334689 -0.809990
5469 1 18.412436 -13.618423 -6.630227 0 1.000000 1.000000 1.000000 0.772844 -0.570579 -0.277762
5470 1 18.463779 -13.216225 -7.269548 0 1.000000 1.000000 1.000000 0.773770 -0.554862 -0.305627
5471 1 18.058378 -13.439638 -7.853662 0 1.000000 1.000000 1.000000 0.757862 -0.563310 -0.329129
5472 1 18.080369 -13.009020 -8.500789 0 1.000000 1.000000 1.000000 0.757855 -0.545978 -0.357161
5473 1 17.637454 -13.213891 -9.093692 0 1.000000 1.000000 1.000000 0.740081 -0.554046 -0.381199
5474 1 17.628729 -12.754783 -9.742518 0 1.000000 1.000000 1.000000 0.739071 -0.535154 -0.409126
5475 1 17.148088 -12.939302 -10.338129 0 1.000000 1.000000 1.000000 0.719441 -0.542695 -0.433460
5476 1 17.108138 -12.452387 -10.981954 0 1.000000 1.000000 1.000000 0.717382 -0.522352 -0.460989
5477 1 16.590614 -12.615287 -11.573609 0 1.000000 1.000000 1.000000 0.695960 -0.529224 -0.485347
5478 1 16.519905 -12.102078 -12.205426 0 1.000000 1.000000 1.000000 0.692838 -0.507591 -0.512178
5479 1 15.967482 -12.242745 -12.786183 0 1.000000 1.000000 1.000000 0.669746 -0.513664 -0.536274
5480 1 15.867511 -11.705600 -13.399029 0 1.000000 1.000000 1.000000 0.665579 -0.490951 -0.562114
5481 1 15.283313 -11.824141 -13.962027 0 1.000000 1.000000 1.000000 0.640998 -0.496112 -0.585657
5482 1 15.156568 -11.266214 -14.549359 0 1.000000 1.000000 1.000000 0.635837 -0.472569 -0.610238
5483 1 14.544764 -11.363457 -15.088188 0 1.000000 1.000000 1.000000 0.609997 -0.476736 -0.632950
5484 1 14.394602 -10.788568 -15.644239 0 1.000000 1.000000 1.000000 0.603925 -0.452640 -0.656042
5485 1 13.760216 -10.866004 -16.153290 0 1.000000 1.000000 1.000000 0.577095 -0.455761 -0.677675
5486 1 13.590657 -10.278465 -16.673357 0 1.000000 1.000000 1.000000 0.570223 -0.431403 -0.699097
5487 1 12.939302 -10.338129 -17.148088 0 1.000000 1.000000 1.000000 0.542695 -0.433460 -0.719441
5488 1 12.754783 -9.742518 -17.628729 0 1.000000 1.000000 1.000000 0.535154 -0.409126 -0.739071
5489 1 12.092361 -9.786835 -18.065840 0 1.000000 1.000000 1.000000 0.507228 -0.410134 -0.757964
5490 1 11.897459 -9.187771 -18.504947 0 1.000000 1.000000 1.000000 0.499160 -0.386096 -0.775738
5491 1 11.229859 -9.219381 -18.902439 0 1.000000 1.000000 1.000000 0.471130 -0.386100 -0.793072
5492 1 11.029039 -8.621303 -19.299209 0 1.000000 1.000000 1.000000 0.462680 -0.362598 -0.808980
5493 1 10.361860 -8.642894 -19.656332 0 1.000000 1.000000 1.000000 0.434817 -0.361667 -0.824700
5494 1 17.885050 -14.611806 -5.921943 0 1.000000 1.000000 1.000000 0.750801 -0.612059 -0.248358
5495 1 17.959814 -14.241415 -6.562118 0 1.000000 1.000000 1.000000 0.752568 -0.598017 -0.275713
5496 1 17.550322 -14.473567 -7.135781 0 1.000000 1.000000 1.000000 0.736622 -0.606485 -0.299273
5497 1 17.597543 -14.073988 -7.788004 0 1.000000 1.000000 1.000000 0.737546 -0.590802 -0.327076
5498 1 17.151278 -14.287271 -8.372310 0 1.000000 1.000000 1.000000 0.719752 -0.598878 -0.351143
5499 1 17.169199 -13.857792 -9.030872 0 1.000000 1.000000 1.000000 0.719745 -0.581564 -0.379144
5500 1 16.685743 -14.050039 -9.620034 0 1.000000 1.000000 1.000000 0.700107 -0.589108 -0.403487
5501 1 16.673357 -13.590657 -10.278465 0 1.000000 1.000000 1.000000 0.699097 -0.570223 -0.431403
5502 1 16.153290 -13.760216 -10.866004 0 1.000000 1.000000 1.000000 0.677675 -0.577095 -0.455761
5503 1 16.110497 -13.271760 -11.517324 0 1.000000 1.000000 1.000000 0.675617 -0.556752 -0.483290
5504 1 15.555507 -13.417629 -12.096347 0 1.000000 1.000000 1.000000 0.652528 -0.562823 -0.507383
5505 1 15.483201 -12.901823 -12.733390 0 1.000000 1.000000 1.000000 0.649406 -0.541188 -0.534216
5506 1 14.896121 -13.023753 -13.296929 0 1.000000 1.000000 1.000000 0.624826 -0.546350 -0.557758
5507 1 14.796203 -12.483216 -13.912721 0 1.000000 1.000000 1.000000 0.620659 -0.523636 -0.583599
5508 1 14.180941 -12.581748 -14.454114 0 1.000000 1.000000 1.000000 0.594818 -0.527803 -0.606313
5509 1 14.056247 -12.019917 -15.042250 0 1.000000 1.000000 1.000000 0.589657 -0.504261 -0.630893
5510 1 13.417629 -12.096347 -15.555507 0 1.000000 1.000000 1.000000 0.562823 -0.507383 -0.652528
5511 1 13.271760 -11.517324 -16.110497 0 1.000000 1.000000 1.000000 0.556752 -0.483290 -0.675617
5512 1 12.615287 -11.573609 -16.590614 0 1.000000 1.000000 1.000000 0.529224 -0.485347 -0.695960
5513 1 12.452387 -10.981954 -17.108138 0 1.000000 1.000000 1.000000 0.522352 -0.460989 -0.717382
5514 1 11.783942 -11.020559 -17.551315 0 1.000000 1.000000 1.000000 0.494437 -0.461997 -0.736268
5515 1 11.608435 -10.421051 -18.028376 0 1.000000 1.000000 1.000000 0.486893 -0.437654 -0.755906
5516 1 10.933971 -10.444764 -18.432125 0 1.000000 1.000000 1.000000 0.458893 -0.437658 -0.773222
5517 1 10.750297 -9.842158 -18.867080 0 1.000000 1.000000 1.000000 0.450815 -0.413592 -0.791016
5518 1 10.075551 -9.853905 -19.230215 0 1.000000 1.000000 1.000000 0.423013 -0.412664 -0.806702
5519 1 9.887933 -9.252718 -19.622696 0 1.000000 1.000000 1.000000 0.414543 -0.389106 -0.822649
5520 1 9.218181 -9.255387 -19.945231 0 1.000000 1.000000 1.000000 0.387190 -0.387335 -0.836693
5521 1 17.311585 -15.545551 -5.206613 0 1.000000 1.000000 1.000000 0.726809 -0.651087 -0.218709
5522 1 17.406310 -15.209384 -5.843149 0 1.000000 1.000000 1.000000 0.729304 -0.638722 -0.245257
5523 1 16.993085 -15.448270 -6.404442 0 1.000000 1.000000 1.000000 0.713299 -0.647221 -0.268905
5524 1 17.062333 -15.082845 -7.056899 0 1.000000 1.000000 1.000000 0.715060 -0.633228 -0.296162
5525 1 16.613304 -15.302758 -7.630441 0 1.000000 1.000000 1.000000 0.697227 -0.641321 -0.320283
5526 1 16.655029 -14.906763 -8.293629 0 1.000000 1.000000 1.000000 0.698150 -0.625671 -0.348027
5527 1 16.169620 -15.105227 -8.873996 0 1.000000 1.000000 1.000000 0.678490 -0.633222 -0.372398
5528 1 16.182413 -14.677983 -9.541839 0 1.000000 1.000000 1.000000 0.678483 -0.615927 -0.400367
5529 1 15.660977 -14.852988 -10.122833 0 1.000000 1.000000 1.000000 0.657051 -0.622801 -0.424738
5530 1 15.644239 -14.394602 -10.788568 0 1.000000 1.000000 1.000000 0.656042 -0.603925 -0.452640
5531 1 15.088188 -14.544764 -11.363457 0 1.000000 1.000000 1.000000 0.632950 -0.609997 -0.476736
5532 1 15.042250 -14.056247 -12.019917 0 1.000000 1.000000 1.000000 0.630893 -0.589657 -0.504261
5533 1 14.454114 -14.180941 -12.581748 0 1.000000 1.000000 1.000000 0.606313 -0.594818 -0.527803
5534 1 14.380292 -13.664254 -13.221718 0 1.000000 1.000000 1.000000 0.603192 -0.573183 -0.554636
5535 1 13.763686 -13.763686 -13.763686 0 1.000000 1.000000 1.000000 0.577350 -0.577350 -0.577350
5536 1 13.664254 -13.221718 -14.380292 0 1.000000 1.000000 1.000000 0.573183 -0.554636 -0.603192
5537 1 13.023753 -13.296929 -14.896121 0 1.000000 1.000000 1.000000 0.546350 -0.557758 -0.624826
5538 1 12.901823 -12.733390 -15.483201 0 1.000000 1.000000 1.000000 0.541188 -0.534216 -0.649406
5539 1 12.242745 -12.786183 -15.967482 0 1.000000 1.000000 1.000000 0.513664 -0.536274 -0.669746
5540 1 12.102078 -12.205426 -16.519905 0 1.000000 1.000000 1.000000 0.507591 -0.512178 -0.692838
5541 1 11.430207 -12.238228 -16.968363 0 1.000000 1.000000 1.000000 0.479689 -0.513186 -0.711715
5542 1 11.274970 -11.645016 -17.482248 0 1.000000 1.000000 1.000000 0.472814 -0.488817 -0.733148
5543 1 10.596251 -11.660696 -17.891895 0 1.000000 1.000000 1.000000 0.444845 -0.488822 -0.750444
5544 1 10.430758 -11.059952 -18.364710 0 1.000000 1.000000 1.000000 0.437291 -0.464452 -0.770105
5545 1 9.750997 -11.061619 -18.733889 0 1.000000 1.000000 1.000000 0.409548 -0.463526 -0.785757
5546 1 9.579462 -10.458177 -19.164438 0 1.000000 1.000000 1.000000 0.401452 -0.439408 -0.803590
5547 1 8.904067 -10.448982 -19.492748 0 1.000000 1.000000 1.000000 0.374196 -0.437643 -0.817585
5548 1 8.730403 -9.847379 -19.881060 0 1.000000 1.000000 1.000000 0.365693 -0.413998 -0.833591
5549 1 8.064191 -9.830348 -20.169210 0 1.000000 1.000000 1.000000 0.339147 -0.411499 -0.845960
5550 1 16.699815 -16.414248 -4.491220 0 1.000000 1.000000 1.000000 0.701194 -0.687438 -0.189094
5551 1 16.810727 -16.113685 -5.119910 0 1.000000 1.000000 1.000000 0.704291 -0.676706 -0.214577
5552 1 16.394299 -16.357199 -5.667271 0 1.000000 1.000000 1.000000 0.688214 -0.685243 -0.238334
5553 1 16.481931 -16.027951 -6.315267 0 1.000000 1.000000 1.000000 0.690697 -0.672935 -0.264757
5554 1 16.030856 -16.252584 -6.876205 0 1.000000 1.000000 1.000000 0.672814 -0.681051 -0.288948
5555 1 16.092982 -15.892816 -7.538921 0 1.000000 1.000000 1.000000 0.674569 -0.667099 -0.316125
5556 1 15.606575 -16.095840 -8.108425 0 1.000000 1.000000 1.000000 0.654878 -0.674662 -0.340537
5557 1 15.641489 -15.704247 -8.780312 0 1.000000 1.000000 1.000000 0.655800 -0.659037 -0.368234
5558 1 15.119920 -15.883338 -9.352544 0 1.000000 1.000000 1.000000 0.634351 -0.665917 -0.392624
5559 1 15.126615 -15.459324 -10.027223 0 1.000000 1.000000 1.000000 0.634344 -0.648635 -0.420571
5560 1 14.571047 -15.612742 -10.595714 0 1.000000 1.000000 1.000000 0.611246 -0.654708 -0.444675
5561 1 14.549359 -15.156568 -11.266214 0 1.000000 1.000000 1.000000 0.610238 -0.635837 -0.472569
5562 1 13.962027 -15.283313 -11.824141 0 1.000000 1.000000 1.000000 0.585657 -0.640998 -0.496112
5563 1 13.912721 -14.796203 -12.483216 0 1.000000 1.000000 1.000000 0.583599 -0.620659 -0.523636
5564 1 13.296929 -14.896121 -13.023753 0 1.000000 1.000000 1.000000 0.557758 -0.624826 -0.546350
5565 1 13.221718 -14.380292 -13.664254 0 1.000000 1.000000 1.000000 0.554636 -0.603192 -0.573183
5566 1 12.581748 -14.454114 -14.180941 0 1.000000 1.000000 1.000000 0.527803 -0.606313 -0.594818
5567 1 12.483216 -13.912721 -14.796203 0 1.000000 1.000000 1.000000 0.523636 -0.583599 -0.620659
5568 1 11.824141 -13.962027 -15.283313 0 1.000000 1.000000 1.000000 0.496112 -0.585657 -0.640998
5569 1 11.705600 -13.399029 -15.867511 0 1.000000 1.000000 1.000000 0.490951 -0.562114 -0.665579
5570 1 11.033034 -13.426129 -16.320340 0 1.000000 1.000000 1.000000 0.463057 -0.563122 -0.684450
5571 1 10.898307 -12.846086 -16.868768 0 1.000000 1.000000 1.000000 0.456982 -0.539019 -0.707549
5572 1 10.218106 -12.853851 -17.283846 0 1.000000 1.000000 1.000000 0.429036 -0.539025 -0.724831
5573 1 10.071286 -12.261673 -17.793088 0 1.000000 1.000000 1.000000 0.422154 -0.514636 -0.746281
5574 1 9.389253 -12.253324 -18.168263 0 1.000000 1.000000 1.000000 0.394457 -0.513713 -0.761907
5575 1 9.234456 -11.654014 -18.636249 0 1.000000 1.000000 1.000000 0.386890 -0.489304 -0.781600
5576 1 8.556070 -11.632912 -18.970663 0 1.000000 1.000000 1.000000 0.359714 -0.487545 -0.795553
5577 1 8.397215 -11.031322 -19.396613 0 1.000000 1.000000 1.000000 0.351594 -0.463357 -0.813438
5578 1 7.727416 -11.000770 -19.690582 0 1.000000 1.000000 1.000000 0.325171 -0.460871 -0.825749
5579 1 7.568055 -10.401400 -20.074868 0 1.000000 1.000000 1.000000 0.316628 -0.437117 -0.841828
5580 1 6.911100 -10.364489 -20.329695 0 1.000000 1.000000 1.000000 0.291147 -0.434015 -0.852563
5581 1 16.058003 -17.214487 -3.782316 0 1.000000 1.000000 1.000000 0.674301 -0.720965 -0.159774
5582 1 16.181228 -16.949904 -4.399386 0 1.000000 1.000000 1.000000 0.677872 -0.711787 -0.183980
5583 1 15.762282 -17.195937 -4.931625 0 1.000000 1.000000 1.000000 0.661716 -0.720367 -0.207855
5584 1 15.864440 -16.903794 -5.570821 0 1.000000 1.000000 1.000000 0.664797 -0.709692 -0.233199
5585 1 15.412155 -17.131201 -6.117677 0 1.000000 1.000000 1.000000 0.646858 -0.717834 -0.257466
5586 1 15.490938 -16.809237 -6.775065 0 1.000000 1.000000 1.000000 0.649333 -0.705567 -0.283799
5587 1 15.004566 -17.015100 -7.331971 0 1.000000 1.000000 1.000000 0.629607 -0.713144 -0.308255
5588 1 15.058077 -16.661471 -8.002615 0 1.000000 1.000000 1.000000 0.631359 -0.699218 -0.335379
5589 1 14.537649 -16.843209 -8.564149 0 1.000000 1.000000 1.000000 0.609893 -0.706103 -0.359791
5590 1 14.564578 -16.456670 -9.242192 0 1.000000 1.000000 1.000000 0.610814 -0.690492 -0.387463
5591 1 14.011041 -16.612229 -9.802232 0 1.000000 1.000000 1.000000 0.587709 -0.696566 -0.411574
5592 1 14.010816 -16.192316 -10.481075 0 1.000000 1.000000 1.000000 0.587703 -0.679289 -0.439513
5593 1 13.426129 -16.320340 -11.033034 0 1.000000 1.000000 1.000000 0.563122 -0.684450 -0.463057
5594 1 13.399029 -15.867511 -11.705600 0 1.000000 1.000000 1.000000 0.562114 -0.665579 -0.490951
5595 1 12.786183 -15.967482 -12.242745 0 1.000000 1.000000 1.000000 0.536274 -0.669746 -0.513664
5596 1 12.733390 -15.483201 -12.901823 0 1.000000 1.000000 1.000000 0.534216 -0.649406 -0.541188
5597 1 12.096347 -15.555507 -13.417629 0 1.000000 1.000000 1.000000 0.507383 -0.652528 -0.562823
5598 1 12.019917 -15.042250 -14.056247 0 1.000000 1.000000 1.000000 0.504261 -0.630893 -0.589657
5599 1 11.363457 -15.088188 -14.544764 0 1.000000 1.000000 1.000000 0.476736 -0.632950 -0.609997
5600 1 11.266214 -14.549359 -15.156568 0 1.000000 1.000000 1.000000 0.472569 -0.610238 -0.635837
5601 1 10.595714 -14.571047 -15.612742 0 1.000000 1.000000 1.000000 0.444675 -0.611246 -0.654708
5602 1 10.481075 -14.010816 -16.192316 0 1.000000 1.000000 1.000000 0.439513 -0.587703 -0.679289
5603 1 9.802232 -14.011041 -16.612229 0 1.000000 1.000000 1.000000 0.411574 -0.587709 -0.696566
5604 1 9.673989 -13.434120 -17.155332 0 1.000000 1.000000 1.000000 0.405497 -0.563599 -0.719672
5605 1 8.992529 -13.416136 -17.536342 0 1.000000 1.000000 1.000000 0.377825 -0.562678 -0.735284
5606 1 8.854612 -12.827518 -18.040032 0 1.000000 1.000000 1.000000 0.370937 -0.538268 -0.756752
5607 1 8.176017 -12.794825 -18.380795 0 1.000000 1.000000 1.000000 0.343814 -0.536514 -0.770678
5608 1 8.032271 -12.199528 -18.843440 0 1.000000 1.000000 1.000000 0.336233 -0.512060 -0.790406
5609 1 7.361550 -12.155653 -19.143829 0 1.000000 1.000000 1.000000 0.309901 -0.509583 -0.802675
5610 1 7.215549 -11.558486 -19.565021 0 1.000000 1.000000 1.000000 0.301753 -0.485318 -0.820616
5611 1 6.557073 -11.506805 -19.825966 0 1.000000 1.000000 1.000000 0.276411 -0.482235 -0.831292
5612 1 6.411984 -10.912179 -20.206355 0 1.000000 1.000000 1.000000 0.267825 -0.458363 -0.847451
5613 1 5.769390 -10.855775 -20.429642 0 1.000000 1.000000 1.000000 0.243620 -0.454789 -0.856631
5614 1 15.394486 -17.944793 -3.085769 0 1.000000 1.000000 1.000000 0.646484 -0.751600 -0.130981
5615 1 15.526237 -17.715657 -3.687990 0 1.000000 1.000000 1.000000 0.650400 -0.743869 -0.153748
5616 1 15.105594 -17.962192 -4.204281 0 1.000000 1.000000 1.000000 0.634167 -0.752490 -0.177738
5617 1 15.218414 -17.707056 -4.830845 0 1.000000 1.000000 1.000000 0.637718 -0.743364 -0.201804
5618 1 14.765849 -17.935345 -5.362513 0 1.000000 1.000000 1.000000 0.619726 -0.751531 -0.226146
5619 1 14.857431 -17.651633 -6.010149 0 1.000000 1.000000 1.000000 0.622796 -0.740893 -0.251401
5620 1 14.372178 -17.858634 -6.553080 0 1.000000 1.000000 1.000000 0.603039 -0.748482 -0.275897
5621 1 14.440529 -17.544065 -7.217514 0 1.000000 1.000000 1.000000 0.605510 -0.736236 -0.302181
5622 1 13.922521 -17.727005 -7.766737 0 1.000000 1.000000 1.000000 0.584030 -0.743126 -0.326608
5623 1 13.966129 -17.379779 -8.442728 0 1.000000 1.000000 1.000000 0.585782 -0.729209 -0.353714
5624 1 13.416136 -17.536342 -8.992529 0 1.000000 1.000000 1.000000 0.562678 -0.735284 -0.377825
5625 1 13.434120 -17.155332 -9.673989 0 1.000000 1.000000 1.000000 0.563599 -0.719672 -0.405497
5626 1 12.853851 -17.283846 -10.218106 0 1.000000 1.000000 1.000000 0.539025 -0.724831 -0.429036
5627 1 12.846086 -16.868768 -10.898307 0 1.000000 1.000000 1.000000 0.539019 -0.707549 -0.456982
5628 1 12.238228 -16.968363 -11.430207 0 1.000000 1.000000 1.000000 0.513186 -0.711715 -0.479689
5629 1 12.205426 -16.519905 -12.102078 0 1.000000 1.000000 1.000000 0.512178 -0.692838 -0.507591
5630 1 11.573609 -16.590614 -12.615287 0 1.000000 1.000000 1.000000 0.485347 -0.695960 -0.529224
5631 1 11.517324 -16.110497 -13.271760 0 1.000000 1.000000 1.000000 0.483290 -0.675617 -0.556752
5632 1 10.866004 -16.153290 -13.760216 0 1.000000 1.000000 1.000000 0.455761 -0.677675 -0.577095
5633 1 10.788568 -15.644239 -14.394602 0 1.000000 1.000000 1.000000 0.452640 -0.656042 -0.603925
5634 1 10.122833 -15.660977 -14.852988 0 1.000000 1.000000 1.000000 0.424738 -0.657051 -0.622801
5635 1 10.027223 -15.126615 -15.459324 0 1.000000 1.000000 1.000000 0.420571 -0.634344 -0.648635
5636 1 9.352544 -15.119920 -15.883338 0 1.000000 1.000000 1.000000 0.392624 -0.634351 -0.665917
5637 1 9.242192 -14.564578 -16.456670 0 1.000000 1.000000 1.000000 0.387463 -0.610814 -0.690492
5638 1 8.564149 -14.537649 -16.843209 0 1.000000 1.000000 1.000000 0.359791 -0.609893 -0.706103
5639 1 8.442728 -13.966129 -17.379779 0 1.000000 1.000000 1.000000 0.353714 -0.585782 -0.729209
5640 1 7.766737 -13.922521 -17.727005 0 1.000000 1.000000 1.000000 0.326608 -0.584030 -0.743126
5641 1 7.637942 -13.339834 -18.224332 0 1.000000 1.000000 1.000000 0.319715 -0.559606 -0.764607
5642 1 6.969020 -13.283231 -18.531640 0 1.000000 1.000000 1.000000 0.293431 -0.557134 -0.776853
5643 1 6.836373 -12.694347 -18.988492 0 1.000000 1.000000 1.000000 0.285837 -0.532641 -0.796612
5644 1 6.178962 -12.628357 -19.256388 0 1.000000 1.000000 1.000000 0.260583 -0.529568 -0.807251
5645 1 6.045662 -12.037983 -19.672670 0 1.000000 1.000000 1.000000 0.252410 -0.505231 -0.825246
5646 1 5.403509 -11.965974 -19.902584 0 1.000000 1.000000 1.000000 0.228344 -0.501678 -0.834373
5647 1 5.272327 -11.378391 -20.279167 0 1.000000 1.000000 1.000000 0.219716 -0.477692 -0.850609
5648 1 4.648437 -11.303369 -20.473242 0 1.000000 1.000000 1.000000 0.196950 -0.473773 -0.858341
5649 1 14.717307 -18.605434 -2.406611 0 1.000000 1.000000 1.000000 0.618080 -0.779350 -0.102913
5650 1 14.854048 -18.410448 -2.991353 0 1.000000 1.000000 1.000000 0.622220 -0.772938 -0.124131
5651 1 14.432624 -18.655634 -3.491206 0 1.000000 1.000000 1.000000 0.605921 -0.781595 -0.148221
5652 1 14.552419 -18.436515 -4.101912 0 1.000000 1.000000 1.000000 0.609816 -0.773906 -0.170864
5653 1 14.100568 -18.663929 -4.617641 0 1.000000 1.000000 1.000000 0.591781 -0.782091 -0.195263
5654 1 14.201178 -18.417896 -5.251678 0 1.000000 1.000000 1.000000 0.595322 -0.772992 -0.219258
5655 1 13.718148 -18.624432 -5.779615 0 1.000000 1.000000 1.000000 0.575546 -0.780589 -0.243779
5656 1 13.797566 -18.348883 -6.433381 0 1.000000 1.000000 1.000000 0.578614 -0.769963 -0.269003
5657 1 13.283231 -18.531640 -6.969020 0 1.000000 1.000000 1.000000 0.557134 -0.776853 -0.293431
5658 1 13.339834 -18.224332 -7.637942 0 1.000000 1.000000 1.000000 0.559606 -0.764607 -0.319715
5659 1 12.794825 -18.380795 -8.176017 0 1.000000 1.000000 1.000000 0.536514 -0.770678 -0.343814
5660 1 12.827518 -18.040032 -8.854612 0 1.000000 1.000000 1.000000 0.538268 -0.756752 -0.370937
5661 1 12.253324 -18.168263 -9.389253 0 1.000000 1.000000 1.000000 0.513713 -0.761907 -0.394457
5662 1 12.261673 -17.793088 -10.071286 0 1.000000 1.000000 1.000000 0.514636 -0.746281 -0.422154
5663 1 11.660696 -17.891895 -10.596251 0 1.000000 1.000000 1.000000 0.488822 -0.750444 -0.444845
5664 1 11.645016 -17.482248 -11.274970 0 1.000000 1.000000 1.000000 0.488817 -0.733148 -0.472814
5665 1 11.020559 -17.551315 -11.783942 0 1.000000 1.000000 1.000000 0.461997 -0.736268 -0.494437
5666 1 10.981954 -17.108138 -12.452387 0 1.000000 1.000000 1.000000 0.460989 -0.717382 -0.522352
5667 1 10.338129 -17.148088 -12.939302 0 1.000000 1.000000 1.000000 0.433460 -0.719441 -0.542695
5668 1 10.278465 -16.673357 -13.590657 0 1.000000 1.000000 1.000000 0.431403 -0.699097 -0.570223
5669 1 9.620034 -16.685743 -14.050039 0 1.000000 1.000000 1.000000 0.403487 -0.700107 -0.589108
5670 1 9.541839 -16.182413 -14.677983 0 1.000000 1.000000 1.000000 0.400367 -0.678483 -0.615927
5671 1 8.873996 -16.169620 -15.105227 0 1.000000 1.000000 1.000000 0.372398 -0.678490 -0.633222
5672 1 8.780312 -15.641489 -15.704247 0 1.000000 1.000000 1.000000 0.368234 -0.655800 -0.659037
5673 1 8.108425 -15.606575 -16.095840 0 1.000000 1.000000 1.000000 0.340537 -0.654878 -0.674662
5674 1 8.002615 -15.058077 -16.661471 0 1.000000 1.000000 1.000000 0.335379 -0.631359 -0.699218
5675 1 7.331971 -15.004566 -17.015100 0 1.000000 1.000000 1.000000 0.308255 -0.629607 -0.713144
5676 1 7.217514 -14.440529 -17.544065 0 1.000000 1.000000 1.000000 0.302181 -0.605510 -0.736236
5677 1 6.553080 -14.372178 -17.858634 0 1.000000 1.000000 1.000000 0.275897 -0.603039 -0.748482
5678 1 6.433381 -13.797566 -18.348883 0 1.000000 1.000000 1.000000 0.269003 -0.578614 -0.769963
5679 1 5.779615 -13.718148 -18.624432 0 1.000000 1.000000 1.000000 0.243779 -0.575546 -0.780589
5680 1 5.657843 -13.137824 -19.075084 0 1.000000 1.000000 1.000000 0.236177 -0.551028 -0.800368
5681 1 5.018563 -13.050941 -19.312634 0 1.000000 1.000000 1.000000 0.212183 -0.547486 -0.809467
5682 1 4.897530 -12.469465 -19.723851 0 1.000000 1.000000 1.000000 0.203990 -0.523091 -0.827504
5683 1 4.275849 -12.378402 -19.925213 0 1.000000 1.000000 1.000000 0.181348 -0.519194 -0.835195
5684 1 4.157938 -11.799888 -20.298022 0 1.000000 1.000000 1.000000 0.172683 -0.495109 -0.851497
5685 1 3.556247 -11.707519 -20.465585 0 1.000000 1.000000 1.000000 0.151466 -0.490967 -0.857910
5686 1 14.033924 -19.198158 -1.748944 0 1.000000 1.000000 1.000000 0.589404 -0.804281 -0.075733
5687 1 14.172481 -19.035429 -2.314192 0 1.000000 1.000000 1.000000 0.593659 -0.799049 -0.095340
5688 1 13.751250 -19.277632 -2.797414 0 1.000000 1.000000 1.000000 0.577310 -0.807733 -0.119504
5689 1 13.874652 -19.092823 -3.389685 0 1.000000 1.000000 1.000000 0.581433 -0.801349 -0.140627
5690 1 13.424535 -19.317790 -3.889049 0 1.000000 1.000000 1.000000 0.563374 -0.809546 -0.165060
5691 1 13.530656 -19.108015 -4.506299 0 1.000000 1.000000 1.000000 0.567263 -0.801870 -0.187661
5692 1 13.050941 -19.312634 -5.018563 0 1.000000 1.000000 1.000000 0.547486 -0.809467 -0.212183
5693 1 13.137824 -19.075084 -5.657843 0 1.000000 1.000000 1.000000 0.551028 -0.800368 -0.236177
5694 1 12.628357 -19.256388 -6.178962 0 1.000000 1.000000 1.000000 0.529568 -0.807251 -0.260583
5695 1 12.694347 -18.988492 -6.836373 0 1.000000 1.000000 1.000000 0.532641 -0.796612 -0.285837
5696 1 12.155653 -19.143829 -7.361550 0 1.000000 1.000000 1.000000 0.509583 -0.802675 -0.309901
5697 1 12.199528 -18.843440 -8.032271 0 1.000000 1.000000 1.000000 0.512060 -0.790406 -0.336233
5698 1 11.632912 -18.970663 -8.556070 0 1.000000 1.000000 1.000000 0.487545 -0.795553 -0.359714
5699 1 11.654014 -18.636249 -9.234456 0 1.000000 1.000000 1.000000 0.489304 -0.781600 -0.386890
5700 1 11.061619 -18.733889 -9.750997 0 1.000000 1.000000 1.000000 0.463526 -0.785757 -0.409548
5701 1 11.059952 -18.364710 -10.430758 0 1.000000 1.000000 1.000000 0.464452 -0.770105 -0.437291
5702 1 10.444764 -18.432125 -10.933971 0 1.000000 1.000000 1.000000 0.437658 -0.773222 -0.458893
5703 1 10.421051 -18.028376 -11.608435 0 1.000000 1.000000 1.000000 0.437654 -0.755906 -0.486893
5704 1 9.786835 -18.065840 -12.092361 0 1.000000 1.000000 1.000000 0.410134 -0.757964 -0.507228
5705 1 9.742518 -17.628729 -12.754783 0 1.000000 1.000000 1.000000 0.409126 -0.739071 -0.535154
5706 1 9.093692 -17.637454 -13.213891 0 1.000000 1.000000 1.000000 0.381199 -0.740081 -0.554046
5707 1 9.030872 -17.169199 -13.857792 0 1.000000 1.000000 1.000000 0.379144 -0.719745 -0.581564
5708 1 8.372310 -17.151278 -14.287271 0 1.000000 1.000000 1.000000 0.351143 -0.719752 -0.598878
5709 1 8.293629 -16.655029 -14.906763 0 1.000000 1.000000 1.000000 0.348027 -0.698150 -0.625671
5710 1 7.630441 -16.613304 -15.302758 0 1.000000 1.000000 1.000000 0.320283 -0.697227 -0.641321
5711 1 7.538921 -16.092982 -15.892816 0 1.000000 1.000000 1.000000 0.316125 -0.674569 -0.667099
5712 1 6.876205 -16.030856 -16.252584 0 1.000000 1.000000 1.000000 0.288948 -0.672814 -0.681051
5713 1 6.775065 -15.490938 -16.809237 0 1.000000 1.000000 1.000000 0.283799 -0.649333 -0.705567
5714 1 6.117677 -15.412155 -17.131201 0 1.000000 1.000000 1.000000 0.257466 -0.646858 -0.717834
5715 1 6.010149 -14.857431 -17.651633 0 1.000000 1.000000 1.000000 0.251401 -0.622796 -0.740893
5716 1 5.362513 -14.765849 -17.935345 0 1.000000 1.000000 1.000000 0.226146 -0.619726 -0.751531
5717 1 5.251678 -14.201178 -18.417896 0 1.000000 1.000000 1.000000 0.219258 -0.595322 -0.772992
5718 1 4.617641 -14.100568 -18.663929 0 1.000000 1.000000 1.000000 0.195263 -0.591781 -0.782091
5719 1 4.506299 -13.530656 -19.108015 0 1.000000 1.000000 1.000000 0.187661 -0.567263 -0.801870
5720 1 3.889049 -13.424535 -19.317790 0 1.000000 1.000000 1.000000 0.165060 -0.563374 -0.809546
5721 1 3.779632 -12.853757 -19.723771 0 1.000000 1.000000 1.000000 0.156856 -0.538946 -0.827607
5722 1 3.181665 -12.745268 -19.899363 0 1.000000 1.000000 1.000000 0.135732 -0.534823 -0.833991
5723 1 3.076190 -12.177544 -20.268368 0 1.000000 1.000000 1.000000 0.127041 -0.510664 -0.850343
5724 1 2.499330 -12.069387 -20.412309 0 1.000000 1.000000 1.000000 0.107435 -0.506408 -0.855575
5725 1 13.351008 -19.725886 -1.115930 0 1.000000 1.000000 1.000000 0.560738 -0.826508 -0.049563
5726 1 13.488641 -19.593098 -1.660259 0 1.000000 1.000000 1.000000 0.565012 -0.822314 -0.067540
5727 1 13.068592 -19.830928 -2.126904 0 1.000000 1.000000 1.000000 0.548637 -0.831012 -0.091744
5728 1 13.192644 -19.678191 -2.698810 0 1.000000 1.000000 1.000000 0.552881 -0.825794 -0.111299
5729 1 12.745268 -19.899363 -3.181665 0 1.000000 1.000000 1.000000 0.534823 -0.833991 -0.135732
5730 1 12.853757 -19.723771 -3.779632 0 1.000000 1.000000 1.000000 0.538946 -0.827607 -0.156856
5731 1 12.378402 -19.925213 -4.275849 0 1.000000 1.000000 1.000000 0.519194 -0.835195 -0.181348
5732 1 12.469465 -19.723851 -4.897530 0 1.000000 1.000000 1.000000 0.523091 -0.827504 -0.203990
5733 1 11.965974 -19.902584 -5.403509 0 1.000000 1.000000 1.000000 0.501678 -0.834373 -0.228344
5734 1 12.037983 -19.672670 -6.045662 0 1.000000 1.000000 1.000000 0.505231 -0.825246 -0.252410
5735 1 11.506805 -19.825966 -6.557073 0 1.000000 1.000000 1.000000 0.482235 -0.831292 -0.276411
5736 1 11.558486 -19.565021 -7.215549 0 1.000000 1.000000 1.000000 0.485318 -0.820616 -0.301753
5737 1 11.000770 -19.690582 -7.727416 0 1.000000 1.000000 1.000000 0.460871 -0.825749 -0.325171
5738 1 11.031322 -19.396613 -8.397215 0 1.000000 1.000000 1.000000 0.463357 -0.813438 -0.351594
5739 1 10.448982 -19.492748 -8.904067 0 1.000000 1.000000 1.000000 0.437643 -0.817585 -0.374196
5740 1 10.458177 -19.164438 -9.579462 0 1.000000 1.000000 1.000000 0.439408 -0.803590 -0.401452
5741 1 9.853905 -19.230215 -10.075551 0 1.000000 1.000000 1.000000 0.412664 -0.806702 -0.423013
5742 1 9.842158 -18.867080 -10.750297 0 1.000000 1.000000 1.000000 0.413592 -0.791016 -0.450815
5743 1 9.219381 -18.902439 -11.229859 0 1.000000 1.000000 1.000000 0.386100 -0.793072 -0.471130
5744 1 9.187771 -18.504947 -11.897459 0 1.000000 1.000000 1.000000 0.386096 -0.775738 -0.499160
5745 1 8.550551 -18.510750 -12.355009 0 1.000000 1.000000 1.000000 0.358168 -0.776748 -0.518052
5746 1 8.500789 -18.080369 -13.009020 0 1.000000 1.000000 1.000000 0.357161 -0.757855 -0.545978
5747 1 7.853662 -18.058378 -13.439638 0 1.000000 1.000000 1.000000 0.329129 -0.757862 -0.563310
5748 1 7.788004 -17.597543 -14.073988 0 1.000000 1.000000 1.000000 0.327076 -0.737546 -0.590802
5749 1 7.135781 -17.550322 -14.473567 0 1.000000 1.000000 1.000000 0.299273 -0.736622 -0.606485
5750 1 7.056899 -17.062333 -15.082845 0 1.000000 1.000000 1.000000 0.296162 -0.715060 -0.633228
5751 1 6.404442 -16.993085 -15.448270 0 1.000000 1.000000 1.000000 0.268905 -0.713299 -0.647221
5752 1 6.315267 -16.481931 -16.027951 0 1.000000 1.000000 1.000000 0.264757 -0.690697 -0.672935
5753 1 5.667271 -16.394299 -16.357199 0 1.000000 1.000000 1.000000 0.238334 -0.688214 -0.685243
5754 1 5.570821 -15.864440 -16.903794 0 1.000000 1.000000 1.000000 0.233199 -0.664797 -0.709692
5755 1 4.931625 -15.762282 -17.195937 0 1.000000 1.000000 1.000000 0.207855 -0.661716 -0.720367
5756 1 4.830845 -15.218414 -17.707056 0 1.000000 1.000000 1.000000 0.201804 -0.637718 -0.743364
5757 1 4.204281 -15.105594 -17.962192 0 1.000000 1.000000 1.000000 0.177738 -0.634167 -0.752490
5758 1 4.101912 -14.552419 -18.436515 0 1.000000 1.000000 1.000000 0.170864 -0.609816 -0.773906
5759 1 3.491206 -14.432624 -18.655634 0 1.000000 1.000000 1.000000 0.148221 -0.605921 -0.781595
5760 1 3.389685 -13.874652 -19.092823 0 1.000000 1.000000 1.000000 0.140627 -0.581433 -0.801349
5761 1 2.797414 -13.751250 -19.277632 0 1.000000 1.000000 1.000000 0.119504 -0.577310 -0.807733
5762 1 2.698810 -13.192644 -19.678191 0 1.000000 1.000000 1.000000 0.111299 -0.552881 -0.825794
5763 1 2.126904 -13.068592 -19.830928 0 1.000000 1.000000 1.000000 0.091744 -0.548637 -0.831012
5764 1 2.032898 -12.513059 -20.196041 0 1.000000 1.000000 1.000000 0.083038 -0.524438 -0.847390
5765 1 1.482677 -12.390854 -20.319294 0 1.000000 1.000000 1.000000 0.065062 -0.520164 -0.851585
5766 1 12.674323 -20.192393 -0.509831 0 1.000000 1.000000 1.000000 0.532327 -0.846185 -0.024494
5767 1 12.808754 -20.086969 -1.032354 0 1.000000 1.000000 1.000000 0.536538 -0.842886 -0.040856
5768 1 12.390854 -20.319294 -1.482677 0 1.000000 1.000000 1.000000 0.520164 -0.851585 -0.065062
5769 1 12.513059 -20.196041 -2.032898 0 1.000000 1.000000 1.000000 0.524438 -0.847390 -0.083038
5770 1 12.069387 -20.412309 -2.499330 0 1.000000 1.000000 1.000000 0.506408 -0.855575 -0.107435
5771 1 12.177544 -20.268368 -3.076190 0 1.000000 1.000000 1.000000 0.510664 -0.850343 -0.127041
5772 1 11.707519 -20.465585 -3.556247 0 1.000000 1.000000 1.000000 0.490967 -0.857910 -0.151466
5773 1 11.799888 -20.298022 -4.157938 0 1.000000 1.000000 1.000000 0.495109 -0.851497 -0.172683
5774 1 11.303369 -20.473242 -4.648437 0 1.000000 1.000000 1.000000 0.473773 -0.858341 -0.196950
5775 1 11.378391 -20.279167 -5.272327 0 1.000000 1.000000 1.000000 0.477692 -0.850609 -0.219716
5776 1 10.855775 -20.429642 -5.769390 0 1.000000 1.000000 1.000000 0.454789 -0.856631 -0.243620
5777 1 10.912179 -20.206355 -6.411984 0 1.000000 1.000000 1.000000 0.458363 -0.847451 -0.267825
5778 1 10.364489 -20.329695 -6.911100 0 1.000000 1.000000 1.000000 0.434015 -0.852563 -0.291147
5779 1 10.401400 -20.074868 -7.568055 0 1.000000 1.000000 1.000000 0.437117 -0.841828 -0.316628
5780 1 9.830348 -20.169210 -8.064191 0 1.000000 1.000000 1.000000 0.411499 -0.845960 -0.339147
5781 1 9.847379 -19.881060 -8.730403 0 1.000000 1.000000 1.000000 0.413998 -0.833591 -0.365693
5782 1 9.255387 -19.945231 -9.218181 0 1.000000 1.000000 1.000000 0.387335 -0.836693 -0.387190
5783 1 9.252718 -19.622696 -9.887933 0 1.000000 1.000000 1.000000 0.389106 -0.822649 -0.414543
5784 1 8.642894 -19.656332 -10.361860 0 1.000000 1.000000 1.000000 0.361667 -0.824700 -0.434817
5785 1 8.621303 -19.299209 -11.029039 0 1.000000 1.000000 1.000000 0.362598 -0.808980 -0.462680
5786 1 7.997359 -19.302830 -11.483768 0 1.000000 1.000000 1.000000 0.334689 -0.809990 -0.481559
5787 1 7.958217 -18.911863 -12.142138 0 1.000000 1.000000 1.000000 0.334686 -0.792643 -0.509610
5788 1 7.324341 -18.886882 -12.572735 0 1.000000 1.000000 1.000000 0.306633 -0.792651 -0.526955
5789 1 7.269548 -18.463779 -13.216225 0 1.000000 1.000000 1.000000 0.305627 -0.773770 -0.554862
5790 1 6.630227 -18.412436 -13.618423 0 1.000000 1.000000 1.000000 0.277762 -0.772844 -0.570579
5791 1 6.562118 -17.959814 -14.241415 0 1.000000 1.000000 1.000000 0.275713 -0.752568 -0.598017
5792 1 5.921943 -17.885050 -14.611806 0 1.000000 1.000000 1.000000 0.248358 -0.750801 -0.612059
5793 1 5.843149 -17.406310 -15.209384 0 1.000000 1.000000 1.000000 0.245257 -0.729304 -0.638722
5794 1 5.206613 -17.311585 -15.545551 0 1.000000 1.000000 1.000000 0.218709 -0.726809 -0.651087
5795 1 5.119910 -16.810727 -16.113685 0 1.000000 1.000000 1.000000 0.214577 -0.704291 -0.676706
5796 1 4.491220 -16.699815 -16.414248 0 1.000000 1.000000 1.000000 0.189094 -0.701194 -0.687438
5797 1 4.399386 -16.181228 -16.949904 0 1.000000 1.000000 1.000000 0.183980 -0.677872 -0.711787
5798 1 3.782316 -16.058003 -17.214487 0 1.000000 1.000000 1.000000 0.159774 -0.674301 -0.720965
5799 1 3.687990 -15.526237 -17.715657 0 1.000000 1.000000 1.000000 0.153748 -0.650400 -0.743869
5800 1 3.085769 -15.394486 -17.944793 0 1.000000 1.000000 1.000000 0.130981 -0.646484 -0.751600
5801 1 2.991353 -14.854048 -18.410448 0 1.000000 1.000000 1.000000 0.124131 -0.622220 -0.772938
5802 1 2.406611 -14.717307 -18.605434 0 1.000000 1.000000 1.000000 0.102913 -0.618080 -0.779350
5803 1 2.314192 -14.172481 -19.035429 0 1.000000 1.000000 1.000000 0.095340 -0.593659 -0.799049
5804 1 1.748944 -14.033924 -19.198158 0 1.000000 1.000000 1.000000 0.075733 -0.589404 -0.804281
5805 1 1.660259 -13.488641 -19.593098 0 1.000000 1.000000 1.000000 0.067540 -0.565012 -0.822314
5806 1 1.115930 -13.351008 -19.725886 0 1.000000 1.000000 1.000000 0.049563 -0.560738 -0.826508
5807 1 1.032354 -12.808754 -20.086969 0 1.000000 1.000000 1.000000 0.040856 -0.536538 -0.842886
5808 1 0.509831 -12.674323 -20.192393 0 1.000000 1.000000 1.000000 0.024494 -0.532327 -0.846185
5809 1 12.164492 -20.507486 -0.315093 0 1.000000 1.000000 1.000000 0.507833 -0.861323 -0.015138
5810 1 11.274924 -21.008977 -0.322937 0 1.000000 1.000000 1.000000 0.470600 -0.882217 -0.015134
5811 1 11.776400 -20.724999 -0.638030 0 1.000000 1.000000 1.000000 0.495682 -0.868137 -0.025251
5812 1 11.868331 -20.642231 -1.283091 0 1.000000 1.000000 1.000000 0.495677 -0.866719 -0.055708
5813 1 10.320443 -21.493216 -0.330521 0 1.000000 1.000000 1.000000 0.430675 -0.902381 -0.015104
5814 1 10.852800 -21.222137 -0.653457 0 1.000000 1.000000 1.000000 0.456898 -0.889132 -0.026244
5815 1 10.941688 -21.145427 -1.314499 0 1.000000 1.000000 1.000000 0.456893 -0.887713 -0.056701
5816 1 11.455743 -20.849498 -1.629039 0 1.000000 1.000000 1.000000 0.481974 -0.873634 -0.066818
5817 1 11.534594 -20.742830 -2.295057 0 1.000000 1.000000 1.000000 0.481969 -0.870679 -0.098100
5818 1 9.300909 -21.952952 -0.337731 0 1.000000 1.000000 1.000000 0.388054 -0.921514 -0.015051
5819 1 9.863352 -21.698618 -0.668251 0 1.000000 1.000000 1.000000 0.415324 -0.909266 -0.027222
5820 1 9.947855 -21.628259 -1.344646 0 1.000000 1.000000 1.000000 0.415319 -0.907849 -0.057629
5821 1 10.493834 -21.346147 -1.667957 0 1.000000 1.000000 1.000000 0.441582 -0.894580 -0.068786
5822 1 10.569586 -21.244008 -2.350628 0 1.000000 1.000000 1.000000 0.441578 -0.891620 -0.100116
5823 1 11.096291 -20.936619 -2.663188 0 1.000000 1.000000 1.000000 0.466618 -0.877565 -0.110217
5824 1 11.161060 -20.803315 -3.347518 0 1.000000 1.000000 1.000000 0.466614 -0.872961 -0.142164
5825 1 8.217600 -22.380353 -0.344442 0 1.000000 1.000000 1.000000 0.342792 -0.939292 -0.014981
5826 1 8.808535 -22.146780 -0.682173 0 1.000000 1.000000 1.000000 0.370978 -0.928214 -0.028165
5827 1 8.887196 -22.082897 -1.373041 0 1.000000 1.000000 1.000000 0.370973 -0.926800 -0.058479
5828 1 9.464072 -21.818711 -1.704993 0 1.000000 1.000000 1.000000 0.398319 -0.914520 -0.070684
5829 1 9.535486 -21.721354 -2.403564 0 1.000000 1.000000 1.000000 0.398314 -0.911559 -0.102013
5830 1 10.095020 -21.428764 -2.725888 0 1.000000 1.000000 1.000000 0.424577 -0.898291 -0.113171
5831 1 10.156775 -21.298254 -3.427263 0 1.000000 1.000000 1.000000 0.424573 -0.893674 -0.145205
5832 1 10.696109 -20.980195 -3.736332 0 1.000000 1.000000 1.000000 0.449537 -0.879663 -0.155276
5833 1 10.746050 -20.817685 -4.435560 0 1.000000 1.000000 1.000000 0.449533 -0.873322 -0.187692
5834 1 7.073459 -22.767241 -0.350525 0 1.000000 1.000000 1.000000 0.295015 -0.955376 -0.014899
5835 1 7.690401 -22.558470 -0.694967 0 1.000000 1.000000 1.000000 0.323944 -0.945630 -0.029053
5836 1 7.761693 -22.500973 -1.399161 0 1.000000 1.000000 1.000000 0.323940 -0.944221 -0.059242
5837 1 8.367553 -22.258973 -1.739504 0 1.000000 1.000000 1.000000 0.352227 -0.933104 -0.072474
5838 1 8.433300 -22.166494 -2.452937 0 1.000000 1.000000 1.000000 0.352223 -0.930147 -0.103760
5839 1 9.024357 -21.893061 -2.785046 0 1.000000 1.000000 1.000000 0.379603 -0.917851 -0.115981
5840 1 9.082005 -21.765572 -3.502565 0 1.000000 1.000000 1.000000 0.379599 -0.913227 -0.148055
5841 1 9.654889 -21.463355 -3.822458 0 1.000000 1.000000 1.000000 0.405826 -0.899978 -0.159199
5842 1 9.702085 -21.301745 -4.538780 0 1.000000 1.000000 1.000000 0.405823 -0.893615 -0.191731
5843 1 10.253911 -20.974134 -4.842813 0 1.000000 1.000000 1.000000 0.430684 -0.879661 -0.201761
5844 1 10.288613 -20.780167 -5.552754 0 1.000000 1.000000 1.000000 0.430681 -0.871530 -0.234412
5845 1 5.873269 -23.105422 -0.355848 0 1.000000 1.000000 1.000000 0.244921 -0.969430 -0.014814
5846 1 6.512793 -22.925325 -0.706373 0 1.000000 1.000000 1.000000 0.274384 -0.961157 -0.029861
5847 1 6.575180 -22.873879 -1.422465 0 1.000000 1.000000 1.000000 0.274380 -0.959754 -0.059905
5848 1 7.207138 -22.658297 -1.770810 0 1.000000 1.000000 1.000000 0.303426 -0.949968 -0.074116
5849 1 7.265844 -22.570603 -2.497766 0 1.000000 1.000000 1.000000 0.303423 -0.947017 -0.105329
5850 1 7.886146 -22.320800 -2.839550 0 1.000000 1.000000 1.000000 0.331770 -0.935877 -0.118590
5851 1 7.938533 -22.196430 -3.571998 0 1.000000 1.000000 1.000000 0.331767 -0.931252 -0.150664
5852 1 8.543335 -21.914635 -3.902904 0 1.000000 1.000000 1.000000 0.359146 -0.918958 -0.162884
5853 1 8.586887 -21.754154 -4.635258 0 1.000000 1.000000 1.000000 0.359143 -0.912580 -0.195486
5854 1 9.172752 -21.443481 -4.951241 0 1.000000 1.000000 1.000000 0.385308 -0.899362 -0.206604
5855 1 9.205209 -21.248431 -5.677941 0 1.000000 1.000000 1.000000 0.385306 -0.891198 -0.239387
5856 1 9.769244 -20.912728 -5.975421 0 1.000000 1.000000 1.000000 0.410048 -0.877312 -0.249370
5857 1 9.788715 -20.685542 -6.691173 0 1.000000 1.000000 1.000000 0.410046 -0.867377 -0.281992
5858 1 4.623735 -23.387074 -0.360285 0 1.000000 1.000000 1.000000 0.192790 -0.981129 -0.014732
5859 1 5.281490 -23.239146 -0.716133 0 1.000000 1.000000 1.000000 0.222540 -0.974444 -0.030565
5860 1 5.333499 -23.193149 -1.442422 0 1.000000 1.000000 1.000000 0.222537 -0.973048 -0.060461
5861 1 5.987665 -23.007977 -1.798228 0 1.000000 1.000000 1.000000 0.252120 -0.964741 -0.075570
5862 1 6.037976 -22.924761 -2.537059 0 1.000000 1.000000 1.000000 0.252117 -0.961798 -0.106689
5863 1 6.684198 -22.702969 -2.888252 0 1.000000 1.000000 1.000000 0.281240 -0.951986 -0.120938
5864 1 6.730152 -22.581666 -3.634085 0 1.000000 1.000000 1.000000 0.281237 -0.947366 -0.152979
5865 1 7.364185 -22.324931 -3.976048 0 1.000000 1.000000 1.000000 0.309610 -0.936216 -0.166253
5866 1 7.403158 -22.165726 -4.723032 0 1.000000 1.000000 1.000000 0.309608 -0.929832 -0.198885
5867 1 8.021057 -21.876744 -5.051336 0 1.000000 1.000000 1.000000 0.336959 -0.917550 -0.211094
5868 1 8.050605 -21.680889 -5.793561 0 1.000000 1.000000 1.000000 0.336957 -0.909363 -0.243964
5869 1 8.648891 -21.363249 -6.104183 0 1.000000 1.000000 1.000000 0.363044 -0.896186 -0.255049
5870 1 8.666883 -21.133004 -6.835950 0 1.000000 1.000000 1.000000 0.363043 -0.886210 -0.287804
5871 1 9.242672 -20.791001 -7.125461 0 1.000000 1.000000 1.000000 0.387663 -0.872393 -0.297739
5872 1 9.247394 -20.529495 -7.841522 0 1.000000 1.000000 1.000000 0.387662 -0.860692 -0.330042
5873 1 3.333444 -23.605194 -0.363724 0 1.000000 1.000000 1.000000 0.138976 -0.990187 -0.014662
5874 1 4.004230 -23.492325 -0.724010 0 1.000000 1.000000 1.000000 0.168741 -0.985168 -0.031141
5875 1 4.044540 -23.450911 -1.458538 0 1.000000 1.000000 1.000000 0.168738 -0.983778 -0.060901
5876 1 4.716055 -23.299663 -1.821102 0 1.000000 1.000000 1.000000 0.198600 -0.977068 -0.076793
5877 1 4.756707 -23.220391 -2.569863 0 1.000000 1.000000 1.000000 0.198597 -0.974133 -0.107814
5878 1 5.424463 -23.030661 -2.930014 0 1.000000 1.000000 1.000000 0.228261 -0.965804 -0.122964
5879 1 5.462854 -22.912202 -3.687361 0 1.000000 1.000000 1.000000 0.228259 -0.961191 -0.154954
5880 1 6.122321 -22.685000 -4.040241 0 1.000000 1.000000 1.000000 0.257424 -0.951365 -0.169224
5881 1 6.155784 -22.527112 -4.800107 0 1.000000 1.000000 1.000000 0.257422 -0.944981 -0.201855
5882 1 6.802588 -22.264572 -5.140936 0 1.000000 1.000000 1.000000 0.285795 -0.933831 -0.215129
5883 1 6.828549 -22.068156 -5.897102 0 1.000000 1.000000 1.000000 0.285793 -0.925632 -0.248047
5884 1 7.458666 -21.773454 -6.221423 0 1.000000 1.000000 1.000000 0.313100 -0.913370 -0.260237
5885 1 7.474786 -21.540526 -6.967807 0 1.000000 1.000000 1.000000 0.313099 -0.903367 -0.293082
5886 1 8.084716 -21.217715 -7.271712 0 1.000000 1.000000 1.000000 0.339103 -0.890231 -0.304133
5887 1 8.089018 -20.951286 -8.002641 0 1.000000 1.000000 1.000000 0.339103 -0.878486 -0.336557
5888 1 8.675906 -20.605070 -8.282941 0 1.000000 1.000000 1.000000 0.363610 -0.864732 -0.346447
5889 1 8.666869 -20.308956 -8.993387 0 1.000000 1.000000 1.000000 0.363611 -0.851355 -0.378129
5890 1 2.012667 -23.754038 -0.366073 0 1.000000 1.000000 1.000000 0.083905 -0.996367 -0.014611
5891 1 2.690600 -23.678308 -0.729797 0 1.000000 1.000000 1.000000 0.113393 -0.993049 -0.031570
5892 1 2.718124 -23.640370 -1.470385 0 1.000000 1.000000 1.000000 0.113392 -0.991662 -0.061220
5893 1 3.401278 -23.525842 -1.838841 0 1.000000 1.000000 1.000000 0.143246 -0.986629 -0.077748
5894 1 3.431177 -23.449761 -2.595317 0 1.000000 1.000000 1.000000 0.143244 -0.983702 -0.108680
5895 1 4.115093 -23.295558 -2.963775 0 1.000000 1.000000 1.000000 0.173179 -0.976976 -0.124611
5896 1 4.144899 -23.179546 -3.730455 0 1.000000 1.000000 1.000000 0.173177 -0.972370 -0.156543
5897 1 4.824904 -22.985920 -4.093890 0 1.000000 1.000000 1.000000 0.202889 -0.964027 -0.171718
5898 1 4.851987 -22.829277 -4.864555 0 1.000000 1.000000 1.000000 0.202887 -0.957646 -0.204329
5899 1 5.523401 -22.597672 -5.217893 0 1.000000 1.000000 1.000000 0.232069 -0.947816 -0.218607
5900 1 5.545120 -22.400898 -5.986068 0 1.000000 1.000000 1.000000 0.232067 -0.939612 -0.251543
5901 1 6.203465 -22.133922 -6.324449 0 1.000000 1.000000 1.000000 0.260422 -0.928470 -0.264809
5902 1 6.217322 -21.898718 -7.083705 0 1.000000 1.000000 1.000000 0.260421 -0.918450 -0.297708
5903 1 6.858525 -21.600024 -7.402742 0 1.000000 1.000000 1.000000 0.287679 -0.906210 -0.309877
5904 1 6.862308 -21.329206 -8.147002 0 1.000000 1.000000 1.000000 0.287679 -0.894436 -0.342381
5905 1 7.482870 -21.003279 -8.442996 0 1.000000 1.000000 1.000000 0.313608 -0.881339 -0.353401
5906 1 7.474771 -20.700600 -9.166803 0 1.000000 1.000000 1.000000 0.313609 -0.867922 -0.385178
5907 1 8.071881 -20.352494 -9.436893 0 1.000000 1.000000 1.000000 0.338025 -0.854218 -0.395032
5908 1 8.050576 -20.022405 -10.135615 0 1.000000 1.000000 1.000000 0.338026 -0.839311 -0.425787
5909 1 0.673019 -23.829522 -0.367264 0 1.000000 1.000000 1.000000 0.028056 -0.999500 -0.014584
5910 1 1.351755 -23.792037 -0.733337 0 1.000000 1.000000 1.000000 0.056972 -0.997868 -0.031834
5911 1 1.365719 -23.756269 -1.477634 0 1.000000 1.000000 1.000000 0.056971 -0.996485 -0.061413
5912 1 2.054154 -23.680331 -1.850958 0 1.000000 1.000000 1.000000 0.086517 -0.993160 -0.078405
5913 1 2.072453 -23.606497 -2.612712 0 1.000000 1.000000 1.000000 0.086515 -0.990240 -0.109268
5914 1 2.766323 -23.490455 -2.988616 0 1.000000 1.000000 1.000000 0.116425 -0.985197 -0.125827
5915 1 2.786700 -23.376326 -3.762176 0 1.000000 1.000000 1.000000 0.116424 -0.980599 -0.157708
5916 1 3.481361 -23.219619 -4.135556 0 1.000000 1.000000 1.000000 0.146402 -0.973862 -0.173662
5917 1 3.501306 -23.064037 -4.914629 0 1.000000 1.000000 1.000000 0.146401 -0.967487 -0.206244
5918 1 4.191927 -22.867321 -5.280192 0 1.000000 1.000000 1.000000 0.176136 -0.959137 -0.221431
5919 1 4.208810 -22.670341 -6.058112 0 1.000000 1.000000 1.000000 0.176135 -0.950933 -0.254367
5920 1 4.890589 -22.435524 -6.410651 0 1.000000 1.000000 1.000000 0.205316 -0.941103 -0.268645
5921 1 4.901814 -22.198475 -7.180698 0 1.000000 1.000000 1.000000 0.205315 -0.931075 -0.301570
5922 1 5.570202 -21.928644 -7.515372 0 1.000000 1.000000 1.000000 0.233646 -0.919943 -0.314825
5923 1 5.573368 -21.654071 -8.271099 0 1.000000 1.000000 1.000000 0.233645 -0.908152 -0.347376
5924 1 6.224270 -21.353326 -8.583692 0 1.000000 1.000000 1.000000 0.260859 -0.895932 -0.359526
5925 1 6.217307 -21.044836 -9.319226 0 1.000000 1.000000 1.000000 0.260859 -0.882490 -0.391362
5926 1 6.847246 -20.718038 -9.606343 0 1.000000 1.000000 1.000000 0.286731 -0.869421 -0.402359
5927 1 6.828519 -20.380072 -10.316631 0 1.000000 1.000000 1.000000 0.286732 -0.854485 -0.433175
5928 1 7.434739 -20.032546 -10.575812 0 1.000000 1.000000 1.000000 0.311090 -0.840815 -0.443006
5929 1 7.403114 -19.670094 -11.256786 0 1.000000 1.000000 1.000000 0.311092 -0.824574 -0.472545
5930 1 -0.673019 -23.829522 -0.367264 0 1.000000 1.000000 1.000000 -0.028056 -0.999500 -0.014584
5931 1 0.000000 -23.830312 -0.734528 0 1.000000 1.000000 1.000000 0.000000 -0.999490 -0.031923
5932 1 0.000000 -23.795282 -1.480074 0 1.000000 1.000000 1.000000 -0.000000 -0.998108 -0.061477
5933 1 0.686982 -23.758723 -1.857106 0 1.000000 1.000000 1.000000 0.028935 -0.996475 -0.078739
5934 1 0.693144 -23.686051 -2.621541 0 1.000000 1.000000 1.000000 0.028935 -0.993558 -0.109566
5935 1 1.390179 -23.609762 -3.003823 0 1.000000 1.000000 1.000000 0.058510 -0.990230 -0.126574
5936 1 1.400525 -23.496823 -3.781600 0 1.000000 1.000000 1.000000 0.058510 -0.985637 -0.158419
5937 1 2.103177 -23.379429 -4.164049 0 1.000000 1.000000 1.000000 0.088449 -0.980588 -0.174994
5938 1 2.115395 -23.224618 -4.948881 0 1.000000 1.000000 1.000000 0.088448 -0.974217 -0.207551
5939 1 2.818863 -23.065933 -5.326080 0 1.000000 1.000000 1.000000 0.118448 -0.967476 -0.223516
5940 1 2.830415 -22.868851 -6.111191 0 1.000000 1.000000 1.000000 0.118447 -0.959275 -0.256442
5941 1 3.529741 -22.669976 -6.477661 0 1.000000 1.000000 1.000000 0.148190 -0.950923 -0.271634
5942 1 3.538014 -22.431532 -7.256110 0 1.000000 1.000000 1.000000 0.148189 -0.940893 -0.304567
5943 1 4.228308 -22.194848 -7.606609 0 1.000000 1.000000 1.000000 0.177362 -0.931065 -0.318841
5944 1 4.230770 -21.917244 -8.371630 0 1.000000 1.000000 1.000000 0.177362 -0.919266 -0.351416
5945 1 4.907443 -21.646297 -8.701446 0 1.000000 1.000000 1.000000 0.205670 -0.908142 -0.364661
5946 1 4.901801 -21.332915 -9.446784 0 1.000000 1.000000 1.000000 0.205670 -0.894687 -0.396529
5947 1 5.560764 -21.032199 -9.751971 0 1.000000 1.000000 1.000000 0.232852 -0.882481 -0.408666
5948 1 5.545093 -20.687381 -10.472160 0 1.000000 1.000000 1.000000 0.232853 -0.867530 -0.439513
5949 1 6.182910 -20.362053 -10.749704 0 1.000000 1.000000 1.000000 0.258695 -0.854476 -0.450497
5950 1 6.155742 -19.990824 -11.440273 0 1.000000 1.000000 1.000000 0.258696 -0.838225 -0.480057
5951 1 6.769726 -19.646391 -11.688174 0 1.000000 1.000000 1.000000 0.283033 -0.824566 -0.489880
5952 1 6.730095 -19.254146 -12.345754 0 1.000000 1.000000 1.000000 0.283036 -0.807235 -0.517941
5953 1 -2.012667 -23.754038 -0.366073 0 1.000000 1.000000 1.000000 -0.083905 -0.996367 -0.014611
5954 1 -1.351755 -23.792037 -0.733337 0 1.000000 1.000000 1.000000 -0.056972 -0.997868 -0.031834
5955 1 -1.365719 -23.756269 -1.477634 0 1.000000 1.000000 1.000000 -0.056971 -0.996485 -0.061413
5956 1 -0.686982 -23.758723 -1.857106 0 1.000000 1.000000 1.000000 -0.028935 -0.996475 -0.078739
5957 1 -0.693144 -23.686051 -2.621541 0 1.000000 1.000000 1.000000 -0.028935 -0.993558 -0.109566
5958 1 0.000000 -23.649936 -3.008943 0 1.000000 1.000000 1.000000 0.000000 -0.991925 -0.126826
5959 1 0.000000 -23.537403 -3.788142 0 1.000000 1.000000 1.000000 0.000000 -0.987334 -0.158658
5960 1 0.703490 -23.460578 -4.178518 0 1.000000 1.000000 1.000000 0.029586 -0.984004 -0.175672
5961 1 0.707605 -23.306174 -4.966278 0 1.000000 1.000000 1.000000 0.029586 -0.977636 -0.208213
5962 1 1.416858 -23.187607 -5.354192 0 1.000000 1.000000 1.000000 0.059538 -0.972585 -0.224796
5963 1 1.422726 -22.990484 -6.143715 0 1.000000 1.000000 1.000000 0.059537 -0.964386 -0.257712
5964 1 2.132815 -22.830414 -6.523516 0 1.000000 1.000000 1.000000 0.089545 -0.957643 -0.273682
5965 1 2.137885 -22.591034 -7.307721 0 1.000000 1.000000 1.000000 0.089544 -0.947612 -0.306614
5966 1 2.843758 -22.391027 -7.673846 0 1.000000 1.000000 1.000000 0.119287 -0.939261 -0.321806
5967 1 2.845444 -22.111197 -8.445720 0 1.000000 1.000000 1.000000 0.119287 -0.927458 -0.354389
5968 1 3.542161 -21.874097 -8.793005 0 1.000000 1.000000 1.000000 0.148451 -0.917634 -0.368660
5969 1 3.538003 -21.556891 -9.545958 0 1.000000 1.000000 1.000000 0.148451 -0.904173 -0.400541
5970 1 4.220970 -21.286656 -9.869921 0 1.000000 1.000000 1.000000 0.176745 -0.893055 -0.413781
5971 1 4.208786 -20.936230 -10.598101 0 1.000000 1.000000 1.000000 0.176746 -0.878099 -0.444639
5972 1 4.873946 -20.637672 -10.895153 0 1.000000 1.000000 1.000000 0.203917 -0.865897 -0.456771
5973 1 4.851949 -20.258995 -11.593689 0 1.000000 1.000000 1.000000 0.203919 -0.849647 -0.486330
5974 1 5.495927 -19.937475 -11.861265 0 1.000000 1.000000 1.000000 0.229759 -0.836593 -0.497315
5975 1 5.462801 -19.536012 -12.526410 0 1.000000 1.000000 1.000000 0.229762 -0.819275 -0.525355
5976 1 6.082984 -19.197115 -12.762998 0 1.000000 1.000000 1.000000 0.254118 -0.805604 -0.535188
5977 1 6.037909 -18.778508 -13.392178 0 1.000000 1.000000 1.000000 0.254121 -0.787455 -0.561549
5978 1 -3.333444 -23.605194 -0.363724 0 1.000000 1.000000 1.000000 -0.138976 -0.990187 -0.014662
5979 1 -2.690600 -23.678308 -0.729797 0 1.000000 1.000000 1.000000 -0.113393 -0.993049 -0.031570
5980 1 -2.718124 -23.640370 -1.470385 0 1.000000 1.000000 1.000000 -0.113392 -0.991662 -0.061220
5981 1 -2.054154 -23.680331 -1.850958 0 1.000000 1.000000 1.000000 -0.086517 -0.993160 -0.078405
5982 1 -2.072453 -23.606497 -2.612712 0 1.000000 1.000000 1.000000 -0.086515 -0.990240 -0.109268
5983 1 -1.390179 -23.609762 -3.003823 0 1.000000 1.000000 1.000000 -0.058510 -0.990230 -0.126574
5984 1 -1.400525 -23.496823 -3.781600 0 1.000000 1.000000 1.000000 -0.058510 -0.985637 -0.158419
5985 1 -0.703490 -23.460578 -4.178518 0 1.000000 1.000000 1.000000 -0.029586 -0.984004 -0.175672
5986 1 -0.707605 -23.306174 -4.966278 0 1.000000 1.000000 1.000000 -0.029586 -0.977636 -0.208213
5987 1 0.000000 -23.228594 -5.363662 0 1.000000 1.000000 1.000000 0.000000 -0.974306 -0.225227
5988 1 0.000000 -23.031461 -6.154672 0 1.000000 1.000000 1.000000 -0.000000 -0.966108 -0.258140
5989 1 0.713473 -22.911918 -6.546811 0 1.000000 1.000000 1.000000 0.029955 -0.961057 -0.274724
5990 1 0.715182 -22.672068 -7.333943 0 1.000000 1.000000 1.000000 0.029955 -0.951027 -0.307654
5991 1 1.429505 -22.511255 -7.715052 0 1.000000 1.000000 1.000000 0.059964 -0.944284 -0.323625
5992 1 1.430361 -22.230063 -8.491127 0 1.000000 1.000000 1.000000 0.059964 -0.932480 -0.356209
5993 1 2.140427 -22.030012 -8.855671 0 1.000000 1.000000 1.000000 0.089704 -0.924129 -0.371400
5994 1 2.137879 -21.710179 -9.613832 0 1.000000 1.000000 1.000000 0.089704 -0.910667 -0.403284
5995 1 2.838737 -21.474158 -9.956834 0 1.000000 1.000000 1.000000 0.118865 -0.900844 -0.417554
5996 1 2.830398 -21.119568 -10.690887 0 1.000000 1.000000 1.000000 0.118865 -0.885888 -0.448412
5997 1 3.517480 -20.851875 -11.008191 0 1.000000 1.000000 1.000000 0.147159 -0.874770 -0.461652
5998 1 3.501276 -20.467343 -11.712881 0 1.000000 1.000000 1.000000 0.147160 -0.858526 -0.491200
5999 1 4.170585 -20.173021 -12.001327 0 1.000000 1.000000 1.000000 0.174342 -0.846319 -0.503337
6000 1 4.144854 -19.763990 -12.672526 0 1.000000 1.000000 1.000000 0.174344 -0.829020 -0.531347
6001 1 4.793091 -19.448501 -12.930034 0 1.000000 1.000000 1.000000 0.200215 -0.815951 -0.542345
6002 1 4.756647 -19.020707 -13.564819 0 1.000000 1.000000 1.000000 0.200217 -0.797842 -0.568649
6003 1 5.381281 -18.689611 -13.790375 0 1.000000 1.000000 1.000000 0.224632 -0.784138 -0.578506
6004 1 5.333425 -18.248774 -14.387012 0 1.000000 1.000000 1.000000 0.224635 -0.765463 -0.602997
6005 1 -4.623735 -23.387074 -0.360285 0 1.000000 1.000000 1.000000 -0.192790 -0.981129 -0.014732
6006 1 -4.004230 -23.492325 -0.724010 0 1.000000 1.000000 1.000000 -0.168741 -0.985168 -0.031141
6007 1 -4.044540 -23.450911 -1.458538 0 1.000000 1.000000 1.000000 -0.168738 -0.983778 -0.060901
6008 1 -3.401278 -23.525842 -1.838841 0 1.000000 1.000000 1.000000 -0.143246 -0.986629 -0.077748
6009 1 -3.431177 -23.449761 -2.595317 0 1.000000 1.000000 1.000000 -0.143244 -0.983702 -0.108680
6010 1 -2.766323 -23.490455 -2.988616 0 1.000000 1.000000 1.000000 -0.116425 -0.985197 -0.125827
6011 1 -2.786700 -23.376326 -3.762176 0 1.000000 1.000000 1.000000 -0.116424 -0.980599 -0.157708
6012 1 -2.103177 -23.379429 -4.164049 0 1.000000 1.000000 1.000000 -0.088449 -0.980588 -0.174994
6013 1 -2.115395 -23.224618 -4.948881 0 1.000000 1.000000 1.000000 -0.088448 -0.974217 -0.207551
6014 1 -1.416858 -23.187607 -5.354192 0 1.000000 1.000000 1.000000 -0.059538 -0.972585 -0.224796
6015 1 -1.422726 -22.990484 -6.143715 0 1.000000 1.000000 1.000000 -0.059537 -0.964386 -0.257712
6016 1 -0.713473 -22.911918 -6.546811 0 1.000000 1.000000 1.000000 -0.029955 -0.961057 -0.274724
6017 1 -0.715182 -22.672068 -7.333943 0 1.000000 1.000000 1.000000 -0.029955 -0.951027 -0.307654
6018 1 0.000000 -22.551762 -7.728935 0 1.000000 1.000000 1.000000 0.000000 -0.945976 -0.324238
6019 1 0.000000 -22.270112 -8.506426 0 1.000000 1.000000 1.000000 -0.000000 -0.934172 -0.356822
6020 1 0.716038 -22.109227 -8.887509 0 1.000000 1.000000 1.000000 0.030009 -0.927429 -0.372793
6021 1 0.715179 -21.788057 -9.648315 0 1.000000 1.000000 1.000000 0.030009 -0.913967 -0.404677
6022 1 1.426954 -21.589061 -10.010095 0 1.000000 1.000000 1.000000 0.059749 -0.905616 -0.419868
6023 1 1.422717 -21.231903 -10.747740 0 1.000000 1.000000 1.000000 0.059750 -0.890662 -0.450722
6024 1 2.125303 -20.998431 -11.085529 0 1.000000 1.000000 1.000000 0.088913 -0.880838 -0.464994
6025 1 2.115375 -20.609858 -11.794411 0 1.000000 1.000000 1.000000 0.088914 -0.864602 -0.494528
6026 1 2.804266 -20.346462 -12.104458 0 1.000000 1.000000 1.000000 0.117220 -0.853478 -0.507775
6027 1 2.786668 -19.931795 -12.780075 0 1.000000 1.000000 1.000000 0.117222 -0.836198 -0.535754
6028 1 3.457948 -19.643644 -13.059697 0 1.000000 1.000000 1.000000 0.144433 -0.823977 -0.547905
6029 1 3.431130 -19.208621 -13.698764 0 1.000000 1.000000 1.000000 0.144435 -0.805907 -0.574154
6030 1 4.081593 -18.901173 -13.946379 0 1.000000 1.000000 1.000000 0.170362 -0.792808 -0.585177
6031 1 4.044478 -18.451623 -14.546844 0 1.000000 1.000000 1.000000 0.170365 -0.774200 -0.609582
6032 1 4.671676 -18.130320 -14.761921 0 1.000000 1.000000 1.000000 0.194870 -0.760445 -0.619475
6033 1 4.623659 -17.671870 -15.322883 0 1.000000 1.000000 1.000000 0.194872 -0.741541 -0.641983
6034 1 -5.873269 -23.105422 -0.355848 0 1.000000 1.000000 1.000000 -0.244921 -0.969430 -0.014814
6035 1 -5.281490 -23.239146 -0.716133 0 1.000000 1.000000 1.000000 -0.222540 -0.974444 -0.030565
6036 1 -5.333499 -23.193149 -1.442422 0 1.000000 1.000000 1.000000 -0.222537 -0.973048 -0.060461
6037 1 -4.716055 -23.299663 -1.821102 0 1.000000 1.000000 1.000000 -0.198600 -0.977068 -0.076793
6038 1 -4.756707 -23.220391 -2.569863 0 1.000000 1.000000 1.000000 -0.198597 -0.974133 -0.107814
6039 1 -4.115093 -23.295558 -2.963775 0 1.000000 1.000000 1.000000 -0.173179 -0.976976 -0.124611
6040 1 -4.144899 -23.179546 -3.730455 0 1.000000 1.000000 1.000000 -0.173177 -0.972370 -0.156543
6041 1 -3.481361 -23.219619 -4.135556 0 1.000000 1.000000 1.000000 -0.146402 -0.973862 -0.173662
6042 1 -3.501306 -23.064037 -4.914629 0 1.000000 1.000000 1.000000 -0.146401 -0.967487 -0.206244
6043 1 -2.818863 -23.065933 -5.326080 0 1.000000 1.000000 1.000000 -0.118448 -0.967476 -0.223516
6044 1 -2.830415 -22.868851 -6.111191 0 1.000000 1.000000 1.000000 -0.118447 -0.959275 -0.256442
6045 1 -2.132815 -22.830414 -6.523516 0 1.000000 1.000000 1.000000 -0.089545 -0.957643 -0.273682
6046 1 -2.137885 -22.591034 -7.307721 0 1.000000 1.000000 1.000000 -0.089544 -0.947612 -0.306614
6047 1 -1.429505 -22.511255 -7.715052 0 1.000000 1.000000 1.000000 -0.059964 -0.944284 -0.323625
6048 1 -1.430361 -22.230063 -8.491127 0 1.000000 1.000000 1.000000 -0.059964 -0.932480 -0.356209
6049 1 -0.716038 -22.109227 -8.887509 0 1.000000 1.000000 1.000000 -0.030009 -0.927429 -0.372793
6050 1 -0.715179 -21.788057 -9.648315 0 1.000000 1.000000 1.000000 -0.030009 -0.913967 -0.404677
6051 1 -0.000000 -21.627773 -10.028039 0 1.000000 1.000000 1.000000 0.000000 -0.907224 -0.420648
6052 1 -0.000000 -21.269748 -10.766892 0 1.000000 1.000000 1.000000 0.000000 -0.892271 -0.451500
6053 1 0.710943 -21.072875 -11.124813 0 1.000000 1.000000 1.000000 0.029742 -0.883920 -0.466692
6054 1 0.707598 -20.682239 -11.835818 0 1.000000 1.000000 1.000000 0.029742 -0.867688 -0.496218
6055 1 1.409444 -20.452695 -12.167625 0 1.000000 1.000000 1.000000 0.058914 -0.857861 -0.510494
6056 1 1.400508 -20.034549 -12.845931 0 1.000000 1.000000 1.000000 0.058915 -0.840595 -0.538451
6057 1 2.088841 -19.777045 -13.148333 0 1.000000 1.000000 1.000000 0.087244 -0.829461 -0.551708
6058 1 2.072423 -19.337029 -13.790292 0 1.000000 1.000000 1.000000 0.087245 -0.811421 -0.577913
6059 1 2.743433 -19.056757 -14.061102 0 1.000000 1.000000 1.000000 0.114501 -0.799180 -0.590085
6060 1 2.718079 -18.600719 -14.664321 0 1.000000 1.000000 1.000000 0.114502 -0.780627 -0.614419
6061 1 3.368662 -18.303033 -14.902448 0 1.000000 1.000000 1.000000 0.140504 -0.767490 -0.625474
6062 1 3.333384 -17.836721 -15.465733 0 1.000000 1.000000 1.000000 0.140506 -0.748675 -0.647876
6063 1 3.961182 -17.526861 -15.671091 0 1.000000 1.000000 1.000000 0.165123 -0.734856 -0.657816
6064 1 3.915447 -17.055663 -16.194322 0 1.000000 1.000000 1.000000 0.165125 -0.716007 -0.678283
6065 1 -7.073459 -22.767241 -0.350525 0 1.000000 1.000000 1.000000 -0.295015 -0.955376 -0.014899
6066 1 -6.512793 -22.925325 -0.706373 0 1.000000 1.000000 1.000000 -0.274384 -0.961157 -0.029861
6067 1 -6.575180 -22.873879 -1.422465 0 1.000000 1.000000 1.000000 -0.274380 -0.959754 -0.059905
6068 1 -5.987665 -23.007977 -1.798228 0 1.000000 1.000000 1.000000 -0.252120 -0.964741 -0.075570
6069 1 -6.037976 -22.924761 -2.537059 0 1.000000 1.000000 1.000000 -0.252117 -0.961798 -0.106689
6070 1 -5.424463 -23.030661 -2.930014 0 1.000000 1.000000 1.000000 -0.228261 -0.965804 -0.122964
6071 1 -5.462854 -22.912202 -3.687361 0 1.000000 1.000000 1.000000 -0.228259 -0.961191 -0.154954
6072 1 -4.824904 -22.985920 -4.093890 0 1.000000 1.000000 1.000000 -0.202889 -0.964027 -0.171718
6073 1 -4.851987 -22.829277 -4.864555 0 1.000000 1.000000 1.000000 -0.202887 -0.957646 -0.204329
6074 1 -4.191927 -22.867321 -5.280192 0 1.000000 1.000000 1.000000 -0.176136 -0.959137 -0.221431
6075 1 -4.208810 -22.670341 -6.058112 0 1.000000 1.000000 1.000000 -0.176135 -0.950933 -0.254367
6076 1 -3.529741 -22.669976 -6.477661 0 1.000000 1.000000 1.000000 -0.148190 -0.950923 -0.271634
6077 1 -3.538014 -22.431532 -7.256110 0 1.000000 1.000000 1.000000 -0.148189 -0.940893 -0.304567
6078 1 -2.843758 -22.391027 -7.673846 0 1.000000 1.000000 1.000000 -0.119287 -0.939261 -0.321806
6079 1 -2.845444 -22.111197 -8.445720 0 1.000000 1.000000 1.000000 -0.119287 -0.927458 -0.354389
6080 1 -2.140427 -22.030012 -8.855671 0 1.000000 1.000000 1.000000 -0.089704 -0.924129 -0.371400
6081 1 -2.137879 -21.710179 -9.613832 0 1.000000 1.000000 1.000000 -0.089704 -0.910667 -0.403284
6082 1 -1.426954 -21.589061 -10.010095 0 1.000000 1.000000 1.000000 -0.059749 -0.905616 -0.419868
6083 1 -1.422717 -21.231903 -10.747740 0 1.000000 1.000000 1.000000 -0.059750 -0.890662 -0.450722
6084 1 -0.710943 -21.072875 -11.124813 0 1.000000 1.000000 1.000000 -0.029742 -0.883920 -0.466692
6085 1 -0.707598 -20.682239 -11.835818 0 1.000000 1.000000 1.000000 -0.029742 -0.867688 -0.496218
6086 1 -0.000000 -20.488476 -12.188901 0 1.000000 1.000000 1.000000 0.000000 -0.859337 -0.511410
6087 1 -0.000000 -20.069154 -12.868110 0 1.000000 1.000000 1.000000 0.000000 -0.842076 -0.539359
6088 1 0.698662 -19.844770 -13.193332 0 1.000000 1.000000 1.000000 0.029180 -0.832245 -0.553640
6089 1 0.693133 -19.402205 -13.836749 0 1.000000 1.000000 1.000000 0.029180 -0.814221 -0.579821
6090 1 1.378561 -19.151968 -14.131307 0 1.000000 1.000000 1.000000 0.057533 -0.803078 -0.593090
6091 1 1.365695 -18.691927 -14.736186 0 1.000000 1.000000 1.000000 0.057534 -0.784561 -0.617377
6092 1 2.034203 -18.420952 -14.998389 0 1.000000 1.000000 1.000000 0.084839 -0.772297 -0.629571
6093 1 2.012628 -17.949214 -15.563212 0 1.000000 1.000000 1.000000 0.084841 -0.753547 -0.651897
6094 1 2.661226 -17.662669 -15.792428 0 1.000000 1.000000 1.000000 0.110924 -0.740367 -0.662987
6095 1 2.630029 -17.184746 -16.316806 0 1.000000 1.000000 1.000000 0.110926 -0.721622 -0.683343
6096 1 3.256451 -16.887601 -16.513342 0 1.000000 1.000000 1.000000 0.135664 -0.707733 -0.693332
6097 1 3.215154 -16.408528 -16.997851 0 1.000000 1.000000 1.000000 0.135666 -0.689201 -0.711756
6098 1 -8.217600 -22.380353 -0.344442 0 1.000000 1.000000 1.000000 -0.342792 -0.939292 -0.014981
6099 1 -7.690401 -22.558470 -0.694967 0 1.000000 1.000000 1.000000 -0.323944 -0.945630 -0.029053
6100 1 -7.761693 -22.500973 -1.399161 0 1.000000 1.000000 1.000000 -0.323940 -0.944221 -0.059242
6101 1 -7.207138 -22.658297 -1.770810 0 1.000000 1.000000 1.000000 -0.303426 -0.949968 -0.074116
6102 1 -7.265844 -22.570603 -2.497766 0 1.000000 1.000000 1.000000 -0.303423 -0.947017 -0.105329
6103 1 -6.684198 -22.702969 -2.888252 0 1.000000 1.000000 1.000000 -0.281240 -0.951986 -0.120938
6104 1 -6.730152 -22.581666 -3.634085 0 1.000000 1.000000 1.000000 -0.281237 -0.947366 -0.152979
6105 1 -6.122321 -22.685000 -4.040241 0 1.000000 1.000000 1.000000 -0.257424 -0.951365 -0.169224
6106 1 -6.155784 -22.527112 -4.800107 0 1.000000 1.000000 1.000000 -0.257422 -0.944981 -0.201855
6107 1 -5.523401 -22.597672 -5.217893 0 1.000000 1.000000 1.000000 -0.232069 -0.947816 -0.218607
6108 1 -5.545120 -22.400898 -5.986068 0 1.000000 1.000000 1.000000 -0.232067 -0.939612 -0.251543
6109 1 -4.890589 -22.435524 -6.410651 0 1.000000 1.000000 1.000000 -0.205316 -0.941103 -0.268645
6110 1 -4.901814 -22.198475 -7.180698 0 1.000000 1.000000 1.000000 -0.205315 -0.931075 -0.301570
6111 1 -4.228308 -22.194848 -7.606609 0 1.000000 1.000000 1.000000 -0.177362 -0.931065 -0.318841
6112 1 -4.230770 -21.917244 -8.371630 0 1.000000 1.000000 1.000000 -0.177362 -0.919266 -0.351416
6113 1 -3.542161 -21.874097 -8.793005 0 1.000000 1.000000 1.000000 -0.148451 -0.917634 -0.368660
6114 1 -3.538003 -21.556891 -9.545958 0 1.000000 1.000000 1.000000 -0.148451 -0.904173 -0.400541
6115 1 -2.838737 -21.474158 -9.956834 0 1.000000 1.000000 1.000000 -0.118865 -0.900844 -0.417554
6116 1 -2.830398 -21.119568 -10.690887 0 1.000000 1.000000 1.000000 -0.118865 -0.885888 -0.448412
6117 1 -2.125303 -20.998431 -11.085529 0 1.000000 1.000000 1.000000 -0.088913 -0.880838 -0.464994
6118 1 -2.115375 -20.609858 -11.794411 0 1.000000 1.000000 1.000000 -0.088914 -0.864602 -0.494528
6119 1 -1.409444 -20.452695 -12.167625 0 1.000000 1.000000 1.000000 -0.058914 -0.857861 -0.510494
6120 1 -1.400508 -20.034549 -12.845931 0 1.000000 1.000000 1.000000 -0.058915 -0.840595 -0.538451
6121 1 -0.698662 -19.844770 -13.193332 0 1.000000 1.000000 1.000000 -0.029180 -0.832245 -0.553640
6122 1 -0.693133 -19.402205 -13.836749 0 1.000000 1.000000 1.000000 -0.029180 -0.814221 -0.579821
6123 1 -0.000000 -19.184022 -14.154943 0 1.000000 1.000000 1.000000 0.000000 -0.804390 -0.594102
6124 1 -0.000000 -18.722628 -14.760376 0 1.000000 1.000000 1.000000 0.000000 -0.785885 -0.618372
6125 1 0.680267 -18.480770 -15.047059 0 1.000000 1.000000 1.000000 0.028371 -0.774734 -0.631650
6126 1 0.673006 -18.006263 -15.612646 0 1.000000 1.000000 1.000000 0.028371 -0.756018 -0.653935
6127 1 1.336859 -17.745682 -15.866595 0 1.000000 1.000000 1.000000 0.055719 -0.743734 -0.666149
6128 1 1.321042 -17.263615 -16.391641 0 1.000000 1.000000 1.000000 0.055720 -0.725054 -0.686434
6129 1 1.965614 -16.989224 -16.612635 0 1.000000 1.000000 1.000000 0.081882 -0.711835 -0.697558
6130 1 1.940392 -16.504755 -17.097464 0 1.000000 1.000000 1.000000 0.081883 -0.693409 -0.715877
6131 1 2.563510 -16.221205 -17.286143 0 1.000000 1.000000 1.000000 0.106739 -0.679453 -0.725914
6132 1 2.528450 -15.738929 -17.731916 0 1.000000 1.000000 1.000000 0.106741 -0.661465 -0.742341
6133 1 -9.300909 -21.952952 -0.337731 0 1.000000 1.000000 1.000000 -0.388054 -0.921514 -0.015051
6134 1 -8.808535 -22.146780 -0.682173 0 1.000000 1.000000 1.000000 -0.370978 -0.928214 -0.028165
6135 1 -8.887196 -22.082897 -1.373041 0 1.000000 1.000000 1.000000 -0.370973 -0.926800 -0.058479
6136 1 -8.367553 -22.258973 -1.739504 0 1.000000 1.000000 1.000000 -0.352227 -0.933104 -0.072474
6137 1 -8.433300 -22.166494 -2.452937 0 1.000000 1.000000 1.000000 -0.352223 -0.930147 -0.103760
6138 1 -7.886146 -22.320800 -2.839550 0 1.000000 1.000000 1.000000 -0.331770 -0.935877 -0.118590
6139 1 -7.938533 -22.196430 -3.571998 0 1.000000 1.000000 1.000000 -0.331767 -0.931252 -0.150664
6140 1 -7.364185 -22.324931 -3.976048 0 1.000000 1.000000 1.000000 -0.309610 -0.936216 -0.166253
6141 1 -7.403158 -22.165726 -4.723032 0 1.000000 1.000000 1.000000 -0.309608 -0.929832 -0.198885
6142 1 -6.802588 -22.264572 -5.140936 0 1.000000 1.000000 1.000000 -0.285795 -0.933831 -0.215129
6143 1 -6.828549 -22.068156 -5.897102 0 1.000000 1.000000 1.000000 -0.285793 -0.925632 -0.248047
6144 1 -6.203465 -22.133922 -6.324449 0 1.000000 1.000000 1.000000 -0.260422 -0.928470 -0.264809
6145 1 -6.217322 -21.898718 -7.083705 0 1.000000 1.000000 1.000000 -0.260421 -0.918450 -0.297708
6146 1 -5.570202 -21.928644 -7.515372 0 1.000000 1.000000 1.000000 -0.233646 -0.919943 -0.314825
6147 1 -5.573368 -21.654071 -8.271099 0 1.000000 1.000000 1.000000 -0.233645 -0.908152 -0.347376
6148 1 -4.907443 -21.646297 -8.701446 0 1.000000 1.000000 1.000000 -0.205670 -0.908142 -0.364661
6149 1 -4.901801 -21.332915 -9.446784 0 1.000000 1.000000 1.000000 -0.205670 -0.894687 -0.396529
6150 1 -4.220970 -21.286656 -9.869921 0 1.000000 1.000000 1.000000 -0.176745 -0.893055 -0.413781
6151 1 -4.208786 -20.936230 -10.598101 0 1.000000 1.000000 1.000000 -0.176746 -0.878099 -0.444639
6152 1 -3.517480 -20.851875 -11.008191 0 1.000000 1.000000 1.000000 -0.147159 -0.874770 -0.461652
6153 1 -3.501276 -20.467343 -11.712881 0 1.000000 1.000000 1.000000 -0.147160 -0.858526 -0.491200
6154 1 -2.804266 -20.346462 -12.104458 0 1.000000 1.000000 1.000000 -0.117220 -0.853478 -0.507775
6155 1 -2.786668 -19.931795 -12.780075 0 1.000000 1.000000 1.000000 -0.117222 -0.836198 -0.535754
6156 1 -2.088841 -19.777045 -13.148333 0 1.000000 1.000000 1.000000 -0.087244 -0.829461 -0.551708
6157 1 -2.072423 -19.337029 -13.790292 0 1.000000 1.000000 1.000000 -0.087245 -0.811421 -0.577913
6158 1 -1.378561 -19.151968 -14.131307 0 1.000000 1.000000 1.000000 -0.057533 -0.803078 -0.593090
6159 1 -1.365695 -18.691927 -14.736186 0 1.000000 1.000000 1.000000 -0.057534 -0.784561 -0.617377
6160 1 -0.680267 -18.480770 -15.047059 0 1.000000 1.000000 1.000000 -0.028371 -0.774734 -0.631650
6161 1 -0.673006 -18.006263 -15.612646 0 1.000000 1.000000 1.000000 -0.028371 -0.756018 -0.653935
6162 1 -0.000000 -17.773614 -15.891550 0 1.000000 1.000000 1.000000 0.000000 -0.744867 -0.667213
6163 1 -0.000000 -17.290147 -16.416815 0 1.000000 1.000000 1.000000 0.000000 -0.726209 -0.687474
6164 1 0.657189 -17.040728 -16.662957 0 1.000000 1.000000 1.000000 0.027375 -0.713912 -0.699700
6165 1 0.648705 -16.553506 -17.147930 0 1.000000 1.000000 1.000000 0.027376 -0.695542 -0.717964
6166 1 1.287336 -16.291923 -17.361443 0 1.000000 1.000000 1.000000 0.053599 -0.682290 -0.729114
6167 1 1.269579 -15.805665 -17.807048 0 1.000000 1.000000 1.000000 0.053600 -0.664400 -0.745453
6168 1 1.887574 -15.536221 -17.988842 0 1.000000 1.000000 1.000000 0.078559 -0.650386 -0.755531
6169 1 1.860151 -15.055038 -18.396705 0 1.000000 1.000000 1.000000 0.078560 -0.633131 -0.770048
6170 1 -10.320443 -21.493216 -0.330521 0 1.000000 1.000000 1.000000 -0.430675 -0.902381 -0.015104
6171 1 -9.863352 -21.698618 -0.668251 0 1.000000 1.000000 1.000000 -0.415324 -0.909266 -0.027222
6172 1 -9.947855 -21.628259 -1.344646 0 1.000000 1.000000 1.000000 -0.415319 -0.907849 -0.057629
6173 1 -9.464072 -21.818711 -1.704993 0 1.000000 1.000000 1.000000 -0.398319 -0.914520 -0.070684
6174 1 -9.535486 -21.721354 -2.403564 0 1.000000 1.000000 1.000000 -0.398314 -0.911559 -0.102013
6175 1 -9.024357 -21.893061 -2.785046 0 1.000000 1.000000 1.000000 -0.379603 -0.917851 -0.115981
6176 1 -9.082005 -21.765572 -3.502565 0 1.000000 1.000000 1.000000 -0.379599 -0.913227 -0.148055
6177 1 -8.543335 -21.914635 -3.902904 0 1.000000 1.000000 1.000000 -0.359146 -0.918958 -0.162884
6178 1 -8.586887 -21.754154 -4.635258 0 1.000000 1.000000 1.000000 -0.359143 -0.912580 -0.195486
6179 1 -8.021057 -21.876744 -5.051336 0 1.000000 1.000000 1.000000 -0.336959 -0.917550 -0.211094
6180 1 -8.050605 -21.680889 -5.793561 0 1.000000 1.000000 1.000000 -0.336957 -0.909363 -0.243964
6181 1 -7.458666 -21.773454 -6.221423 0 1.000000 1.000000 1.000000 -0.313100 -0.913370 -0.260237
6182 1 -7.474786 -21.540526 -6.967807 0 1.000000 1.000000 1.000000 -0.313099 -0.903367 -0.293082
6183 1 -6.858525 -21.600024 -7.402742 0 1.000000 1.000000 1.000000 -0.287679 -0.906210 -0.309877
6184 1 -6.862308 -21.329206 -8.147002 0 1.000000 1.000000 1.000000 -0.287679 -0.894436 -0.342381
6185 1 -6.224270 -21.353326 -8.583692 0 1.000000 1.000000 1.000000 -0.260859 -0.895932 -0.359526
6186 1 -6.217307 -21.044836 -9.319226 0 1.000000 1.000000 1.000000 -0.260859 -0.882490 -0.391362
6187 1 -5.560764 -21.032199 -9.751971 0 1.000000 1.000000 1.000000 -0.232852 -0.882481 -0.408666
6188 1 -5.545093 -20.687381 -10.472160 0 1.000000 1.000000 1.000000 -0.232853 -0.867530 -0.439513
6189 1 -4.873946 -20.637672 -10.895153 0 1.000000 1.000000 1.000000 -0.203917 -0.865897 -0.456771
6190 1 -4.851949 -20.258995 -11.593689 0 1.000000 1.000000 1.000000 -0.203919 -0.849647 -0.486330
6191 1 -4.170585 -20.173021 -12.001327 0 1.000000 1.000000 1.000000 -0.174342 -0.846319 -0.503337
6192 1 -4.144854 -19.763990 -12.672526 0 1.000000 1.000000 1.000000 -0.174344 -0.829020 -0.531347
6193 1 -3.457948 -19.643644 -13.059697 0 1.000000 1.000000 1.000000 -0.144433 -0.823977 -0.547905
6194 1 -3.431130 -19.208621 -13.698764 0 1.000000 1.000000 1.000000 -0.144435 -0.805907 -0.574154
6195 1 -2.743433 -19.056757 -14.061102 0 1.000000 1.000000 1.000000 -0.114501 -0.799180 -0.590085
6196 1 -2.718079 -18.600719 -14.664321 0 1.000000 1.000000 1.000000 -0.114502 -0.780627 -0.614419
6197 1 -2.034203 -18.420952 -14.998389 0 1.000000 1.000000 1.000000 -0.084839 -0.772297 -0.629571
6198 1 -2.012628 -17.949214 -15.563212 0 1.000000 1.000000 1.000000 -0.084841 -0.753547 -0.651897
6199 1 -1.336859 -17.745682 -15.866595 0 1.000000 1.000000 1.000000 -0.055719 -0.743734 -0.666149
6200 1 -1.321042 -17.263615 -16.391641 0 1.000000 1.000000 1.000000 -0.055720 -0.725054 -0.686434
6201 1 -0.657189 -17.040728 -16.662957 0 1.000000 1.000000 1.000000 -0.027375 -0.713912 -0.699700
6202 1 -0.648705 -16.553506 -17.147930 0 1.000000 1.000000 1.000000 -0.027376 -0.695542 -0.717964
6203 1 -0.000000 -16.315702 -17.386762 0 1.000000 1.000000 1.000000 0.000000 -0.683244 -0.730190
6204 1 -0.000000 -15.828099 -17.832305 0 1.000000 1.000000 1.000000 -0.000000 -0.665387 -0.746499
6205 1 0.630948 -15.579645 -18.039079 0 1.000000 1.000000 1.000000 0.026258 -0.652117 -0.757664
6206 1 0.621731 -15.095896 -18.446595 0 1.000000 1.000000 1.000000 0.026259 -0.634939 -0.772116
6207 1 1.232939 -14.840733 -18.622427 0 1.000000 1.000000 1.000000 0.051294 -0.620881 -0.782225
6208 1 1.214150 -14.364445 -18.993885 0 1.000000 1.000000 1.000000 0.051294 -0.604507 -0.794946
6209 1 -11.274924 -21.008977 -0.322937 0 1.000000 1.000000 1.000000 -0.470600 -0.882217 -0.015134
6210 1 -10.852800 -21.222137 -0.653457 0 1.000000 1.000000 1.000000 -0.456898 -0.889132 -0.026244
6211 1 -10.941688 -21.145427 -1.314499 0 1.000000 1.000000 1.000000 -0.456893 -0.887713 -0.056701
6212 1 -10.493834 -21.346147 -1.667957 0 1.000000 1.000000 1.000000 -0.441582 -0.894580 -0.068786
6213 1 -10.569586 -21.244008 -2.350628 0 1.000000 1.000000 1.000000 -0.441578 -0.891620 -0.100116
6214 1 -10.095020 -21.428764 -2.725888 0 1.000000 1.000000 1.000000 -0.424577 -0.898291 -0.113171
6215 1 -10.156775 -21.298254 -3.427263 0 1.000000 1.000000 1.000000 -0.424573 -0.893674 -0.145205
6216 1 -9.654889 -21.463355 -3.822458 0 1.000000 1.000000 1.000000 -0.405826 -0.899978 -0.159199
6217 1 -9.702085 -21.301745 -4.538780 0 1.000000 1.000000 1.000000 -0.405823 -0.893615 -0.191731
6218 1 -9.172752 -21.443481 -4.951241 0 1.000000 1.000000 1.000000 -0.385308 -0.899362 -0.206604
6219 1 -9.205209 -21.248431 -5.677941 0 1.000000 1.000000 1.000000 -0.385306 -0.891198 -0.239387
6220 1 -8.648891 -21.363249 -6.104183 0 1.000000 1.000000 1.000000 -0.363044 -0.896186 -0.255049
6221 1 -8.666883 -21.133004 -6.835950 0 1.000000 1.000000 1.000000 -0.363043 -0.886210 -0.287804
6222 1 -8.084716 -21.217715 -7.271712 0 1.000000 1.000000 1.000000 -0.339103 -0.890231 -0.304133
6223 1 -8.089018 -20.951286 -8.002641 0 1.000000 1.000000 1.000000 -0.339103 -0.878486 -0.336557
6224 1 -7.482870 -21.003279 -8.442996 0 1.000000 1.000000 1.000000 -0.313608 -0.881339 -0.353401
6225 1 -7.474771 -20.700600 -9.166803 0 1.000000 1.000000 1.000000 -0.313609 -0.867922 -0.385178
6226 1 -6.847246 -20.718038 -9.606343 0 1.000000 1.000000 1.000000 -0.286731 -0.869421 -0.402359
6227 1 -6.828519 -20.380072 -10.316631 0 1.000000 1.000000 1.000000 -0.286732 -0.854485 -0.433175
6228 1 -6.182910 -20.362053 -10.749704 0 1.000000 1.000000 1.000000 -0.258695 -0.854476 -0.450497
6229 1 -6.155742 -19.990824 -11.440273 0 1.000000 1.000000 1.000000 -0.258696 -0.838225 -0.480057
6230 1 -5.495927 -19.937475 -11.861265 0 1.000000 1.000000 1.000000 -0.229759 -0.836593 -0.497315
6231 1 -5.462801 -19.536012 -12.526410 0 1.000000 1.000000 1.000000 -0.229762 -0.819275 -0.525355
6232 1 -4.793091 -19.448501 -12.930034 0 1.000000 1.000000 1.000000 -0.200215 -0.815951 -0.542345
6233 1 -4.756647 -19.020707 -13.564819 0 1.000000 1.000000 1.000000 -0.200217 -0.797842 -0.568649
6234 1 -4.081593 -18.901173 -13.946379 0 1.000000 1.000000 1.000000 -0.170362 -0.792808 -0.585177
6235 1 -4.044478 -18.451623 -14.546844 0 1.000000 1.000000 1.000000 -0.170365 -0.774200 -0.609582
6236 1 -3.368662 -18.303033 -14.902448 0 1.000000 1.000000 1.000000 -0.140504 -0.767490 -0.625474
6237 1 -3.333384 -17.836721 -15.465733 0 1.000000 1.000000 1.000000 -0.140506 -0.748675 -0.647876
6238 1 -2.661226 -17.662669 -15.792428 0 1.000000 1.000000 1.000000 -0.110924 -0.740367 -0.662987
6239 1 -2.630029 -17.184746 -16.316806 0 1.000000 1.000000 1.000000 -0.110926 -0.721622 -0.683343
6240 1 -1.965614 -16.989224 -16.612635 0 1.000000 1.000000 1.000000 -0.081882 -0.711835 -0.697558
6241 1 -1.940392 -16.504755 -17.097464 0 1.000000 1.000000 1.000000 -0.081883 -0.693409 -0.715877
6242 1 -1.287336 -16.291923 -17.361443 0 1.000000 1.000000 1.000000 -0.053599 -0.682290 -0.729114
6243 1 -1.269579 -15.805665 -17.807048 0 1.000000 1.000000 1.000000 -0.053600 -0.664400 -0.745453
6244 1 -0.630948 -15.579645 -18.039079 0 1.000000 1.000000 1.000000 -0.026258 -0.652117 -0.757664
6245 1 -0.621731 -15.095896 -18.446595 0 1.000000 1.000000 1.000000 -0.026259 -0.634939 -0.772116
6246 1 -0.000000 -14.860601 -18.647337 0 1.000000 1.000000 1.000000 -0.000000 -0.621667 -0.783281
6247 1 -0.000000 -14.383091 -19.018523 0 1.000000 1.000000 1.000000 -0.000000 -0.605338 -0.795969
6248 1 0.602943 -14.142099 -19.189239 0 1.000000 1.000000 1.000000 0.025076 -0.591256 -0.806094
6249 1 0.593408 -13.673945 -19.526300 0 1.000000 1.000000 1.000000 0.025077 -0.575872 -0.817155
6250 1 -12.164492 -20.507486 -0.315093 0 1.000000 1.000000 1.000000 -0.507833 -0.861323 -0.015138
6251 1 -11.776400 -20.724999 -0.638030 0 1.000000 1.000000 1.000000 -0.495682 -0.868137 -0.025251
6252 1 -11.868331 -20.642231 -1.283091 0 1.000000 1.000000 1.000000 -0.495677 -0.866719 -0.055708
6253 1 -11.455743 -20.849498 -1.629039 0 1.000000 1.000000 1.000000 -0.481974 -0.873634 -0.066818
6254 1 -11.534594 -20.742830 -2.295057 0 1.000000 1.000000 1.000000 -0.481969 -0.870679 -0.098100
6255 1 -11.096291 -20.936619 -2.663188 0 1.000000 1.000000 1.000000 -0.466618 -0.877565 -0.110217
6256 1 -11.161060 -20.803315 -3.347518 0 1.000000 1.000000 1.000000 -0.466614 -0.872961 -0.142164
6257 1 -10.696109 -20.980195 -3.736332 0 1.000000 1.000000 1.000000 -0.449537 -0.879663 -0.155276
6258 1 -10.746050 -20.817685 -4.435560 0 1.000000 1.000000 1.000000 -0.449533 -0.873322 -0.187692
6259 1 -10.253911 -20.974134 -4.842813 0 1.000000 1.000000 1.000000 -0.430684 -0.879661 -0.201761
6260 1 -10.288613 -20.780167 -5.552754 0 1.000000 1.000000 1.000000 -0.430681 -0.871530 -0.234412
6261 1 -9.769244 -20.912728 -5.975421 0 1.000000 1.000000 1.000000 -0.410048 -0.877312 -0.249370
6262 1 -9.788715 -20.685542 -6.691173 0 1.000000 1.000000 1.000000 -0.410046 -0.867377 -0.281992
6263 1 -9.242672 -20.791001 -7.125461 0 1.000000 1.000000 1.000000 -0.387663 -0.872393 -0.297739
6264 1 -9.247394 -20.529495 -7.841522 0 1.000000 1.000000 1.000000 -0.387662 -0.860692 -0.330042
6265 1 -8.675906 -20.605070 -8.282941 0 1.000000 1.000000 1.000000 -0.363610 -0.864732 -0.346447
6266 1 -8.666869 -20.308956 -8.993387 0 1.000000 1.000000 1.000000 -0.363611 -0.851355 -0.378129
6267 1 -8.071881 -20.352494 -9.436893 0 1.000000 1.000000 1.000000 -0.338025 -0.854218 -0.395032
6268 1 -8.050576 -20.022405 -10.135615 0 1.000000 1.000000 1.000000 -0.338026 -0.839311 -0.425787
6269 1 -7.434739 -20.032546 -10.575812 0 1.000000 1.000000 1.000000 -0.311090 -0.840815 -0.443006
6270 1 -7.403114 -19.670094 -11.256786 0 1.000000 1.000000 1.000000 -0.311092 -0.824574 -0.472545
6271 1 -6.769726 -19.646391 -11.688174 0 1.000000 1.000000 1.000000 -0.283033 -0.824566 -0.489880
6272 1 -6.730095 -19.254146 -12.345754 0 1.000000 1.000000 1.000000 -0.283036 -0.807235 -0.517941
6273 1 -6.082984 -19.197115 -12.762998 0 1.000000 1.000000 1.000000 -0.254118 -0.805604 -0.535188
6274 1 -6.037909 -18.778508 -13.392178 0 1.000000 1.000000 1.000000 -0.254121 -0.787455 -0.561549
6275 1 -5.381281 -18.689611 -13.790375 0 1.000000 1.000000 1.000000 -0.224632 -0.784138 -0.578506
6276 1 -5.333425 -18.248774 -14.387012 0 1.000000 1.000000 1.000000 -0.224635 -0.765463 -0.602997
6277 1 -4.671676 -18.130320 -14.761921 0 1.000000 1.000000 1.000000 -0.194870 -0.760445 -0.619475
6278 1 -4.623659 -17.671870 -15.322883 0 1.000000 1.000000 1.000000 -0.194872 -0.741541 -0.641983
6279 1 -3.961182 -17.526861 -15.671091 0 1.000000 1.000000 1.000000 -0.165123 -0.734856 -0.657816
6280 1 -3.915447 -17.055663 -16.194322 0 1.000000 1.000000 1.000000 -0.165125 -0.716007 -0.678283
6281 1 -3.256451 -16.887601 -16.513342 0 1.000000 1.000000 1.000000 -0.135664 -0.707733 -0.693332
6282 1 -3.215154 -16.408528 -16.997851 0 1.000000 1.000000 1.000000 -0.135666 -0.689201 -0.711756
6283 1 -2.563510 -16.221205 -17.286143 0 1.000000 1.000000 1.000000 -0.106739 -0.679453 -0.725914
6284 1 -2.528450 -15.738929 -17.731916 0 1.000000 1.000000 1.000000 -0.106741 -0.661465 -0.742341
6285 1 -1.887574 -15.536221 -17.988842 0 1.000000 1.000000 1.000000 -0.078559 -0.650386 -0.755531
6286 1 -1.860151 -15.055038 -18.396705 0 1.000000 1.000000 1.000000 -0.078560 -0.633131 -0.770048
6287 1 -1.232939 -14.840733 -18.622427 0 1.000000 1.000000 1.000000 -0.051294 -0.620881 -0.782225
6288 1 -1.214150 -14.364445 -18.993885 0 1.000000 1.000000 1.000000 -0.051294 -0.604507 -0.794946
6289 1 -0.602943 -14.142099 -19.189239 0 1.000000 1.000000 1.000000 -0.025076 -0.591256 -0.806094
6290 1 -0.593408 -13.673945 -19.526300 0 1.000000 1.000000 1.000000 -0.025077 -0.575872 -0.817155
6291 1 -0.000000 -13.446784 -19.692645 0 1.000000 1.000000 1.000000 0.000000 -0.561789 -0.827281
6292 1 0.000000 -12.989417 -19.997655 0 1.000000 1.000000 1.000000 -0.000000 -0.547465 -0.836829
6293 1 -12.674323 -20.192393 -0.509831 0 1.000000 1.000000 1.000000 -0.532327 -0.846185 -0.024494
6294 1 -13.351008 -19.725886 -1.115930 0 1.000000 1.000000 1.000000 -0.560738 -0.826508 -0.049563
6295 1 -12.808754 -20.086969 -1.032354 0 1.000000 1.000000 1.000000 -0.536538 -0.842886 -0.040856
6296 1 -12.390854 -20.319294 -1.482677 0 1.000000 1.000000 1.000000 -0.520164 -0.851585 -0.065062
6297 1 -14.033924 -19.198158 -1.748944 0 1.000000 1.000000 1.000000 -0.589404 -0.804281 -0.075733
6298 1 -13.488641 -19.593098 -1.660259 0 1.000000 1.000000 1.000000 -0.565012 -0.822314 -0.067540
6299 1 -13.068592 -19.830928 -2.126904 0 1.000000 1.000000 1.000000 -0.548637 -0.831012 -0.091744
6300 1 -12.513059 -20.196041 -2.032898 0 1.000000 1.000000 1.000000 -0.524438 -0.847390 -0.083038
6301 1 -12.069387 -20.412309 -2.499330 0 1.000000 1.000000 1.000000 -0.506408 -0.855575 -0.107435
6302 1 -14.717307 -18.605434 -2.406611 0 1.000000 1.000000 1.000000 -0.618080 -0.779350 -0.102913
6303 1 -14.172481 -19.035429 -2.314192 0 1.000000 1.000000 1.000000 -0.593659 -0.799049 -0.095340
6304 1 -13.751250 -19.277632 -2.797414 0 1.000000 1.000000 1.000000 -0.577310 -0.807733 -0.119504
6305 1 -13.192644 -19.678191 -2.698810 0 1.000000 1.000000 1.000000 -0.552881 -0.825794 -0.111299
6306 1 -12.745268 -19.899363 -3.181665 0 1.000000 1.000000 1.000000 -0.534823 -0.833991 -0.135732
6307 1 -12.177544 -20.268368 -3.076190 0 1.000000 1.000000 1.000000 -0.510664 -0.850343 -0.127041
6308 1 -11.707519 -20.465585 -3.556247 0 1.000000 1.000000 1.000000 -0.490967 -0.857910 -0.151466
6309 1 -15.394486 -17.944793 -3.085769 0 1.000000 1.000000 1.000000 -0.646484 -0.751600 -0.130981
6310 1 -14.854048 -18.410448 -2.991353 0 1.000000 1.000000 1.000000 -0.622220 -0.772938 -0.124131
6311 1 -14.432624 -18.655634 -3.491206 0 1.000000 1.000000 1.000000 -0.605921 -0.781595 -0.148221
6312 1 -13.874652 -19.092823 -3.389685 0 1.000000 1.000000 1.000000 -0.581433 -0.801349 -0.140627
6313 1 -13.424535 -19.317790 -3.889049 0 1.000000 1.000000 1.000000 -0.563374 -0.809546 -0.165060
6314 1 -12.853757 -19.723771 -3.779632 0 1.000000 1.000000 1.000000 -0.538946 -0.827607 -0.156856
6315 1 -12.378402 -19.925213 -4.275849 0 1.000000 1.000000 1.000000 -0.519194 -0.835195 -0.181348
6316 1 -11.799888 -20.298022 -4.157938 0 1.000000 1.000000 1.000000 -0.495109 -0.851497 -0.172683
6317 1 -11.303369 -20.473242 -4.648437 0 1.000000 1.000000 1.000000 -0.473773 -0.858341 -0.196950
6318 1 -16.058003 -17.214487 -3.782316 0 1.000000 1.000000 1.000000 -0.674301 -0.720965 -0.159774
6319 1 -15.526237 -17.715657 -3.687990 0 1.000000 1.000000 1.000000 -0.650400 -0.743869 -0.153748
6320 1 -15.105594 -17.962192 -4.204281 0 1.000000 1.000000 1.000000 -0.634167 -0.752490 -0.177738
6321 1 -14.552419 -18.436515 -4.101912 0 1.000000 1.000000 1.000000 -0.609816 -0.773906 -0.170864
6322 1 -14.100568 -18.663929 -4.617641 0 1.000000 1.000000 1.000000 -0.591781 -0.782091 -0.195263
6323 1 -13.530656 -19.108015 -4.506299 0 1.000000 1.000000 1.000000 -0.567263 -0.801870 -0.187661
6324 1 -13.050941 -19.312634 -5.018563 0 1.000000 1.000000 1.000000 -0.547486 -0.809467 -0.212183
6325 1 -12.469465 -19.723851 -4.897530 0 1.000000 1.000000 1.000000 -0.523091 -0.827504 -0.203990
6326 1 -11.965974 -19.902584 -5.403509 0 1.000000 1.000000 1.000000 -0.501678 -0.834373 -0.228344
6327 1 -11.378391 -20.279167 -5.272327 0 1.000000 1.000000 1.000000 -0.477692 -0.850609 -0.219716
6328 1 -10.855775 -20.429642 -5.769390 0 1.000000 1.000000 1.000000 -0.454789 -0.856631 -0.243620
6329 1 -16.699815 -16.414248 -4.491220 0 1.000000 1.000000 1.000000 -0.701194 -0.687438 -0.189094
6330 1 -16.181228 -16.949904 -4.399386 0 1.000000 1.000000 1.000000 -0.677872 -0.711787 -0.183980
6331 1 -15.762282 -17.195937 -4.931625 0 1.000000 1.000000 1.000000 -0.661716 -0.720367 -0.207855
6332 1 -15.218414 -17.707056 -4.830845 0 1.000000 1.000000 1.000000 -0.637718 -0.743364 -0.201804
6333 1 -14.765849 -17.935345 -5.362513 0 1.000000 1.000000 1.000000 -0.619726 -0.751531 -0.226146
6334 1 -14.201178 -18.417896 -5.251678 0 1.000000 1.000000 1.000000 -0.595322 -0.772992 -0.219258
6335 1 -13.718148 -18.624432 -5.779615 0 1.000000 1.000000 1.000000 -0.575546 -0.780589 -0.243779
6336 1 -13.137824 -19.075084 -5.657843 0 1.000000 1.000000 1.000000 -0.551028 -0.800368 -0.236177
6337 1 -12.628357 -19.256388 -6.178962 0 1.000000 1.000000 1.000000 -0.529568 -0.807251 -0.260583
6338 1 -12.037983 -19.672670 -6.045662 0 1.000000 1.000000 1.000000 -0.505231 -0.825246 -0.252410
6339 1 -11.506805 -19.825966 -6.557073 0 1.000000 1.000000 1.000000 -0.482235 -0.831292 -0.276411
6340 1 -10.912179 -20.206355 -6.411984 0 1.000000 1.000000 1.000000 -0.458363 -0.847451 -0.267825
6341 1 -10.364489 -20.329695 -6.911100 0 1.000000 1.000000 1.000000 -0.434015 -0.852563 -0.291147
6342 1 -17.311585 -15.545551 -5.206613 0 1.000000 1.000000 1.000000 -0.726809 -0.651087 -0.218709
6343 1 -16.810727 -16.113685 -5.119910 0 1.000000 1.000000 1.000000 -0.704291 -0.676706 -0.214577
6344 1 -16.394299 -16.357199 -5.667271 0 1.000000 1.000000 1.000000 -0.688214 -0.685243 -0.238334
6345 1 -15.864440 -16.903794 -5.570821 0 1.000000 1.000000 1.000000 -0.664797 -0.709692 -0.233199
6346 1 -15.412155 -17.131201 -6.117677 0 1.000000 1.000000 1.000000 -0.646858 -0.717834 -0.257466
6347 1 -14.857431 -17.651633 -6.010149 0 1.000000 1.000000 1.000000 -0.622796 -0.740893 -0.251401
6348 1 -14.372178 -17.858634 -6.553080 0 1.000000 1.000000 1.000000 -0.603039 -0.748482 -0.275897
6349 1 -13.797566 -18.348883 -6.433381 0 1.000000 1.000000 1.000000 -0.578614 -0.769963 -0.269003
6350 1 -13.283231 -18.531640 -6.969020 0 1.000000 1.000000 1.000000 -0.557134 -0.776853 -0.293431
6351 1 -12.694347 -18.988492 -6.836373 0 1.000000 1.000000 1.000000 -0.532641 -0.796612 -0.285837
6352 1 -12.155653 -19.143829 -7.361550 0 1.000000 1.000000 1.000000 -0.509583 -0.802675 -0.309901
6353 1 -11.558486 -19.565021 -7.215549 0 1.000000 1.000000 1.000000 -0.485318 -0.820616 -0.301753
6354 1 -11.000770 -19.690582 -7.727416 0 1.000000 1.000000 1.000000 -0.460871 -0.825749 -0.325171
6355 1 -10.401400 -20.074868 -7.568055 0 1.000000 1.000000 1.000000 -0.437117 -0.841828 -0.316628
6356 1 -9.830348 -20.169210 -8.064191 0 1.000000 1.000000 1.000000 -0.411499 -0.845960 -0.339147
6357 1 -17.885050 -14.611806 -5.921943 0 1.000000 1.000000 1.000000 -0.750801 -0.612059 -0.248358
6358 1 -17.406310 -15.209384 -5.843149 0 1.000000 1.000000 1.000000 -0.729304 -0.638722 -0.245257
6359 1 -16.993085 -15.448270 -6.404442 0 1.000000 1.000000 1.000000 -0.713299 -0.647221 -0.268905
6360 1 -16.481931 -16.027951 -6.315267 0 1.000000 1.000000 1.000000 -0.690697 -0.672935 -0.264757
6361 1 -16.030856 -16.252584 -6.876205 0 1.000000 1.000000 1.000000 -0.672814 -0.681051 -0.288948
6362 1 -15.490938 -16.809237 -6.775065 0 1.000000 1.000000 1.000000 -0.649333 -0.705567 -0.283799
6363 1 -15.004566 -17.015100 -7.331971 0 1.000000 1.000000 1.000000 -0.629607 -0.713144 -0.308255
6364 1 -14.440529 -17.544065 -7.217514 0 1.000000 1.000000 1.000000 -0.605510 -0.736236 -0.302181
6365 1 -13.922521 -17.727005 -7.766737 0 1.000000 1.000000 1.000000 -0.584030 -0.743126 -0.326608
6366 1 -13.339834 -18.224332 -7.637942 0 1.000000 1.000000 1.000000 -0.559606 -0.764607 -0.319715
6367 1 -12.794825 -18.380795 -8.176017 0 1.000000 1.000000 1.000000 -0.536514 -0.770678 -0.343814
6368 1 -12.199528 -18.843440 -8.032271 0 1.000000 1.000000 1.000000 -0.512060 -0.790406 -0.336233
6369 1 -11.632912 -18.970663 -8.556070 0 1.000000 1.000000 1.000000 -0.487545 -0.795553 -0.359714
6370 1 -11.031322 -19.396613 -8.397215 0 1.000000 1.000000 1.000000 -0.463357 -0.813438 -0.351594
6371 1 -10.448982 -19.492748 -8.904067 0 1.000000 1.000000 1.000000 -0.437643 -0.817585 -0.374196
6372 1 -9.847379 -19.881060 -8.730403 0 1.000000 1.000000 1.000000 -0.413998 -0.833591 -0.365693
6373 1 -9.255387 -19.945231 -9.218181 0 1.000000 1.000000 1.000000 -0.387335 -0.836693 -0.387190
6374 1 -18.412436 -13.618423 -6.630227 0 1.000000 1.000000 1.000000 -0.772844 -0.570579 -0.277762
6375 1 -17.959814 -14.241415 -6.562118 0 1.000000 1.000000 1.000000 -0.752568 -0.598017 -0.275713
6376 1 -17.550322 -14.473567 -7.135781 0 1.000000 1.000000 1.000000 -0.736622 -0.606485 -0.299273
6377 1 -17.062333 -15.082845 -7.056899 0 1.000000 1.000000 1.000000 -0.715060 -0.633228 -0.296162
6378 1 -16.613304 -15.302758 -7.630441 0 1.000000 1.000000 1.000000 -0.697227 -0.641321 -0.320283
6379 1 -16.092982 -15.892816 -7.538921 0 1.000000 1.000000 1.000000 -0.674569 -0.667099 -0.316125
6380 1 -15.606575 -16.095840 -8.108425 0 1.000000 1.000000 1.000000 -0.654878 -0.674662 -0.340537
6381 1 -15.058077 -16.661471 -8.002615 0 1.000000 1.000000 1.000000 -0.631359 -0.699218 -0.335379
6382 1 -14.537649 -16.843209 -8.564149 0 1.000000 1.000000 1.000000 -0.609893 -0.706103 -0.359791
6383 1 -13.966129 -17.379779 -8.442728 0 1.000000 1.000000 1.000000 -0.585782 -0.729209 -0.353714
6384 1 -13.416136 -17.536342 -8.992529 0 1.000000 1.000000 1.000000 -0.562678 -0.735284 -0.377825
6385 1 -12.827518 -18.040032 -8.854612 0 1.000000 1.000000 1.000000 -0.538268 -0.756752 -0.370937
6386 1 -12.253324 -18.168263 -9.389253 0 1.000000 1.000000 1.000000 -0.513713 -0.761907 -0.394457
6387 1 -11.654014 -18.636249 -9.234456 0 1.000000 1.000000 1.000000 -0.489304 -0.781600 -0.386890
6388 1 -11.061619 -18.733889 -9.750997 0 1.000000 1.000000 1.000000 -0.463526 -0.785757 -0.409548
6389 1 -10.458177 -19.164438 -9.579462 0 1.000000 1.000000 1.000000 -0.439408 -0.803590 -0.401452
6390 1 -9.853905 -19.230215 -10.075551 0 1.000000 1.000000 1.000000 -0.412664 -0.806702 -0.423013
6391 1 -9.252718 -19.622696 -9.887933 0 1.000000 1.000000 1.000000 -0.389106 -0.822649 -0.414543
6392 1 -8.642894 -19.656332 -10.361860 0 1.000000 1.000000 1.000000 -0.361667 -0.824700 -0.434817
6393 1 -18.886882 -12.572735 -7.324341 0 1.000000 1.000000 1.000000 -0.792651 -0.526955 -0.306633
6394 1 -18.463779 -13.216225 -7.269548 0 1.000000 1.000000 1.000000 -0.773770 -0.554862 -0.305627
6395 1 -18.058378 -13.439638 -7.853662 0 1.000000 1.000000 1.000000 -0.757862 -0.563310 -0.329129
6396 1 -17.597543 -14.073988 -7.788004 0 1.000000 1.000000 1.000000 -0.737546 -0.590802 -0.327076
6397 1 -17.151278 -14.287271 -8.372310 0 1.000000 1.000000 1.000000 -0.719752 -0.598878 -0.351143
6398 1 -16.655029 -14.906763 -8.293629 0 1.000000 1.000000 1.000000 -0.698150 -0.625671 -0.348027
6399 1 -16.169620 -15.105227 -8.873996 0 1.000000 1.000000 1.000000 -0.678490 -0.633222 -0.372398
6400 1 -15.641489 -15.704247 -8.780312 0 1.000000 1.000000 1.000000 -0.655800 -0.659037 -0.368234
6401 1 -15.119920 -15.883338 -9.352544 0 1.000000 1.000000 1.000000 -0.634351 -0.665917 -0.392624
6402 1 -14.564578 -16.456670 -9.242192 0 1.000000 1.000000 1.000000 -0.610814 -0.690492 -0.387463
6403 1 -14.011041 -16.612229 -9.802232 0 1.000000 1.000000 1.000000 -0.587709 -0.696566 -0.411574
6404 1 -13.434120 -17.155332 -9.673989 0 1.000000 1.000000 1.000000 -0.563599 -0.719672 -0.405497
6405 1 -12.853851 -17.283846 -10.218106 0 1.000000 1.000000 1.000000 -0.539025 -0.724831 -0.429036
6406 1 -12.261673 -17.793088 -10.071286 0 1.000000 1.000000 1.000000 -0.514636 -0.746281 -0.422154
6407 1 -11.660696 -17.891895 -10.596251 0 1.000000 1.000000 1.000000 -0.488822 -0.750444 -0.444845
6408 1 -11.059952 -18.364710 -10.430758 0 1.000000 1.000000 1.000000 -0.464452 -0.770105 -0.437291
6409 1 -10.444764 -18.432125 -10.933971 0 1.000000 1.000000 1.000000 -0.437658 -0.773222 -0.458893
6410 1 -9.842158 -18.867080 -10.750297 0 1.000000 1.000000 1.000000 -0.413592 -0.791016 -0.450815
6411 1 -9.219381 -18.902439 -11.229859 0 1.000000 1.000000 1.000000 -0.386100 -0.793072 -0.471130
6412 1 -8.621303 -19.299209 -11.029039 0 1.000000 1.000000 1.000000 -0.362598 -0.808980 -0.462680
6413 1 -7.997359 -19.302830 -11.483768 0 1.000000 1.000000 1.000000 -0.334689 -0.809990 -0.481559
6414 1 -19.302830 -11.483768 -7.997359 0 1.000000 1.000000 1.000000 -0.809990 -0.481559 -0.334689
6415 1 -18.911863 -12.142138 -7.958217 0 1.000000 1.000000 1.000000 -0.792643 -0.509610 -0.334686
6416 1 -18.510750 -12.355009 -8.550551 0 1.000000 1.000000 1.000000 -0.776748 -0.518052 -0.358168
6417 1 -18.080369 -13.009020 -8.500789 0 1.000000 1.000000 1.000000 -0.757855 -0.545978 -0.357161
6418 1 -17.637454 -13.213891 -9.093692 0 1.000000 1.000000 1.000000 -0.740081 -0.554046 -0.381199
6419 1 -17.169199 -13.857792 -9.030872 0 1.000000 1.000000 1.000000 -0.719745 -0.581564 -0.379144
6420 1 -16.685743 -14.050039 -9.620034 0 1.000000 1.000000 1.000000 -0.700107 -0.589108 -0.403487
6421 1 -16.182413 -14.677983 -9.541839 0 1.000000 1.000000 1.000000 -0.678483 -0.615927 -0.400367
6422 1 -15.660977 -14.852988 -10.122833 0 1.000000 1.000000 1.000000 -0.657051 -0.622801 -0.424738
6423 1 -15.126615 -15.459324 -10.027223 0 1.000000 1.000000 1.000000 -0.634344 -0.648635 -0.420571
6424 1 -14.571047 -15.612742 -10.595714 0 1.000000 1.000000 1.000000 -0.611246 -0.654708 -0.444675
6425 1 -14.010816 -16.192316 -10.481075 0 1.000000 1.000000 1.000000 -0.587703 -0.679289 -0.439513
6426 1 -13.426129 -16.320340 -11.033034 0 1.000000 1.000000 1.000000 -0.563122 -0.684450 -0.463057
6427 1 -12.846086 -16.868768 -10.898307 0 1.000000 1.000000 1.000000 -0.539019 -0.707549 -0.456982
6428 1 -12.238228 -16.968363 -11.430207 0 1.000000 1.000000 1.000000 -0.513186 -0.711715 -0.479689
6429 1 -11.645016 -17.482248 -11.274970 0 1.000000 1.000000 1.000000 -0.488817 -0.733148 -0.472814
6430 1 -11.020559 -17.551315 -11.783942 0 1.000000 1.000000 1.000000 -0.461997 -0.736268 -0.494437
6431 1 -10.421051 -18.028376 -11.608435 0 1.000000 1.000000 1.000000 -0.437654 -0.755906 -0.486893
6432 1 -9.786835 -18.065840 -12.092361 0 1.000000 1.000000 1.000000 -0.410134 -0.757964 -0.507228
6433 1 -9.187771 -18.504947 -11.897459 0 1.000000 1.000000 1.000000 -0.386096 -0.775738 -0.499160
6434 1 -8.550551 -18.510750 -12.355009 0 1.000000 1.000000 1.000000 -0.358168 -0.776748 -0.518052
6435 1 -7.958217 -18.911863 -12.142138 0 1.000000 1.000000 1.000000 -0.334686 -0.792643 -0.509610
6436 1 -7.324341 -18.886882 -12.572735 0 1.000000 1.000000 1.000000 -0.306633 -0.792651 -0.526955
6437 1 -19.656332 -10.361860 -8.642894 0 1.000000 1.000000 1.000000 -0.824700 -0.434817 -0.361667
6438 1 -19.299209 -11.029039 -8.621303 0 1.000000 1.000000 1.000000 -0.808980 -0.462680 -0.362598
6439 1 -18.902439 -11.229859 -9.219381 0 1.000000 1.000000 1.000000 -0.793072 -0.471130 -0.386100
6440 1 -18.504947 -11.897459 -9.187771 0 1.000000 1.000000 1.000000 -0.775738 -0.499160 -0.386096
6441 1 -18.065840 -12.092361 -9.786835 0 1.000000 1.000000 1.000000 -0.757964 -0.507228 -0.410134
6442 1 -17.628729 -12.754783 -9.742518 0 1.000000 1.000000 1.000000 -0.739071 -0.535154 -0.409126
6443 1 -17.148088 -12.939302 -10.338129 0 1.000000 1.000000 1.000000 -0.719441 -0.542695 -0.433460
6444 1 -16.673357 -13.590657 -10.278465 0 1.000000 1.000000 1.000000 -0.699097 -0.570223 -0.431403
6445 1 -16.153290 -13.760216 -10.866004 0 1.000000 1.000000 1.000000 -0.677675 -0.577095 -0.455761
6446 1 -15.644239 -14.394602 -10.788568 0 1.000000 1.000000 1.000000 -0.656042 -0.603925 -0.452640
6447 1 -15.088188 -14.544764 -11.363457 0 1.000000 1.000000 1.000000 -0.632950 -0.609997 -0.476736
6448 1 -14.549359 -15.156568 -11.266214 0 1.000000 1.000000 1.000000 -0.610238 -0.635837 -0.472569
6449 1 -13.962027 -15.283313 -11.824141 0 1.000000 1.000000 1.000000 -0.585657 -0.640998 -0.496112
6450 1 -13.399029 -15.867511 -11.705600 0 1.000000 1.000000 1.000000 -0.562114 -0.665579 -0.490951
6451 1 -12.786183 -15.967482 -12.242745 0 1.000000 1.000000 1.000000 -0.536274 -0.669746 -0.513664
6452 1 -12.205426 -16.519905 -12.102078 0 1.000000 1.000000 1.000000 -0.512178 -0.692838 -0.507591
6453 1 -11.573609 -16.590614 -12.615287 0 1.000000 1.000000 1.000000 -0.485347 -0.695960 -0.529224
6454 1 -10.981954 -17.108138 -12.452387 0 1.000000 1.000000 1.000000 -0.460989 -0.717382 -0.522352
6455 1 -10.338129 -17.148088 -12.939302 0 1.000000 1.000000 1.000000 -0.433460 -0.719441 -0.542695
6456 1 -9.742518 -17.628729 -12.754783 0 1.000000 1.000000 1.000000 -0.409126 -0.739071 -0.535154
6457 1 -9.093692 -17.637454 -13.213891 0 1.000000 1.000000 1.000000 -0.381199 -0.740081 -0.554046
6458 1 -8.500789 -18.080369 -13.009020 0 1.000000 1.000000 1.000000 -0.357161 -0.757855 -0.545978
6459 1 -7.853662 -18.058378 -13.439638 0 1.000000 1.000000 1.000000 -0.329129 -0.757862 -0.563310
6460 1 -7.269548 -18.463779 -13.216225 0 1.000000 1.000000 1.000000 -0.305627 -0.773770 -0.554862
6461 1 -6.630227 -18.412436 -13.618423 0 1.000000 1.000000 1.000000 -0.277762 -0.772844 -0.570579
6462 1 -19.945231 -9.218181 -9.255387 0 1.000000 1.000000 1.000000 -0.836693 -0.387190 -0.387335
6463 1 -19.622696 -9.887933 -9.252718 0 1.000000 1.000000 1.000000 -0.822649 -0.414543 -0.389106
6464 1 -19.230215 -10.075551 -9.853905 0 1.000000 1.000000 1.000000 -0.806702 -0.423013 -0.412664
6465 1 -18.867080 -10.750297 -9.842158 0 1.000000 1.000000 1.000000 -0.791016 -0.450815 -0.413592
6466 1 -18.432125 -10.933971 -10.444764 0 1.000000 1.000000 1.000000 -0.773222 -0.458893 -0.437658
6467 1 -18.028376 -11.608435 -10.421051 0 1.000000 1.000000 1.000000 -0.755906 -0.486893 -0.437654
6468 1 -17.551315 -11.783942 -11.020559 0 1.000000 1.000000 1.000000 -0.736268 -0.494437 -0.461997
6469 1 -17.108138 -12.452387 -10.981954 0 1.000000 1.000000 1.000000 -0.717382 -0.522352 -0.460989
6470 1 -16.590614 -12.615287 -11.573609 0 1.000000 1.000000 1.000000 -0.695960 -0.529224 -0.485347
6471 1 -16.110497 -13.271760 -11.517324 0 1.000000 1.000000 1.000000 -0.675617 -0.556752 -0.483290
6472 1 -15.555507 -13.417629 -12.096347 0 1.000000 1.000000 1.000000 -0.652528 -0.562823 -0.507383
6473 1 -15.042250 -14.056247 -12.019917 0 1.000000 1.000000 1.000000 -0.630893 -0.589657 -0.504261
6474 1 -14.454114 -14.180941 -12.581748 0 1.000000 1.000000 1.000000 -0.606313 -0.594818 -0.527803
6475 1 -13.912721 -14.796203 -12.483216 0 1.000000 1.000000 1.000000 -0.583599 -0.620659 -0.523636
6476 1 -13.296929 -14.896121 -13.023753 0 1.000000 1.000000 1.000000 -0.557758 -0.624826 -0.546350
6477 1 -12.733390 -15.483201 -12.901823 0 1.000000 1.000000 1.000000 -0.534216 -0.649406 -0.541188
6478 1 -12.096347 -15.555507 -13.417629 0 1.000000 1.000000 1.000000 -0.507383 -0.652528 -0.562823
6479 1 -11.517324 -16.110497 -13.271760 0 1.000000 1.000000 1.000000 -0.483290 -0.675617 -0.556752
6480 1 -10.866004 -16.153290 -13.760216 0 1.000000 1.000000 1.000000 -0.455761 -0.677675 -0.577095
6481 1 -10.278465 -16.673357 -13.590657 0 1.000000 1.000000 1.000000 -0.431403 -0.699097 -0.570223
6482 1 -9.620034 -16.685743 -14.050039 0 1.000000 1.000000 1.000000 -0.403487 -0.700107 -0.589108
6483 1 -9.030872 -17.169199 -13.857792 0 1.000000 1.000000 1.000000 -0.379144 -0.719745 -0.581564
6484 1 -8.372310 -17.151278 -14.287271 0 1.000000 1.000000 1.000000 -0.351143 -0.719752 -0.598878
6485 1 -7.788004 -17.597543 -14.073988 0 1.000000 1.000000 1.000000 -0.327076 -0.737546 -0.590802
6486 1 -7.135781 -17.550322 -14.473567 0 1.000000 1.000000 1.000000 -0.299273 -0.736622 -0.606485
6487 1 -6.562118 -17.959814 -14.241415 0 1.000000 1.000000 1.000000 -0.275713 -0.752568 -0.598017
6488 1 -5.921943 -17.885050 -14.611806 0 1.000000 1.000000 1.000000 -0.248358 -0.750801 -0.612059
6489 1 -20.169210 -8.064191 -9.830348 0 1.000000 1.000000 1.000000 -0.845960 -0.339147 -0.411499
6490 1 -19.881060 -8.730403 -9.847379 0 1.000000 1.000000 1.000000 -0.833591 -0.365693 -0.413998
6491 1 -19.492748 -8.904067 -10.448982 0 1.000000 1.000000 1.000000 -0.817585 -0.374196 -0.437643
6492 1 -19.164438 -9.579462 -10.458177 0 1.000000 1.000000 1.000000 -0.803590 -0.401452 -0.439408
6493 1 -18.733889 -9.750997 -11.061619 0 1.000000 1.000000 1.000000 -0.785757 -0.409548 -0.463526
6494 1 -18.364710 -10.430758 -11.059952 0 1.000000 1.000000 1.000000 -0.770105 -0.437291 -0.464452
6495 1 -17.891895 -10.596251 -11.660696 0 1.000000 1.000000 1.000000 -0.750444 -0.444845 -0.488822
6496 1 -17.482248 -11.274970 -11.645016 0 1.000000 1.000000 1.000000 -0.733148 -0.472814 -0.488817
6497 1 -16.968363 -11.430207 -12.238228 0 1.000000 1.000000 1.000000 -0.711715 -0.479689 -0.513186
6498 1 -16.519905 -12.102078 -12.205426 0 1.000000 1.000000 1.000000 -0.692838 -0.507591 -0.512178
6499 1 -15.967482 -12.242745 -12.786183 0 1.000000 1.000000 1.000000 -0.669746 -0.513664 -0.536274
6500 1 -15.483201 -12.901823 -12.733390 0 1.000000 1.000000 1.000000 -0.649406 -0.541188 -0.534216
6501 1 -14.896121 -13.023753 -13.296929 0 1.000000 1.000000 1.000000 -0.624826 -0.546350 -0.557758
6502 1 -14.380292 -13.664254 -13.221718 0 1.000000 1.000000 1.000000 -0.603192 -0.573183 -0.554636
6503 1 -13.763686 -13.763686 -13.763686 0 1.000000 1.000000 1.000000 -0.577350 -0.577350 -0.577350
6504 1 -13.221718 -14.380292 -13.664254 0 1.000000 1.000000 1.000000 -0.554636 -0.603192 -0.573183
6505 1 -12.581748 -14.454114 -14.180941 0 1.000000 1.000000 1.000000 -0.527803 -0.606313 -0.594818
6506 1 -12.019917 -15.042250 -14.056247 0 1.000000 1.000000 1.000000 -0.504261 -0.630893 -0.589657
6507 1 -11.363457 -15.088188 -14.544764 0 1.000000 1.000000 1.000000 -0.476736 -0.632950 -0.609997
6508 1 -10.788568 -15.644239 -14.394602 0 1.000000 1.000000 1.000000 -0.452640 -0.656042 -0.603925
6509 1 -10.122833 -15.660977 -14.852988 0 1.000000 1.000000 1.000000 -0.424738 -0.657051 -0.622801
6510 1 -9.541839 -16.182413 -14.677983 0 1.000000 1.000000 1.000000 -0.400367 -0.678483 -0.615927
6511 1 -8.873996 -16.169620 -15.105227 0 1.000000 1.000000 1.000000 -0.372398 -0.678490 -0.633222
6512 1 -8.293629 -16.655029 -14.906763 0 1.000000 1.000000 1.000000 -0.348027 -0.698150 -0.625671
6513 1 -7.630441 -16.613304 -15.302758 0 1.000000 1.000000 1.000000 -0.320283 -0.697227 -0.641321
6514 1 -7.056899 -17.062333 -15.082845 0 1.000000 1.000000 1.000000 -0.296162 -0.715060 -0.633228
6515 1 -6.404442 -16.993085 -15.448270 0 1.000000 1.000000 1.000000 -0.268905 -0.713299 -0.647221
6516 1 -5.843149 -17.406310 -15.209384 0 1.000000 1.000000 1.000000 -0.245257 -0.729304 -0.638722
6517 1 -5.206613 -17.311585 -15.545551 0 1.000000 1.000000 1.000000 -0.218709 -0.726809 -0.651087
6518 1 -20.329695 -6.911100 -10.364489 0 1.000000 1.000000 1.000000 -0.852563 -0.291147 -0.434015
6519 1 -20.074868 -7.568055 -10.401400 0 1.000000 1.000000 1.000000 -0.841828 -0.316628 -0.437117
6520 1 -19.690582 -7.727416 -11.000770 0 1.000000 1.000000 1.000000 -0.825749 -0.325171 -0.460871
6521 1 -19.396613 -8.397215 -11.031322 0 1.000000 1.000000 1.000000 -0.813438 -0.351594 -0.463357
6522 1 -18.970663 -8.556070 -11.632912 0 1.000000 1.000000 1.000000 -0.795553 -0.359714 -0.487545
6523 1 -18.636249 -9.234456 -11.654014 0 1.000000 1.000000 1.000000 -0.781600 -0.386890 -0.489304
6524 1 -18.168263 -9.389253 -12.253324 0 1.000000 1.000000 1.000000 -0.761907 -0.394457 -0.513713
6525 1 -17.793088 -10.071286 -12.261673 0 1.000000 1.000000 1.000000 -0.746281 -0.422154 -0.514636
6526 1 -17.283846 -10.218106 -12.853851 0 1.000000 1.000000 1.000000 -0.724831 -0.429036 -0.539025
6527 1 -16.868768 -10.898307 -12.846086 0 1.000000 1.000000 1.000000 -0.707549 -0.456982 -0.539019
6528 1 -16.320340 -11.033034 -13.426129 0 1.000000 1.000000 1.000000 -0.684450 -0.463057 -0.563122
6529 1 -15.867511 -11.705600 -13.399029 0 1.000000 1.000000 1.000000 -0.665579 -0.490951 -0.562114
6530 1 -15.283313 -11.824141 -13.962027 0 1.000000 1.000000 1.000000 -0.640998 -0.496112 -0.585657
6531 1 -14.796203 -12.483216 -13.912721 0 1.000000 1.000000 1.000000 -0.620659 -0.523636 -0.583599
6532 1 -14.180941 -12.581748 -14.454114 0 1.000000 1.000000 1.000000 -0.594818 -0.527803 -0.606313
6533 1 -13.664254 -13.221718 -14.380292 0 1.000000 1.000000 1.000000 -0.573183 -0.554636 -0.603192
6534 1 -13.023753 -13.296929 -14.896121 0 1.000000 1.000000 1.000000 -0.546350 -0.557758 -0.624826
6535 1 -12.483216 -13.912721 -14.796203 0 1.000000 1.000000 1.000000 -0.523636 -0.583599 -0.620659
6536 1 -11.824141 -13.962027 -15.283313 0 1.000000 1.000000 1.000000 -0.496112 -0.585657 -0.640998
6537 1 -11.266214 -14.549359 -15.156568 0 1.000000 1.000000 1.000000 -0.472569 -0.610238 -0.635837
6538 1 -10.595714 -14.571047 -15.612742 0 1.000000 1.000000 1.000000 -0.444675 -0.611246 -0.654708
6539 1 -10.027223 -15.126615 -15.459324 0 1.000000 1.000000 1.000000 -0.420571 -0.634344 -0.648635
6540 1 -9.352544 -15.119920 -15.883338 0 1.000000 1.000000 1.000000 -0.392624 -0.634351 -0.665917
6541 1 -8.780312 -15.641489 -15.704247 0 1.000000 1.000000 1.000000 -0.368234 -0.655800 -0.659037
6542 1 -8.108425 -15.606575 -16.095840 0 1.000000 1.000000 1.000000 -0.340537 -0.654878 -0.674662
6543 1 -7.538921 -16.092982 -15.892816 0 1.000000 1.000000 1.000000 -0.316125 -0.674569 -0.667099
6544 1 -6.876205 -16.030856 -16.252584 0 1.000000 1.000000 1.000000 -0.288948 -0.672814 -0.681051
6545 1 -6.315267 -16.481931 -16.027951 0 1.000000 1.000000 1.000000 -0.264757 -0.690697 -0.672935
6546 1 -5.667271 -16.394299 -16.357199 0 1.000000 1.000000 1.000000 -0.238334 -0.688214 -0.685243
6547 1 -5.119910 -16.810727 -16.113685 0 1.000000 1.000000 1.000000 -0.214577 -0.704291 -0.676706
6548 1 -4.491220 -16.699815 -16.414248 0 1.000000 1.000000 1.000000 -0.189094 -0.701194 -0.687438
6549 1 -20.429642 -5.769390 -10.855775 0 1.000000 1.000000 1.000000 -0.856631 -0.243620 -0.454789
6550 1 -20.206355 -6.411984 -10.912179 0 1.000000 1.000000 1.000000 -0.847451 -0.267825 -0.458363
6551 1 -19.825966 -6.557073 -11.506805 0 1.000000 1.000000 1.000000 -0.831292 -0.276411 -0.482235
6552 1 -19.565021 -7.215549 -11.558486 0 1.000000 1.000000 1.000000 -0.820616 -0.301753 -0.485318
6553 1 -19.143829 -7.361550 -12.155653 0 1.000000 1.000000 1.000000 -0.802675 -0.309901 -0.509583
6554 1 -18.843440 -8.032271 -12.199528 0 1.000000 1.000000 1.000000 -0.790406 -0.336233 -0.512060
6555 1 -18.380795 -8.176017 -12.794825 0 1.000000 1.000000 1.000000 -0.770678 -0.343814 -0.536514
6556 1 -18.040032 -8.854612 -12.827518 0 1.000000 1.000000 1.000000 -0.756752 -0.370937 -0.538268
6557 1 -17.536342 -8.992529 -13.416136 0 1.000000 1.000000 1.000000 -0.735284 -0.377825 -0.562678
6558 1 -17.155332 -9.673989 -13.434120 0 1.000000 1.000000 1.000000 -0.719672 -0.405497 -0.563599
6559 1 -16.612229 -9.802232 -14.011041 0 1.000000 1.000000 1.000000 -0.696566 -0.411574 -0.587709
6560 1 -16.192316 -10.481075 -14.010816 0 1.000000 1.000000 1.000000 -0.679289 -0.439513 -0.587703
6561 1 -15.612742 -10.595714 -14.571047 0 1.000000 1.000000 1.000000 -0.654708 -0.444675 -0.611246
6562 1 -15.156568 -11.266214 -14.549359 0 1.000000 1.000000 1.000000 -0.635837 -0.472569 -0.610238
6563 1 -14.544764 -11.363457 -15.088188 0 1.000000 1.000000 1.000000 -0.609997 -0.476736 -0.632950
6564 1 -14.056247 -12.019917 -15.042250 0 1.000000 1.000000 1.000000 -0.589657 -0.504261 -0.630893
6565 1 -13.417629 -12.096347 -15.555507 0 1.000000 1.000000 1.000000 -0.562823 -0.507383 -0.652528
6566 1 -12.901823 -12.733390 -15.483201 0 1.000000 1.000000 1.000000 -0.541188 -0.534216 -0.649406
6567 1 -12.242745 -12.786183 -15.967482 0 1.000000 1.000000 1.000000 -0.513664 -0.536274 -0.669746
6568 1 -11.705600 -13.399029 -15.867511 0 1.000000 1.000000 1.000000 -0.490951 -0.562114 -0.665579
6569 1 -11.033034 -13.426129 -16.320340 0 1.000000 1.000000 1.000000 -0.463057 -0.563122 -0.684450
6570 1 -10.481075 -14.010816 -16.192316 0 1.000000 1.000000 1.000000 -0.439513 -0.587703 -0.679289
6571 1 -9.802232 -14.011041 -16.612229 0 1.000000 1.000000 1.000000 -0.411574 -0.587709 -0.696566
6572 1 -9.242192 -14.564578 -16.456670 0 1.000000 1.000000 1.000000 -0.387463 -0.610814 -0.690492
6573 1 -8.564149 -14.537649 -16.843209 0 1.000000 1.000000 1.000000 -0.359791 -0.609893 -0.706103
6574 1 -8.002615 -15.058077 -16.661471 0 1.000000 1.000000 1.000000 -0.335379 -0.631359 -0.699218
6575 1 -7.331971 -15.004566 -17.015100 0 1.000000 1.000000 1.000000 -0.308255 -0.629607 -0.713144
6576 1 -6.775065 -15.490938 -16.809237 0 1.000000 1.000000 1.000000 -0.283799 -0.649333 -0.705567
6577 1 -6.117677 -15.412155 -17.131201 0 1.000000 1.000000 1.000000 -0.257466 -0.646858 -0.717834
6578 1 -5.570821 -15.864440 -16.903794 0 1.000000 1.000000 1.000000 -0.233199 -0.664797 -0.709692
6579 1 -4.931625 -15.762282 -17.195937 0 1.000000 1.000000 1.000000 -0.207855 -0.661716 -0.720367
6580 1 -4.399386 -16.181228 -16.949904 0 1.000000 1.000000 1.000000 -0.183980 -0.677872 -0.711787
6581 1 -3.782316 -16.058003 -17.214487 0 1.000000 1.000000 1.000000 -0.159774 -0.674301 -0.720965
6582 1 -20.473242 -4.648437 -11.303369 0 1.000000 1.000000 1.000000 -0.858341 -0.196950 -0.473773
6583 1 -20.279167 -5.272327 -11.378391 0 1.000000 1.000000 1.000000 -0.850609 -0.219716 -0.477692
6584 1 -19.902584 -5.403509 -11.965974 0 1.000000 1.000000 1.000000 -0.834373 -0.228344 -0.501678
6585 1 -19.672670 -6.045662 -12.037983 0 1.000000 1.000000 1.000000 -0.825246 -0.252410 -0.505231
6586 1 -19.256388 -6.178962 -12.628357 0 1.000000 1.000000 1.000000 -0.807251 -0.260583 -0.529568
6587 1 -18.988492 -6.836373 -12.694347 0 1.000000 1.000000 1.000000 -0.796612 -0.285837 -0.532641
6588 1 -18.531640 -6.969020 -13.283231 0 1.000000 1.000000 1.000000 -0.776853 -0.293431 -0.557134
6589 1 -18.224332 -7.637942 -13.339834 0 1.000000 1.000000 1.000000 -0.764607 -0.319715 -0.559606
6590 1 -17.727005 -7.766737 -13.922521 0 1.000000 1.000000 1.000000 -0.743126 -0.326608 -0.584030
6591 1 -17.379779 -8.442728 -13.966129 0 1.000000 1.000000 1.000000 -0.729209 -0.353714 -0.585782
6592 1 -16.843209 -8.564149 -14.537649 0 1.000000 1.000000 1.000000 -0.706103 -0.359791 -0.609893
6593 1 -16.456670 -9.242192 -14.564578 0 1.000000 1.000000 1.000000 -0.690492 -0.387463 -0.610814
6594 1 -15.883338 -9.352544 -15.119920 0 1.000000 1.000000 1.000000 -0.665917 -0.392624 -0.634351
6595 1 -15.459324 -10.027223 -15.126615 0 1.000000 1.000000 1.000000 -0.648635 -0.420571 -0.634344
6596 1 -14.852988 -10.122833 -15.660977 0 1.000000 1.000000 1.000000 -0.622801 -0.424738 -0.657051
6597 1 -14.394602 -10.788568 -15.644239 0 1.000000 1.000000 1.000000 -0.603925 -0.452640 -0.656042
6598 1 -13.760216 -10.866004 -16.153290 0 1.000000 1.000000 1.000000 -0.577095 -0.455761 -0.677675
6599 1 -13.271760 -11.517324 -16.110497 0 1.000000 1.000000 1.000000 -0.556752 -0.483290 -0.675617
6600 1 -12.615287 -11.573609 -16.590614 0 1.000000 1.000000 1.000000 -0.529224 -0.485347 -0.695960
6601 1 -12.102078 -12.205426 -16.519905 0 1.000000 1.000000 1.000000 -0.507591 -0.512178 -0.692838
6602 1 -11.430207 -12.238228 -16.968363 0 1.000000 1.000000 1.000000 -0.479689 -0.513186 -0.711715
6603 1 -10.898307 -12.846086 -16.868768 0 1.000000 1.000000 1.000000 -0.456982 -0.539019 -0.707549
6604 1 -10.218106 -12.853851 -17.283846 0 1.000000 1.000000 1.000000 -0.429036 -0.539025 -0.724831
6605 1 -9.673989 -13.434120 -17.155332 0 1.000000 1.000000 1.000000 -0.405497 -0.563599 -0.719672
6606 1 -8.992529 -13.416136 -17.536342 0 1.000000 1.000000 1.000000 -0.377825 -0.562678 -0.735284
6607 1 -8.442728 -13.966129 -17.379779 0 1.000000 1.000000 1.000000 -0.353714 -0.585782 -0.729209
6608 1 -7.766737 -13.922521 -17.727005 0 1.000000 1.000000 1.000000 -0.326608 -0.584030 -0.743126
6609 1 -7.217514 -14.440529 -17.544065 0 1.000000 1.000000 1.000000 -0.302181 -0.605510 -0.736236
6610 1 -6.553080 -14.372178 -17.858634 0 1.000000 1.000000 1.000000 -0.275897 -0.603039 -0.748482
6611 1 -6.010149 -14.857431 -17.651633 0 1.000000 1.000000 1.000000 -0.251401 -0.622796 -0.740893
6612 1 -5.362513 -14.765849 -17.935345 0 1.000000 1.000000 1.000000 -0.226146 -0.619726 -0.751531
6613 1 -4.830845 -15.218414 -17.707056 0 1.000000 1.000000 1.000000 -0.201804 -0.637718 -0.743364
6614 1 -4.204281 -15.105594 -17.962192 0 1.000000 1.000000 1.000000 -0.177738 -0.634167 -0.752490
6615 1 -3.687990 -15.526237 -17.715657 0 1.000000 1.000000 1.000000 -0.153748 -0.650400 -0.743869
6616 1 -3.085769 -15.394486 -17.944793 0 1.000000 1.000000 1.000000 -0.130981 -0.646484 -0.751600
6617 1 -20.465585 -3.556247 -11.707519 0 1.000000 1.000000 1.000000 -0.857910 -0.151466 -0.490967
6618 1 -20.298022 -4.157938 -11.799888 0 1.000000 1.000000 1.000000 -0.851497 -0.172683 -0.495109
6619 1 -19.925213 -4.275849 -12.378402 0 1.000000 1.000000 1.000000 -0.835195 -0.181348 -0.519194
6620 1 -19.723851 -4.897530 -12.469465 0 1.000000 1.000000 1.000000 -0.827504 -0.203990 -0.523091
6621 1 -19.312634 -5.018563 -13.050941 0 1.000000 1.000000 1.000000 -0.809467 -0.212183 -0.547486
6622 1 -19.075084 -5.657843 -13.137824 0 1.000000 1.000000 1.000000 -0.800368 -0.236177 -0.551028
6623 1 -18.624432 -5.779615 -13.718148 0 1.000000 1.000000 1.000000 -0.780589 -0.243779 -0.575546
6624 1 -18.348883 -6.433381 -13.797566 0 1.000000 1.000000 1.000000 -0.769963 -0.269003 -0.578614
6625 1 -17.858634 -6.553080 -14.372178 0 1.000000 1.000000 1.000000 -0.748482 -0.275897 -0.603039
6626 1 -17.544065 -7.217514 -14.440529 0 1.000000 1.000000 1.000000 -0.736236 -0.302181 -0.605510
6627 1 -17.015100 -7.331971 -15.004566 0 1.000000 1.000000 1.000000 -0.713144 -0.308255 -0.629607
6628 1 -16.661471 -8.002615 -15.058077 0 1.000000 1.000000 1.000000 -0.699218 -0.335379 -0.631359
6629 1 -16.095840 -8.108425 -15.606575 0 1.000000 1.000000 1.000000 -0.674662 -0.340537 -0.654878
6630 1 -15.704247 -8.780312 -15.641489 0 1.000000 1.000000 1.000000 -0.659037 -0.368234 -0.655800
6631 1 -15.105227 -8.873996 -16.169620 0 1.000000 1.000000 1.000000 -0.633222 -0.372398 -0.678490
6632 1 -14.677983 -9.541839 -16.182413 0 1.000000 1.000000 1.000000 -0.615927 -0.400367 -0.678483
6633 1 -14.050039 -9.620034 -16.685743 0 1.000000 1.000000 1.000000 -0.589108 -0.403487 -0.700107
6634 1 -13.590657 -10.278465 -16.673357 0 1.000000 1.000000 1.000000 -0.570223 -0.431403 -0.699097
6635 1 -12.939302 -10.338129 -17.148088 0 1.000000 1.000000 1.000000 -0.542695 -0.433460 -0.719441
6636 1 -12.452387 -10.981954 -17.108138 0 1.000000 1.000000 1.000000 -0.522352 -0.460989 -0.717382
6637 1 -11.783942 -11.020559 -17.551315 0 1.000000 1.000000 1.000000 -0.494437 -0.461997 -0.736268
6638 1 -11.274970 -11.645016 -17.482248 0 1.000000 1.000000 1.000000 -0.472814 -0.488817 -0.733148
6639 1 -10.596251 -11.660696 -17.891895 0 1.000000 1.000000 1.000000 -0.444845 -0.488822 -0.750444
6640 1 -10.071286 -12.261673 -17.793088 0 1.000000 1.000000 1.000000 -0.422154 -0.514636 -0.746281
6641 1 -9.389253 -12.253324 -18.168263 0 1.000000 1.000000 1.000000 -0.394457 -0.513713 -0.761907
6642 1 -8.854612 -12.827518 -18.040032 0 1.000000 1.000000 1.000000 -0.370937 -0.538268 -0.756752
6643 1 -8.176017 -12.794825 -18.380795 0 1.000000 1.000000 1.000000 -0.343814 -0.536514 -0.770678
6644 1 -7.637942 -13.339834 -18.224332 0 1.000000 1.000000 1.000000 -0.319715 -0.559606 -0.764607
6645 1 -6.969020 -13.283231 -18.531640 0 1.000000 1.000000 1.000000 -0.293431 -0.557134 -0.776853
6646 1 -6.433381 -13.797566 -18.348883 0 1.000000 1.000000 1.000000 -0.269003 -0.578614 -0.769963
6647 1 -5.779615 -13.718148 -18.624432 0 1.000000 1.000000 1.000000 -0.243779 -0.575546 -0.780589
6648 1 -5.251678 -14.201178 -18.417896 0 1.000000 1.000000 1.000000 -0.219258 -0.595322 -0.772992
6649 1 -4.617641 -14.100568 -18.663929 0 1.000000 1.000000 1.000000 -0.195263 -0.591781 -0.782091
6650 1 -4.101912 -14.552419 -18.436515 0 1.000000 1.000000 1.000000 -0.170864 -0.609816 -0.773906
6651 1 -3.491206 -14.432624 -18.655634 0 1.000000 1.000000 1.000000 -0.148221 -0.605921 -0.781595
6652 1 -2.991353 -14.854048 -18.410448 0 1.000000 1.000000 1.000000 -0.124131 -0.622220 -0.772938
6653 1 -2.406611 -14.717307 -18.605434 0 1.000000 1.000000 1.000000 -0.102913 -0.618080 -0.779350
6654 1 -20.412309 -2.499330 -12.069387 0 1.000000 1.000000 1.000000 -0.855575 -0.107435 -0.506408
6655 1 -20.268368 -3.076190 -12.177544 0 1.000000 1.000000 1.000000 -0.850343 -0.127041 -0.510664
6656 1 -19.899363 -3.181665 -12.745268 0 1.000000 1.000000 1.000000 -0.833991 -0.135732 -0.534823
6657 1 -19.723771 -3.779632 -12.853757 0 1.000000 1.000000 1.000000 -0.827607 -0.156856 -0.538946
6658 1 -19.317790 -3.889049 -13.424535 0 1.000000 1.000000 1.000000 -0.809546 -0.165060 -0.563374
6659 1 -19.108015 -4.506299 -13.530656 0 1.000000 1.000000 1.000000 -0.801870 -0.187661 -0.567263
6660 1 -18.663929 -4.617641 -14.100568 0 1.000000 1.000000 1.000000 -0.782091 -0.195263 -0.591781
6661 1 -18.417896 -5.251678 -14.201178 0 1.000000 1.000000 1.000000 -0.772992 -0.219258 -0.595322
6662 1 -17.935345 -5.362513 -14.765849 0 1.000000 1.000000 1.000000 -0.751531 -0.226146 -0.619726
6663 1 -17.651633 -6.010149 -14.857431 0 1.000000 1.000000 1.000000 -0.740893 -0.251401 -0.622796
6664 1 -17.131201 -6.117677 -15.412155 0 1.000000 1.000000 1.000000 -0.717834 -0.257466 -0.646858
6665 1 -16.809237 -6.775065 -15.490938 0 1.000000 1.000000 1.000000 -0.705567 -0.283799 -0.649333
6666 1 -16.252584 -6.876205 -16.030856 0 1.000000 1.000000 1.000000 -0.681051 -0.288948 -0.672814
6667 1 -15.892816 -7.538921 -16.092982 0 1.000000 1.000000 1.000000 -0.667099 -0.316125 -0.674569
6668 1 -15.302758 -7.630441 -16.613304 0 1.000000 1.000000 1.000000 -0.641321 -0.320283 -0.697227
6669 1 -14.906763 -8.293629 -16.655029 0 1.000000 1.000000 1.000000 -0.625671 -0.348027 -0.698150
6670 1 -14.287271 -8.372310 -17.151278 0 1.000000 1.000000 1.000000 -0.598878 -0.351143 -0.719752
6671 1 -13.857792 -9.030872 -17.169199 0 1.000000 1.000000 1.000000 -0.581564 -0.379144 -0.719745
6672 1 -13.213891 -9.093692 -17.637454 0 1.000000 1.000000 1.000000 -0.554046 -0.381199 -0.740081
6673 1 -12.754783 -9.742518 -17.628729 0 1.000000 1.000000 1.000000 -0.535154 -0.409126 -0.739071
6674 1 -12.092361 -9.786835 -18.065840 0 1.000000 1.000000 1.000000 -0.507228 -0.410134 -0.757964
6675 1 -11.608435 -10.421051 -18.028376 0 1.000000 1.000000 1.000000 -0.486893 -0.437654 -0.755906
6676 1 -10.933971 -10.444764 -18.432125 0 1.000000 1.000000 1.000000 -0.458893 -0.437658 -0.773222
6677 1 -10.430758 -11.059952 -18.364710 0 1.000000 1.000000 1.000000 -0.437291 -0.464452 -0.770105
6678 1 -9.750997 -11.061619 -18.733889 0 1.000000 1.000000 1.000000 -0.409548 -0.463526 -0.785757
6679 1 -9.234456 -11.654014 -18.636249 0 1.000000 1.000000 1.000000 -0.386890 -0.489304 -0.781600
6680 1 -8.556070 -11.632912 -18.970663 0 1.000000 1.000000 1.000000 -0.359714 -0.487545 -0.795553
6681 1 -8.032271 -12.199528 -18.843440 0 1.000000 1.000000 1.000000 -0.336233 -0.512060 -0.790406
6682 1 -7.361550 -12.155653 -19.143829 0 1.000000 1.000000 1.000000 -0.309901 -0.509583 -0.802675
6683 1 -6.836373 -12.694347 -18.988492 0 1.000000 1.000000 1.000000 -0.285837 -0.532641 -0.796612
6684 1 -6.178962 -12.628357 -19.256388 0 1.000000 1.000000 1.000000 -0.260583 -0.529568 -0.807251
6685 1 -5.657843 -13.137824 -19.075084 0 1.000000 1.000000 1.000000 -0.236177 -0.551028 -0.800368
6686 1 -5.018563 -13.050941 -19.312634 0 1.000000 1.000000 1.000000 -0.212183 -0.547486 -0.809467
6687 1 -4.506299 -13.530656 -19.108015 0 1.000000 1.000000 1.000000 -0.187661 -0.567263 -0.801870
6688 1 -3.889049 -13.424535 -19.317790 0 1.000000 1.000000 1.000000 -0.165060 -0.563374 -0.809546
6689 1 -3.389685 -13.874652 -19.092823 0 1.000000 1.000000 1.000000 -0.140627 -0.581433 -0.801349
6690 1 -2.797414 -13.751250 -19.277632 0 1.000000 1.000000 1.000000 -0.119504 -0.577310 -0.807733
6691 1 -2.314192 -14.172481 -19.035429 0 1.000000 1.000000 1.000000 -0.095340 -0.593659 -0.799049
6692 1 -1.748944 -14.033924 -19.198158 0 1.000000 1.000000 1.000000 -0.075733 -0.589404 -0.804281
6693 1 -20.319294 -1.482677 -12.390854 0 1.000000 1.000000 1.000000 -0.851585 -0.065062 -0.520164
6694 1 -20.196041 -2.032898 -12.513059 0 1.000000 1.000000 1.000000 -0.847390 -0.083038 -0.524438
6695 1 -19.830928 -2.126904 -13.068592 0 1.000000 1.000000 1.000000 -0.831012 -0.091744 -0.548637
6696 1 -19.678191 -2.698810 -13.192644 0 1.000000 1.000000 1.000000 -0.825794 -0.111299 -0.552881
6697 1 -19.277632 -2.797414 -13.751250 0 1.000000 1.000000 1.000000 -0.807733 -0.119504 -0.577310
6698 1 -19.092823 -3.389685 -13.874652 0 1.000000 1.000000 1.000000 -0.801349 -0.140627 -0.581433
6699 1 -18.655634 -3.491206 -14.432624 0 1.000000 1.000000 1.000000 -0.781595 -0.148221 -0.605921
6700 1 -18.436515 -4.101912 -14.552419 0 1.000000 1.000000 1.000000 -0.773906 -0.170864 -0.609816
6701 1 -17.962192 -4.204281 -15.105594 0 1.000000 1.000000 1.000000 -0.752490 -0.177738 -0.634167
6702 1 -17.707056 -4.830845 -15.218414 0 1.000000 1.000000 1.000000 -0.743364 -0.201804 -0.637718
6703 1 -17.195937 -4.931625 -15.762282 0 1.000000 1.000000 1.000000 -0.720367 -0.207855 -0.661716
6704 1 -16.903794 -5.570821 -15.864440 0 1.000000 1.000000 1.000000 -0.709692 -0.233199 -0.664797
6705 1 -16.357199 -5.667271 -16.394299 0 1.000000 1.000000 1.000000 -0.685243 -0.238334 -0.688214
6706 1 -16.027951 -6.315267 -16.481931 0 1.000000 1.000000 1.000000 -0.672935 -0.264757 -0.690697
6707 1 -15.448270 -6.404442 -16.993085 0 1.000000 1.000000 1.000000 -0.647221 -0.268905 -0.713299
6708 1 -15.082845 -7.056899 -17.062333 0 1.000000 1.000000 1.000000 -0.633228 -0.296162 -0.715060
6709 1 -14.473567 -7.135781 -17.550322 0 1.000000 1.000000 1.000000 -0.606485 -0.299273 -0.736622
6710 1 -14.073988 -7.788004 -17.597543 0 1.000000 1.000000 1.000000 -0.590802 -0.327076 -0.737546
6711 1 -13.439638 -7.853662 -18.058378 0 1.000000 1.000000 1.000000 -0.563310 -0.329129 -0.757862
6712 1 -13.009020 -8.500789 -18.080369 0 1.000000 1.000000 1.000000 -0.545978 -0.357161 -0.757855
6713 1 -12.355009 -8.550551 -18.510750 0 1.000000 1.000000 1.000000 -0.518052 -0.358168 -0.776748
6714 1 -11.897459 -9.187771 -18.504947 0 1.000000 1.000000 1.000000 -0.499160 -0.386096 -0.775738
6715 1 -11.229859 -9.219381 -18.902439 0 1.000000 1.000000 1.000000 -0.471130 -0.386100 -0.793072
6716 1 -10.750297 -9.842158 -18.867080 0 1.000000 1.000000 1.000000 -0.450815 -0.413592 -0.791016
6717 1 -10.075551 -9.853905 -19.230215 0 1.000000 1.000000 1.000000 -0.423013 -0.412664 -0.806702
6718 1 -9.579462 -10.458177 -19.164438 0 1.000000 1.000000 1.000000 -0.401452 -0.439408 -0.803590
6719 1 -8.904067 -10.448982 -19.492748 0 1.000000 1.000000 1.000000 -0.374196 -0.437643 -0.817585
6720 1 -8.397215 -11.031322 -19.396613 0 1.000000 1.000000 1.000000 -0.351594 -0.463357 -0.813438
6721 1 -7.727416 -11.000770 -19.690582 0 1.000000 1.000000 1.000000 -0.325171 -0.460871 -0.825749
6722 1 -7.215549 -11.558486 -19.565021 0 1.000000 1.000000 1.000000 -0.301753 -0.485318 -0.820616
6723 1 -6.557073 -11.506805 -19.825966 0 1.000000 1.000000 1.000000 -0.276411 -0.482235 -0.831292
6724 1 -6.045662 -12.037983 -19.672670 0 1.000000 1.000000 1.000000 -0.252410 -0.505231 -0.825246
6725 1 -5.403509 -11.965974 -19.902584 0 1.000000 1.000000 1.000000 -0.228344 -0.501678 -0.834373
6726 1 -4.897530 -12.469465 -19.723851 0 1.000000 1.000000 1.000000 -0.203990 -0.523091 -0.827504
6727 1 -4.275849 -12.378402 -19.925213 0 1.000000 1.000000 1.000000 -0.181348 -0.519194 -0.835195
6728 1 -3.779632 -12.853757 -19.723771 0 1.000000 1.000000 1.000000 -0.156856 -0.538946 -0.827607
6729 1 -3.181665 -12.745268 -19.899363 0 1.000000 1.000000 1.000000 -0.135732 -0.534823 -0.833991
6730 1 -2.698810 -13.192644 -19.678191 0 1.000000 1.000000 1.000000 -0.111299 -0.552881 -0.825794
6731 1 -2.126904 -13.068592 -19.830928 0 1.000000 1.000000 1.000000 -0.091744 -0.548637 -0.831012
6732 1 -1.660259 -13.488641 -19.593098 0 1.000000 1.000000 1.000000 -0.067540 -0.565012 -0.822314
6733 1 -1.115930 -13.351008 -19.725886 0 1.000000 1.000000 1.000000 -0.049563 -0.560738 -0.826508
6734 1 -20.192393 -0.509831 -12.674323 0 1.000000 1.000000 1.000000 -0.846185 -0.024494 -0.532327
6735 1 -20.086969 -1.032354 -12.808754 0 1.000000 1.000000 1.000000 -0.842886 -0.040856 -0.536538
6736 1 -19.725886 -1.115930 -13.351008 0 1.000000 1.000000 1.000000 -0.826508 -0.049563 -0.560738
6737 1 -19.593098 -1.660259 -13.488641 0 1.000000 1.000000 1.000000 -0.822314 -0.067540 -0.565012
6738 1 -19.198158 -1.748944 -14.033924 0 1.000000 1.000000 1.000000 -0.804281 -0.075733 -0.589404
6739 1 -19.035429 -2.314192 -14.172481 0 1.000000 1.000000 1.000000 -0.799049 -0.095340 -0.593659
6740 1 -18.605434 -2.406611 -14.717307 0 1.000000 1.000000 1.000000 -0.779350 -0.102913 -0.618080
6741 1 -18.410448 -2.991353 -14.854048 0 1.000000 1.000000 1.000000 -0.772938 -0.124131 -0.622220
6742 1 -17.944793 -3.085769 -15.394486 0 1.000000 1.000000 1.000000 -0.751600 -0.130981 -0.646484
6743 1 -17.715657 -3.687990 -15.526237 0 1.000000 1.000000 1.000000 -0.743869 -0.153748 -0.650400
6744 1 -17.214487 -3.782316 -16.058003 0 1.000000 1.000000 1.000000 -0.720965 -0.159774 -0.674301
6745 1 -16.949904 -4.399386 -16.181228 0 1.000000 1.000000 1.000000 -0.711787 -0.183980 -0.677872
6746 1 -16.414248 -4.491220 -16.699815 0 1.000000 1.000000 1.000000 -0.687438 -0.189094 -0.701194
6747 1 -16.113685 -5.119910 -16.810727 0 1.000000 1.000000 1.000000 -0.676706 -0.214577 -0.704291
6748 1 -15.545551 -5.206613 -17.311585 0 1.000000 1.000000 1.000000 -0.651087 -0.218709 -0.726809
6749 1 -15.209384 -5.843149 -17.406310 0 1.000000 1.000000 1.000000 -0.638722 -0.245257 -0.729304
6750 1 -14.611806 -5.921943 -17.885050 0 1.000000 1.000000 1.000000 -0.612059 -0.248358 -0.750801
6751 1 -14.241415 -6.562118 -17.959814 0 1.000000 1.000000 1.000000 -0.598017 -0.275713 -0.752568
6752 1 -13.618423 -6.630227 -18.412436 0 1.000000 1.000000 1.000000 -0.570579 -0.277762 -0.772844
6753 1 -13.216225 -7.269548 -18.463779 0 1.000000 1.000000 1.000000 -0.554862 -0.305627 -0.773770
6754 1 -12.572735 -7.324341 -18.886882 0 1.000000 1.000000 1.000000 -0.526955 -0.306633 -0.792651
6755 1 -12.142138 -7.958217 -18.911863 0 1.000000 1.000000 1.000000 -0.509610 -0.334686 -0.792643
6756 1 -11.483768 -7.997359 -19.302830 0 1.000000 1.000000 1.000000 -0.481559 -0.334689 -0.809990
6757 1 -11.029039 -8.621303 -19.299209 0 1.000000 1.000000 1.000000 -0.462680 -0.362598 -0.808980
6758 1 -10.361860 -8.642894 -19.656332 0 1.000000 1.000000 1.000000 -0.434817 -0.361667 -0.824700
6759 1 -9.887933 -9.252718 -19.622696 0 1.000000 1.000000 1.000000 -0.414543 -0.389106 -0.822649
6760 1 -9.218181 -9.255387 -19.945231 0 1.000000 1.000000 1.000000 -0.387190 -0.387335 -0.836693
6761 1 -8.730403 -9.847379 -19.881060 0 1.000000 1.000000 1.000000 -0.365693 -0.413998 -0.833591
6762 1 -8.064191 -9.830348 -20.169210 0 1.000000 1.000000 1.000000 -0.339147 -0.411499 -0.845960
6763 1 -7.568055 -10.401400 -20.074868 0 1.000000 1.000000 1.000000 -0.316628 -0.437117 -0.841828
6764 1 -6.911100 -10.364489 -20.329695 0 1.000000 1.000000 1.000000 -0.291147 -0.434015 -0.852563
6765 1 -6.411984 -10.912179 -20.206355 0 1.000000 1.000000 1.000000 -0.267825 -0.458363 -0.847451
6766 1 -5.769390 -10.855775 -20.429642 0 1.000000 1.000000 1.000000 -0.243620 -0.454789 -0.856631
6767 1 -5.272327 -11.378391 -20.279167 0 1.000000 1.000000 1.000000 -0.219716 -0.477692 -0.850609
6768 1 -4.648437 -11.303369 -20.473242 0 1.000000 1.000000 1.000000 -0.196950 -0.473773 -0.858341
6769 1 -4.157938 -11.799888 -20.298022 0 1.000000 1.000000 1.000000 -0.172683 -0.495109 -0.851497
6770 1 -3.556247 -11.707519 -20.465585 0 1.000000 1.000000 1.000000 -0.151466 -0.490967 -0.857910
6771 1 -3.076190 -12.177544 -20.268368 0 1.000000 1.000000 1.000000 -0.127041 -0.510664 -0.850343
6772 1 -2.499330 -12.069387 -20.412309 0 1.000000 1.000000 1.000000 -0.107435 -0.506408 -0.855575
6773 1 -2.032898 -12.513059 -20.196041 0 1.000000 1.000000 1.000000 -0.083038 -0.524438 -0.847390
6774 1 -1.482677 -12.390854 -20.319294 0 1.000000 1.000000 1.000000 -0.065062 -0.520164 -0.851585
6775 1 -1.032354 -12.808754 -20.086969 0 1.000000 1.000000 1.000000 -0.040856 -0.536538 -0.842886
6776 1 -0.509831 -12.674323 -20.192393 0 1.000000 1.000000 1.000000 -0.024494 -0.532327 -0.846185
6777 1 -19.997655 0.000000 -12.989417 0 1.000000 1.000000 1.000000 -0.836829 0.000000 -0.547465
6778 1 -19.526300 0.593408 -13.673945 0 1.000000 1.000000 1.000000 -0.817155 0.025077 -0.575872
6779 1 -19.692645 0.000000 -13.446784 0 1.000000 1.000000 1.000000 -0.827281 -0.000000 -0.561789
6780 1 -19.526300 -0.593408 -13.673945 0 1.000000 1.000000 1.000000 -0.817155 -0.025077 -0.575872
6781 1 -18.993885 1.214150 -14.364445 0 1.000000 1.000000 1.000000 -0.794946 0.051294 -0.604507
6782 1 -19.189239 0.602943 -14.142099 0 1.000000 1.000000 1.000000 -0.806094 0.025076 -0.591256
6783 1 -19.018523 0.000000 -14.383091 0 1.000000 1.000000 1.000000 -0.795969 0.000000 -0.605338
6784 1 -19.189239 -0.602943 -14.142099 0 1.000000 1.000000 1.000000 -0.806094 -0.025076 -0.591256
6785 1 -18.993885 -1.214150 -14.364445 0 1.000000 1.000000 1.000000 -0.794946 -0.051294 -0.604507
6786 1 -18.396705 1.860151 -15.055038 0 1.000000 1.000000 1.000000 -0.770048 0.078560 -0.633131
6787 1 -18.622427 1.232939 -14.840733 0 1.000000 1.000000 1.000000 -0.782225 0.051294 -0.620881
6788 1 -18.446595 0.621731 -15.095896 0 1.000000 1.000000 1.000000 -0.772116 0.026259 -0.634939
6789 1 -18.647337 0.000000 -14.860601 0 1.000000 1.000000 1.000000 -0.783281 -0.000000 -0.621667
6790 1 -18.446595 -0.621731 -15.095896 0 1.000000 1.000000 1.000000 -0.772116 -0.026259 -0.634939
6791 1 -18.622427 -1.232939 -14.840733 0 1.000000 1.000000 1.000000 -0.782225 -0.051294 -0.620881
6792 1 -18.396705 -1.860151 -15.055038 0 1.000000 1.000000 1.000000 -0.770048 -0.078560 -0.633131
6793 1 -17.731916 2.528450 -15.738929 0 1.000000 1.000000 1.000000 -0.742341 0.106741 -0.661465
6794 1 -17.988842 1.887574 -15.536221 0 1.000000 1.000000 1.000000 -0.755531 0.078559 -0.650386
6795 1 -17.807048 1.269579 -15.805665 0 1.000000 1.000000 1.000000 -0.745453 0.053600 -0.664400
6796 1 -18.039079 0.630948 -15.579645 0 1.000000 1.000000 1.000000 -0.757664 0.026258 -0.652117
6797 1 -17.832305 0.000000 -15.828099 0 1.000000 1.000000 1.000000 -0.746499 0.000000 -0.665387
6798 1 -18.039079 -0.630948 -15.579645 0 1.000000 1.000000 1.000000 -0.757664 -0.026258 -0.652117
6799 1 -17.807048 -1.269579 -15.805665 0 1.000000 1.000000 1.000000 -0.745453 -0.053600 -0.664400
6800 1 -17.988842 -1.887574 -15.536221 0 1.000000 1.000000 1.000000 -0.755531 -0.078559 -0.650386
6801 1 -17.731916 -2.528450 -15.738929 0 1.000000 1.000000 1.000000 -0.742341 -0.106741 -0.661465
6802 1 -16.997851 3.215154 -16.408528 0 1.000000 1.000000 1.000000 -0.711756 0.135666 -0.689201
6803 1 -17.286143 2.563510 -16.221205 0 1.000000 1.000000 1.000000 -0.725914 0.106739 -0.679453
6804 1 -17.097464 1.940392 -16.504755 0 1.000000 1.000000 1.000000 -0.715877 0.081883 -0.693409
6805 1 -17.361443 1.287336 -16.291923 0 1.000000 1.000000 1.000000 -0.729114 0.053599 -0.682290
6806 1 -17.147930 0.648705 -16.553506 0 1.000000 1.000000 1.000000 -0.717964 0.027376 -0.695542
6807 1 -17.386762 0.000000 -16.315702 0 1.000000 1.000000 1.000000 -0.730190 -0.000000 -0.683244
6808 1 -17.147930 -0.648705 -16.553506 0 1.000000 1.000000 1.000000 -0.717964 -0.027376 -0.695542
6809 1 -17.361443 -1.287336 -16.291923 0 1.000000 1.000000 1.000000 -0.729114 -0.053599 -0.682290
6810 1 -17.097464 -1.940392 -16.504755 0 1.000000 1.000000 1.000000 -0.715877 -0.081883 -0.693409
6811 1 -17.286143 -2.563510 -16.221205 0 1.000000 1.000000 1.000000 -0.725914 -0.106739 -0.679453
6812 1 -16.997851 -3.215154 -16.408528 0 1.000000 1.000000 1.000000 -0.711756 -0.135666 -0.689201
6813 1 -16.194322 3.915447 -17.055663 0 1.000000 1.000000 1.000000 -0.678283 0.165125 -0.716007
6814 1 -16.513342 3.256451 -16.887601 0 1.000000 1.000000 1.000000 -0.693332 0.135664 -0.707733
6815 1 -16.316806 2.630029 -17.184746 0 1.000000 1.000000 1.000000 -0.683343 0.110926 -0.721622
6816 1 -16.612635 1.965614 -16.989224 0 1.000000 1.000000 1.000000 -0.697558 0.081882 -0.711835
6817 1 -16.391641 1.321042 -17.263615 0 1.000000 1.000000 1.000000 -0.686434 0.055720 -0.725054
6818 1 -16.662957 0.657189 -17.040728 0 1.000000 1.000000 1.000000 -0.699700 0.027375 -0.713912
6819 1 -16.416815 0.000000 -17.290147 0 1.000000 1.000000 1.000000 -0.687474 0.000000 -0.726209
6820 1 -16.662957 -0.657189 -17.040728 0 1.000000 1.000000 1.000000 -0.699700 -0.027375 -0.713912
6821 1 -16.391641 -1.321042 -17.263615 0 1.000000 1.000000 1.000000 -0.686434 -0.055720 -0.725054
6822 1 -16.612635 -1.965614 -16.989224 0 1.000000 1.000000 1.000000 -0.697558 -0.081882 -0.711835
6823 1 -16.316806 -2.630029 -17.184746 0 1.000000 1.000000 1.000000 -0.683343 -0.110926 -0.721622
6824 1 -16.513342 -3.256451 -16.887601 0 1.000000 1.000000 1.000000 -0.693332 -0.135664 -0.707733
6825 1 -16.194322 -3.915447 -17.055663 0 1.000000 1.000000 1.000000 -0.678283 -0.165125 -0.716007
6826 1 -15.322883 4.623659 -17.671870 0 1.000000 1.000000 1.000000 -0.641983 0.194872 -0.741541
6827 1 -15.671091 3.961182 -17.526861 0 1.000000 1.000000 1.000000 -0.657816 0.165123 -0.734856
6828 1 -15.465733 3.333384 -17.836721 0 1.000000 1.000000 1.000000 -0.647876 0.140506 -0.748675
6829 1 -15.792428 2.661226 -17.662669 0 1.000000 1.000000 1.000000 -0.662987 0.110924 -0.740367
6830 1 -15.563212 2.012628 -17.949214 0 1.000000 1.000000 1.000000 -0.651897 0.084841 -0.753547
6831 1 -15.866595 1.336859 -17.745682 0 1.000000 1.000000 1.000000 -0.666149 0.055719 -0.743734
6832 1 -15.612646 0.673006 -18.006263 0 1.000000 1.000000 1.000000 -0.653935 0.028371 -0.756018
6833 1 -15.891550 0.000000 -17.773614 0 1.000000 1.000000 1.000000 -0.667213 -0.000000 -0.744867
6834 1 -15.612646 -0.673006 -18.006263 0 1.000000 1.000000 1.000000 -0.653935 -0.028371 -0.756018
6835 1 -15.866595 -1.336859 -17.745682 0 1.000000 1.000000 1.000000 -0.666149 -0.055719 -0.743734
6836 1 -15.563212 -2.012628 -17.949214 0 1.000000 1.000000 1.000000 -0.651897 -0.084841 -0.753547
6837 1 -15.792428 -2.661226 -17.662669 0 1.000000 1.000000 1.000000 -0.662987 -0.110924 -0.740367
6838 1 -15.465733 -3.333384 -17.836721 0 1.000000 1.000000 1.000000 -0.647876 -0.140506 -0.748675
6839 1 -15.671091 -3.961182 -17.526861 0 1.000000 1.000000 1.000000 -0.657816 -0.165123 -0.734856
6840 1 -15.322883 -4.623659 -17.671870 0 1.000000 1.000000 1.000000 -0.641983 -0.194872 -0.741541
6841 1 -14.387012 5.333425 -18.248774 0 1.000000 1.000000 1.000000 -0.602997 0.224635 -0.765463
6842 1 -14.761921 4.671676 -18.130320 0 1.000000 1.000000 1.000000 -0.619475 0.194870 -0.760445
6843 1 -14.546844 4.044478 -18.451623 0 1.000000 1.000000 1.000000 -0.609582 0.170365 -0.774200
6844 1 -14.902448 3.368662 -18.303033 0 1.000000 1.000000 1.000000 -0.625474 0.140504 -0.767490
6845 1 -14.664321 2.718079 -18.600719 0 1.000000 1.000000 1.000000 -0.614419 0.114502 -0.780627
6846 1 -14.998389 2.034203 -18.420952 0 1.000000 1.000000 1.000000 -0.629571 0.084839 -0.772297
6847 1 -14.736186 1.365695 -18.691927 0 1.000000 1.000000 1.000000 -0.617377 0.057534 -0.784561
6848 1 -15.047059 0.680267 -18.480770 0 1.000000 1.000000 1.000000 -0.631650 0.028371 -0.774734
6849 1 -14.760376 0.000000 -18.722628 0 1.000000 1.000000 1.000000 -0.618372 0.000000 -0.785885
6850 1 -15.047059 -0.680267 -18.480770 0 1.000000 1.000000 1.000000 -0.631650 -0.028371 -0.774734
6851 1 -14.736186 -1.365695 -18.691927 0 1.000000 1.000000 1.000000 -0.617377 -0.057534 -0.784561
6852 1 -14.998389 -2.034203 -18.420952 0 1.000000 1.000000 1.000000 -0.629571 -0.084839 -0.772297
6853 1 -14.664321 -2.718079 -18.600719 0 1.000000 1.000000 1.000000 -0.614419 -0.114502 -0.780627
6854 1 -14.902448 -3.368662 -18.303033 0 1.000000 1.000000 1.000000 -0.625474 -0.140504 -0.767490
6855 1 -14.546844 -4.044478 -18.451623 0 1.000000 1.000000 1.000000 -0.609582 -0.170365 -0.774200
6856 1 -14.761921 -4.671676 -18.130320 0 1.000000 1.000000 1.000000 -0.619475 -0.194870 -0.760445
6857 1 -14.387012 -5.333425 -18.248774 0 1.000000 1.000000 1.000000 -0.602997 -0.224635 -0.765463
6858 1 -13.392178 6.037909 -18.778508 0 1.000000 1.000000 1.000000 -0.561549 0.254121 -0.787455
6859 1 -13.790375 5.381281 -18.689611 0 1.000000 1.000000 1.000000 -0.578506 0.224632 -0.784138
6860 1 -13.564819 4.756647 -19.020707 0 1.000000 1.000000 1.000000 -0.568649 0.200217 -0.797842
6861 1 -13.946379 4.081593 -18.901173 0 1.000000 1.000000 1.000000 -0.585177 0.170362 -0.792808
6862 1 -13.698764 3.431130 -19.208621 0 1.000000 1.000000 1.000000 -0.574154 0.144435 -0.805907
6863 1 -14.061102 2.743433 -19.056757 0 1.000000 1.000000 1.000000 -0.590085 0.114501 -0.799180
6864 1 -13.790292 2.072423 -19.337029 0 1.000000 1.000000 1.000000 -0.577913 0.087245 -0.811421
6865 1 -14.131307 1.378561 -19.151968 0 1.000000 1.000000 1.000000 -0.593090 0.057533 -0.803078
6866 1 -13.836749 0.693133 -19.402205 0 1.000000 1.000000 1.000000 -0.579821 0.029180 -0.814221
6867 1 -14.154943 0.000000 -19.184022 0 1.000000 1.000000 1.000000 -0.594102 -0.000000 -0.804390
6868 1 -13.836749 -0.693133 -19.402205 0 1.000000 1.000000 1.000000 -0.579821 -0.029180 -0.814221
6869 1 -14.131307 -1.378561 -19.151968 0 1.000000 1.000000 1.000000 -0.593090 -0.057533 -0.803078
6870 1 -13.790292 -2.072423 -19.337029 0 1.000000 1.000000 1.000000 -0.577913 -0.087245 -0.811421
6871 1 -14.061102 -2.743433 -19.056757 0 1.000000 1.000000 1.000000 -0.590085 -0.114501 -0.799180
6872 1 -13.698764 -3.431130 -19.208621 0 1.000000 1.000000 1.000000 -0.574154 -0.144435 -0.805907
6873 1 -13.946379 -4.081593 -18.901173 0 1.000000 1.000000 1.000000 -0.585177 -0.170362 -0.792808
6874 1 -13.564819 -4.756647 -19.020707 0 1.000000 1.000000 1.000000 -0.568649 -0.200217 -0.797842
6875 1 -13.790375 -5.381281 -18.689611 0 1.000000 1.000000 1.000000 -0.578506 -0.224632 -0.784138
6876 1 -13.392178 -6.037909 -18.778508 0 1.000000 1.000000 1.000000 -0.561549 -0.254121 -0.787455
6877 1 -12.345754 6.730095 -19.254146 0 1.000000 1.000000 1.000000 -0.517941 0.283036 -0.807235
6878 1 -12.762998 6.082984 -19.197115 0 1.000000 1.000000 1.000000 -0.535188 0.254118 -0.805604
6879 1 -12.526410 5.462801 -19.536012 0 1.000000 1.000000 1.000000 -0.525355 0.229762 -0.819275
6880 1 -12.930034 4.793091 -19.448501 0 1.000000 1.000000 1.000000 -0.542345 0.200215 -0.815951
6881 1 -12.672526 4.144854 -19.763990 0 1.000000 1.000000 1.000000 -0.531347 0.174344 -0.829020
6882 1 -13.059697 3.457948 -19.643644 0 1.000000 1.000000 1.000000 -0.547905 0.144433 -0.823977
6883 1 -12.780075 2.786668 -19.931795 0 1.000000 1.000000 1.000000 -0.535754 0.117222 -0.836198
6884 1 -13.148333 2.088841 -19.777045 0 1.000000 1.000000 1.000000 -0.551708 0.087244 -0.829461
6885 1 -12.845931 1.400508 -20.034549 0 1.000000 1.000000 1.000000 -0.538451 0.058915 -0.840595
6886 1 -13.193332 0.698662 -19.844770 0 1.000000 1.000000 1.000000 -0.553640 0.029180 -0.832245
6887 1 -12.868110 0.000000 -20.069154 0 1.000000 1.000000 1.000000 -0.539359 0.000000 -0.842076
6888 1 -13.193332 -0.698662 -19.844770 0 1.000000 1.000000 1.000000 -0.553640 -0.029180 -0.832245
6889 1 -12.845931 -1.400508 -20.034549 0 1.000000 1.000000 1.000000 -0.538451 -0.058915 -0.840595
6890 1 -13.148333 -2.088841 -19.777045 0 1.000000 1.000000 1.000000 -0.551708 -0.087244 -0.829461
6891 1 -12.780075 -2.786668 -19.931795 0 1.000000 1.000000 1.000000 -0.535754 -0.117222 -0.836198
6892 1 -13.059697 -3.457948 -19.643644 0 1.000000 1.000000 1.000000 -0.547905 -0.144433 -0.823977
6893 1 -12.672526 -4.144854 -19.763990 0 1.000000 1.000000 1.000000 -0.531347 -0.174344 -0.829020
6894 1 -12.930034 -4.793091 -19.448501 0 1.000000 1.000000 1.000000 -0.542345 -0.200215 -0.815951
6895 1 -12.526410 -5.462801 -19.536012 0 1.000000 1.000000 1.000000 -0.525355 -0.229762 -0.819275
6896 1 -12.762998 -6.082984 -19.197115 0 1.000000 1.000000 1.000000 -0.535188 -0.254118 -0.805604
6897 1 -12.345754 -6.730095 -19.254146 0 1.000000 1.000000 1.000000 -0.517941 -0.283036 -0.807235
6898 1 -11.256786 7.403114 -19.670094 0 1.000000 1.000000 1.000000 -0.472545 0.311092 -0.824574
6899 1 -11.688174 6.769726 -19.646391 0 1.000000 1.000000 1.000000 -0.489880 0.283033 -0.824566
6900 1 -11.440273 6.155742 -19.990824 0 1.000000 1.000000 1.000000 -0.480057 0.258696 -0.838225
6901 1 -11.861265 5.495927 -19.937475 0 1.000000 1.000000 1.000000 -0.497315 0.229759 -0.836593
6902 1 -11.593689 4.851949 -20.258995 0 1.000000 1.000000 1.000000 -0.486330 0.203919 -0.849647
6903 1 -12.001327 4.170585 -20.173021 0 1.000000 1.000000 1.000000 -0.503337 0.174342 -0.846319
6904 1 -11.712881 3.501276 -20.467343 0 1.000000 1.000000 1.000000 -0.491200 0.147160 -0.858526
6905 1 -12.104458 2.804266 -20.346462 0 1.000000 1.000000 1.000000 -0.507775 0.117220 -0.853478
6906 1 -11.794411 2.115375 -20.609858 0 1.000000 1.000000 1.000000 -0.494528 0.088914 -0.864602
6907 1 -12.167625 1.409444 -20.452695 0 1.000000 1.000000 1.000000 -0.510494 0.058914 -0.857861
6908 1 -11.835818 0.707598 -20.682239 0 1.000000 1.000000 1.000000 -0.496218 0.029742 -0.867688
6909 1 -12.188901 0.000000 -20.488476 0 1.000000 1.000000 1.000000 -0.511410 -0.000000 -0.859337
6910 1 -11.835818 -0.707598 -20.682239 0 1.000000 1.000000 1.000000 -0.496218 -0.029742 -0.867688
6911 1 -12.167625 -1.409444 -20.452695 0 1.000000 1.000000 1.000000 -0.510494 -0.058914 -0.857861
6912 1 -11.794411 -2.115375 -20.609858 0 1.000000 1.000000 1.000000 -0.494528 -0.088914 -0.864602
6913 1 -12.104458 -2.804266 -20.346462 0 1.000000 1.000000 1.000000 -0.507775 -0.117220 -0.853478
6914 1 -11.712881 -3.501276 -20.467343 0 1.000000 1.000000 1.000000 -0.491200 -0.147160 -0.858526
6915 1 -12.001327 -4.170585 -20.173021 0 1.000000 1.000000 1.000000 -0.503337 -0.174342 -0.846319
6916 1 -11.593689 -4.851949 -20.258995 0 1.000000 1.000000 1.000000 -0.486330 -0.203919 -0.849647
6917 1 -11.861265 -5.495927 -19.937475 0 1.000000 1.000000 1.000000 -0.497315 -0.229759 -0.836593
6918 1 -11.440273 -6.155742 -19.990824 0 1.000000 1.000000 1.000000 -0.480057 -0.258696 -0.838225
6919 1 -11.688174 -6.769726 -19.646391 0 1.000000 1.000000 1.000000 -0.489880 -0.283033 -0.824566
6920 1 -11.256786 -7.403114 -19.670094 0 1.000000 1.000000 1.000000 -0.472545 -0.311092 -0.824574
6921 1 -10.135615 8.050576 -20.022405 0 1.000000 1.000000 1.000000 -0.425787 0.338026 -0.839311
6922 1 -10.575812 7.434739 -20.032546 0 1.000000 1.000000 1.000000 -0.443006 0.311090 -0.840815
6923 1 -10.316631 6.828519 -20.380072 0 1.000000 1.000000 1.000000 -0.433175 0.286732 -0.854485
6924 1 -10.749704 6.182910 -20.362053 0 1.000000 1.000000 1.000000 -0.450497 0.258695 -0.854476
6925 1 -10.472160 5.545093 -20.687381 0 1.000000 1.000000 1.000000 -0.439513 0.232853 -0.867530
6926 1 -10.895153 4.873946 -20.637672 0 1.000000 1.000000 1.000000 -0.456771 0.203917 -0.865897
6927 1 -10.598101 4.208786 -20.936230 0 1.000000 1.000000 1.000000 -0.444639 0.176746 -0.878099
6928 1 -11.008191 3.517480 -20.851875 0 1.000000 1.000000 1.000000 -0.461652 0.147159 -0.874770
6929 1 -10.690887 2.830398 -21.119568 0 1.000000 1.000000 1.000000 -0.448412 0.118865 -0.885888
6930 1 -11.085529 2.125303 -20.998431 0 1.000000 1.000000 1.000000 -0.464994 0.088913 -0.880838
6931 1 -10.747740 1.422717 -21.231903 0 1.000000 1.000000 1.000000 -0.450722 0.059750 -0.890662
6932 1 -11.124813 0.710943 -21.072875 0 1.000000 1.000000 1.000000 -0.466692 0.029742 -0.883920
6933 1 -10.766892 0.000000 -21.269748 0 1.000000 1.000000 1.000000 -0.451500 0.000000 -0.892271
6934 1 -11.124813 -0.710943 -21.072875 0 1.000000 1.000000 1.000000 -0.466692 -0.029742 -0.883920
6935 1 -10.747740 -1.422717 -21.231903 0 1.000000 1.000000 1.000000 -0.450722 -0.059750 -0.890662
6936 1 -11.085529 -2.125303 -20.998431 0 1.000000 1.000000 1.000000 -0.464994 -0.088913 -0.880838
6937 1 -10.690887 -2.830398 -21.119568 0 1.000000 1.000000 1.000000 -0.448412 -0.118865 -0.885888
6938 1 -11.008191 -3.517480 -20.851875 0 1.000000 1.000000 1.000000 -0.461652 -0.147159 -0.874770
6939 1 -10.598101 -4.208786 -20.936230 0 1.000000 1.000000 1.000000 -0.444639 -0.176746 -0.878099
6940 1 -10.895153 -4.873946 -20.637672 0 1.000000 1.000000 1.000000 -0.456771 -0.203917 -0.865897
6941 1 -10.472160 -5.545093 -20.687381 0 1.000000 1.000000 1.000000 -0.439513 -0.232853 -0.867530
6942 1 -10.749704 -6.182910 -20.362053 0 1.000000 1.000000 1.000000 -0.450497 -0.258695 -0.854476
6943 1 -10.316631 -6.828519 -20.380072 0 1.000000 1.000000 1.000000 -0.433175 -0.286732 -0.854485
6944 1 -10.575812 -7.434739 -20.032546 0 1.000000 1.000000 1.000000 -0.443006 -0.311090 -0.840815
6945 1 -10.135615 -8.050576 -20.022405 0 1.000000 1.000000 1.000000 -0.425787 -0.338026 -0.839311
6946 1 -8.993387 8.666869 -20.308956 0 1.000000 1.000000 1.000000 -0.378129 0.363611 -0.851355
6947 1 -9.436893 8.071881 -20.352494 0 1.000000 1.000000 1.000000 -0.395032 0.338025 -0.854218
6948 1 -9.166803 7.474771 -20.700600 0 1.000000 1.000000 1.000000 -0.385178 0.313609 -0.867922
6949 1 -9.606343 6.847246 -20.718038 0 1.000000 1.000000 1.000000 -0.402359 0.286731 -0.869421
6950 1 -9.319226 6.217307 -21.044836 0 1.000000 1.000000 1.000000 -0.391362 0.260859 -0.882490
6951 1 -9.751971 5.560764 -21.032199 0 1.000000 1.000000 1.000000 -0.408666 0.232852 -0.882481
6952 1 -9.446784 4.901801 -21.332915 0 1.000000 1.000000 1.000000 -0.396529 0.205670 -0.894687
6953 1 -9.869921 4.220970 -21.286656 0 1.000000 1.000000 1.000000 -0.413781 0.176745 -0.893055
6954 1 -9.545958 3.538003 -21.556891 0 1.000000 1.000000 1.000000 -0.400541 0.148451 -0.904173
6955 1 -9.956834 2.838737 -21.474158 0 1.000000 1.000000 1.000000 -0.417554 0.118865 -0.900844
6956 1 -9.613832 2.137879 -21.710179 0 1.000000 1.000000 1.000000 -0.403284 0.089704 -0.910667
6957 1 -10.010095 1.426954 -21.589061 0 1.000000 1.000000 1.000000 -0.419868 0.059749 -0.905616
6958 1 -9.648315 0.715179 -21.788057 0 1.000000 1.000000 1.000000 -0.404677 0.030009 -0.913967
6959 1 -10.028039 0.000000 -21.627773 0 1.000000 1.000000 1.000000 -0.420648 -0.000000 -0.907224
6960 1 -9.648315 -0.715179 -21.788057 0 1.000000 1.000000 1.000000 -0.404677 -0.030009 -0.913967
6961 1 -10.010095 -1.426954 -21.589061 0 1.000000 1.000000 1.000000 -0.419868 -0.059749 -0.905616
6962 1 -9.613832 -2.137879 -21.710179 0 1.000000 1.000000 1.000000 -0.403284 -0.089704 -0.910667
6963 1 -9.956834 -2.838737 -21.474158 0 1.000000 1.000000 1.000000 -0.417554 -0.118865 -0.900844
6964 1 -9.545958 -3.538003 -21.556891 0 1.000000 1.000000 1.000000 -0.400541 -0.148451 -0.904173
6965 1 -9.869921 -4.220970 -21.286656 0 1.000000 1.000000 1.000000 -0.413781 -0.176745 -0.893055
6966 1 -9.446784 -4.901801 -21.332915 0 1.000000 1.000000 1.000000 -0.396529 -0.205670 -0.894687
6967 1 -9.751971 -5.560764 -21.032199 0 1.000000 1.000000 1.000000 -0.408666 -0.232852 -0.882481
6968 1 -9.319226 -6.217307 -21.044836 0 1.000000 1.000000 1.000000 -0.391362 -0.260859 -0.882490
6969 1 -9.606343 -6.847246 -20.718038 0 1.000000 1.000000 1.000000 -0.402359 -0.286731 -0.869421
6970 1 -9.166803 -7.474771 -20.700600 0 1.000000 1.000000 1.000000 -0.385178 -0.313609 -0.867922
6971 1 -9.436893 -8.071881 -20.352494 0 1.000000 1.000000 1.000000 -0.395032 -0.338025 -0.854218
6972 1 -8.993387 -8.666869 -20.308956 0 1.000000 1.000000 1.000000 -0.378129 -0.363611 -0.851355
6973 1 -7.841522 9.247394 -20.529495 0 1.000000 1.000000 1.000000 -0.330042 0.387662 -0.860692
6974 1 -8.282941 8.675906 -20.605070 0 1.000000 1.000000 1.000000 -0.346447 0.363610 -0.864732
6975 1 -8.002641 8.089018 -20.951286 0 1.000000 1.000000 1.000000 -0.336557 0.339103 -0.878486
6976 1 -8.442996 7.482870 -21.003279 0 1.000000 1.000000 1.000000 -0.353401 0.313608 -0.881339
6977 1 -8.147002 6.862308 -21.329206 0 1.000000 1.000000 1.000000 -0.342381 0.287679 -0.894436
6978 1 -8.583692 6.224270 -21.353326 0 1.000000 1.000000 1.000000 -0.359526 0.260859 -0.895932
6979 1 -8.271099 5.573368 -21.654071 0 1.000000 1.000000 1.000000 -0.347376 0.233645 -0.908152
6980 1 -8.701446 4.907443 -21.646297 0 1.000000 1.000000 1.000000 -0.364661 0.205670 -0.908142
6981 1 -8.371630 4.230770 -21.917244 0 1.000000 1.000000 1.000000 -0.351416 0.177362 -0.919266
6982 1 -8.793005 3.542161 -21.874097 0 1.000000 1.000000 1.000000 -0.368660 0.148451 -0.917634
6983 1 -8.445720 2.845444 -22.111197 0 1.000000 1.000000 1.000000 -0.354389 0.119287 -0.927458
6984 1 -8.855671 2.140427 -22.030012 0 1.000000 1.000000 1.000000 -0.371400 0.089704 -0.924129
6985 1 -8.491127 1.430361 -22.230063 0 1.000000 1.000000 1.000000 -0.356209 0.059964 -0.932480
6986 1 -8.887509 0.716038 -22.109227 0 1.000000 1.000000 1.000000 -0.372793 0.030009 -0.927429
6987 1 -8.506426 0.000000 -22.270112 0 1.000000 1.000000 1.000000 -0.356822 0.000000 -0.934172
6988 1 -8.887509 -0.716038 -22.109227 0 1.000000 1.000000 1.000000 -0.372793 -0.030009 -0.927429
6989 1 -8.491127 -1.430361 -22.230063 0 1.000000 1.000000 1.000000 -0.356209 -0.059964 -0.932480
6990 1 -8.855671 -2.140427 -22.030012 0 1.000000 1.000000 1.000000 -0.371400 -0.089704 -0.924129
6991 1 -8.445720 -2.845444 -22.111197 0 1.000000 1.000000 1.000000 -0.354389 -0.119287 -0.927458
6992 1 -8.793005 -3.542161 -21.874097 0 1.000000 1.000000 1.000000 -0.368660 -0.148451 -0.917634
6993 1 -8.371630 -4.230770 -21.917244 0 1.000000 1.000000 1.000000 -0.351416 -0.177362 -0.919266
6994 1 -8.701446 -4.907443 -21.646297 0 1.000000 1.000000 1.000000 -0.364661 -0.205670 -0.908142
6995 1 -8.271099 -5.573368 -21.654071 0 1.000000 1.000000 1.000000 -0.347376 -0.233645 -0.908152
6996 1 -8.583692 -6.224270 -21.353326 0 1.000000 1.000000 1.000000 -0.359526 -0.260859 -0.895932
6997 1 -8.147002 -6.862308 -21.329206 0 1.000000 1.000000 1.000000 -0.342381 -0.287679 -0.894436
6998 1 -8.442996 -7.482870 -21.003279 0 1.000000 1.000000 1.000000 -0.353401 -0.313608 -0.881339
6999 1 -8.002641 -8.089018 -20.951286 0 1.000000 1.000000 1.000000 -0.336557 -0.339103 -0.878486
7000 1 -8.282941 -8.675906 -20.605070 0 1.000000 1.000000 1.000000 -0.346447 -0.363610 -0.864732
7001 1 -7.841522 -9.247394 -20.529495 0 1.000000 1.000000 1.000000 -0.330042 -0.387662 -0.860692
7002 1 -6.691173 9.788715 -20.685542 0 1.000000 1.000000 1.000000 -0.281992 0.410046 -0.867377
7003 1 -7.125461 9.242672 -20.791001 0 1.000000 1.000000 1.000000 -0.297739 0.387663 -0.872393
7004 1 -6.835950 8.666883 -21.133004 0 1.000000 1.000000 1.000000 -0.287804 0.363043 -0.886210
7005 1 -7.271712 8.084716 -21.217715 0 1.000000 1.000000 1.000000 -0.304133 0.339103 -0.890231
7006 1 -6.967807 7.474786 -21.540526 0 1.000000 1.000000 1.000000 -0.293082 0.313099 -0.903367
7007 1 -7.402742 6.858525 -21.600024 0 1.000000 1.000000 1.000000 -0.309877 0.287679 -0.906210
7008 1 -7.083705 6.217322 -21.898718 0 1.000000 1.000000 1.000000 -0.297708 0.260421 -0.918450
7009 1 -7.515372 5.570202 -21.928644 0 1.000000 1.000000 1.000000 -0.314825 0.233646 -0.919943
7010 1 -7.180698 4.901814 -22.198475 0 1.000000 1.000000 1.000000 -0.301570 0.205315 -0.931075
7011 1 -7.606609 4.228308 -22.194848 0 1.000000 1.000000 1.000000 -0.318841 0.177362 -0.931065
7012 1 -7.256110 3.538014 -22.431532 0 1.000000 1.000000 1.000000 -0.304567 0.148189 -0.940893
7013 1 -7.673846 2.843758 -22.391027 0 1.000000 1.000000 1.000000 -0.321806 0.119287 -0.939261
7014 1 -7.307721 2.137885 -22.591034 0 1.000000 1.000000 1.000000 -0.306614 0.089544 -0.947612
7015 1 -7.715052 1.429505 -22.511255 0 1.000000 1.000000 1.000000 -0.323625 0.059964 -0.944284
7016 1 -7.333943 0.715182 -22.672068 0 1.000000 1.000000 1.000000 -0.307654 0.029955 -0.951027
7017 1 -7.728935 0.000000 -22.551762 0 1.000000 1.000000 1.000000 -0.324238 -0.000000 -0.945976
7018 1 -7.333943 -0.715182 -22.672068 0 1.000000 1.000000 1.000000 -0.307654 -0.029955 -0.951027
7019 1 -7.715052 -1.429505 -22.511255 0 1.000000 1.000000 1.000000 -0.323625 -0.059964 -0.944284
7020 1 -7.307721 -2.137885 -22.591034 0 1.000000 1.000000 1.000000 -0.306614 -0.089544 -0.947612
7021 1 -7.673846 -2.843758 -22.391027 0 1.000000 1.000000 1.000000 -0.321806 -0.119287 -0.939261
7022 1 -7.256110 -3.538014 -22.431532 0 1.000000 1.000000 1.000000 -0.304567 -0.148189 -0.940893
7023 1 -7.606609 -4.228308 -22.194848 0 1.000000 1.000000 1.000000 -0.318841 -0.177362 -0.931065
7024 1 -7.180698 -4.901814 -22.198475 0 1.000000 1.000000 1.000000 -0.301570 -0.205315 -0.931075
7025 1 -7.515372 -5.570202 -21.928644 0 1.000000 1.000000 1.000000 -0.314825 -0.233646 -0.919943
7026 1 -7.083705 -6.217322 -21.898718 0 1.000000 1.000000 1.000000 -0.297708 -0.260421 -0.918450
7027 1 -7.402742 -6.858525 -21.600024 0 1.000000 1.000000 1.000000 -0.309877 -0.287679 -0.906210
7028 1 -6.967807 -7.474786 -21.540526 0 1.000000 1.000000 1.000000 -0.293082 -0.313099 -0.903367
7029 1 -7.271712 -8.084716 -21.217715 0 1.000000 1.000000 1.000000 -0.304133 -0.339103 -0.890231
7030 1 -6.835950 -8.666883 -21.133004 0 1.000000 1.000000 1.000000 -0.287804 -0.363043 -0.886210
7031 1 -7.125461 -9.242672 -20.791001 0 1.000000 1.000000 1.000000 -0.297739 -0.387663 -0.872393
7032 1 -6.691173 -9.788715 -20.685542 0 1.000000 1.000000 1.000000 -0.281992 -0.410046 -0.867377
7033 1 -5.552754 10.288613 -20.780167 0 1.000000 1.000000 1.000000 -0.234412 0.430681 -0.871530
7034 1 -5.975421 9.769244 -20.912728 0 1.000000 1.000000 1.000000 -0.249370 0.410048 -0.877312
7035 1 -5.677941 9.205209 -21.248431 0 1.000000 1.000000 1.000000 -0.239387 0.385306 -0.891198
7036 1 -6.104183 8.648891 -21.363249 0 1.000000 1.000000 1.000000 -0.255049 0.363044 -0.896186
7037 1 -5.793561 8.050605 -21.680889 0 1.000000 1.000000 1.000000 -0.243964 0.336957 -0.909363
7038 1 -6.221423 7.458666 -21.773454 0 1.000000 1.000000 1.000000 -0.260237 0.313100 -0.913370
7039 1 -5.897102 6.828549 -22.068156 0 1.000000 1.000000 1.000000 -0.248047 0.285793 -0.925632
7040 1 -6.324449 6.203465 -22.133922 0 1.000000 1.000000 1.000000 -0.264809 0.260422 -0.928470
7041 1 -5.986068 5.545120 -22.400898 0 1.000000 1.000000 1.000000 -0.251543 0.232067 -0.939612
7042 1 -6.410651 4.890589 -22.435524 0 1.000000 1.000000 1.000000 -0.268645 0.205316 -0.941103
7043 1 -6.058112 4.208810 -22.670341 0 1.000000 1.000000 1.000000 -0.254367 0.176135 -0.950933
7044 1 -6.477661 3.529741 -22.669976 0 1.000000 1.000000 1.000000 -0.271634 0.148190 -0.950923
7045 1 -6.111191 2.830415 -22.868851 0 1.000000 1.000000 1.000000 -0.256442 0.118447 -0.959275
7046 1 -6.523516 2.132815 -22.830414 0 1.000000 1.000000 1.000000 -0.273682 0.089545 -0.957643
7047 1 -6.143715 1.422726 -22.990484 0 1.000000 1.000000 1.000000 -0.257712 0.059537 -0.964386
7048 1 -6.546811 0.713473 -22.911918 0 1.000000 1.000000 1.000000 -0.274724 0.029955 -0.961057
7049 1 -6.154672 0.000000 -23.031461 0 1.000000 1.000000 1.000000 -0.258140 0.000000 -0.966108
7050 1 -6.546811 -0.713473 -22.911918 0 1.000000 1.000000 1.000000 -0.274724 -0.029955 -0.961057
7051 1 -6.143715 -1.422726 -22.990484 0 1.000000 1.000000 1.000000 -0.257712 -0.059537 -0.964386
7052 1 -6.523516 -2.132815 -22.830414 0 1.000000 1.000000 1.000000 -0.273682 -0.089545 -0.957643
7053 1 -6.111191 -2.830415 -22.868851 0 1.000000 1.000000 1.000000 -0.256442 -0.118447 -0.959275
7054 1 -6.477661 -3.529741 -22.669976 0 1.000000 1.000000 1.000000 -0.271634 -0.148190 -0.950923
7055 1 -6.058112 -4.208810 -22.670341 0 1.000000 1.000000 1.000000 -0.254367 -0.176135 -0.950933
7056 1 -6.410651 -4.890589 -22.435524 0 1.000000 1.000000 1.000000 -0.268645 -0.205316 -0.941103
7057 1 -5.986068 -5.545120 -22.400898 0 1.000000 1.000000 1.000000 -0.251543 -0.232067 -0.939612
7058 1 -6.324449 -6.203465 -22.133922 0 1.000000 1.000000 1.000000 -0.264809 -0.260422 -0.928470
7059 1 -5.897102 -6.828549 -22.068156 0 1.000000 1.000000 1.000000 -0.248047 -0.285793 -0.925632
7060 1 -6.221423 -7.458666 -21.773454 0 1.000000 1.000000 1.000000 -0.260237 -0.313100 -0.913370
7061 1 -5.793561 -8.050605 -21.680889 0 1.000000 1.000000 1.000000 -0.243964 -0.336957 -0.909363
7062 1 -6.104183 -8.648891 -21.363249 0 1.000000 1.000000 1.000000 -0.255049 -0.363044 -0.896186
7063 1 -5.677941 -9.205209 -21.248431 0 1.000000 1.000000 1.000000 -0.239387 -0.385306 -0.891198
7064 1 -5.975421 -9.769244 -20.912728 0 1.000000 1.000000 1.000000 -0.249370 -0.410048 -0.877312
7065 1 -5.552754 -10.288613 -20.780167 0 1.000000 1.000000 1.000000 -0.234412 -0.430681 -0.871530
7066 1 -4.435560 10.746050 -20.817685 0 1.000000 1.000000 1.000000 -0.187692 0.449533 -0.873322
7067 1 -4.842813 10.253911 -20.974134 0 1.000000 1.000000 1.000000 -0.201761 0.430684 -0.879661
7068 1 -4.538780 9.702085 -21.301745 0 1.000000 1.000000 1.000000 -0.191731 0.405823 -0.893615
7069 1 -4.951241 9.172752 -21.443481 0 1.000000 1.000000 1.000000 -0.206604 0.385308 -0.899362
7070 1 -4.635258 8.586887 -21.754154 0 1.000000 1.000000 1.000000 -0.195486 0.359143 -0.912580
7071 1 -5.051336 8.021057 -21.876744 0 1.000000 1.000000 1.000000 -0.211094 0.336959 -0.917550
7072 1 -4.723032 7.403158 -22.165726 0 1.000000 1.000000 1.000000 -0.198885 0.309608 -0.929832
7073 1 -5.140936 6.802588 -22.264572 0 1.000000 1.000000 1.000000 -0.215129 0.285795 -0.933831
7074 1 -4.800107 6.155784 -22.527112 0 1.000000 1.000000 1.000000 -0.201855 0.257422 -0.944981
7075 1 -5.217893 5.523401 -22.597672 0 1.000000 1.000000 1.000000 -0.218607 0.232069 -0.947816
7076 1 -4.864555 4.851987 -22.829277 0 1.000000 1.000000 1.000000 -0.204329 0.202887 -0.957646
7077 1 -5.280192 4.191927 -22.867321 0 1.000000 1.000000 1.000000 -0.221431 0.176136 -0.959137
7078 1 -4.914629 3.501306 -23.064037 0 1.000000 1.000000 1.000000 -0.206244 0.146401 -0.967487
7079 1 -5.326080 2.818863 -23.065933 0 1.000000 1.000000 1.000000 -0.223516 0.118448 -0.967476
7080 1 -4.948881 2.115395 -23.224618 0 1.000000 1.000000 1.000000 -0.207551 0.088448 -0.974217
7081 1 -5.354192 1.416858 -23.187607 0 1.000000 1.000000 1.000000 -0.224796 0.059538 -0.972585
7082 1 -4.966278 0.707605 -23.306174 0 1.000000 1.000000 1.000000 -0.208213 0.029586 -0.977636
7083 1 -5.363662 0.000000 -23.228594 0 1.000000 1.000000 1.000000 -0.225227 -0.000000 -0.974306
7084 1 -4.966278 -0.707605 -23.306174 0 1.000000 1.000000 1.000000 -0.208213 -0.029586 -0.977636
7085 1 -5.354192 -1.416858 -23.187607 0 1.000000 1.000000 1.000000 -0.224796 -0.059538 -0.972585
7086 1 -4.948881 -2.115395 -23.224618 0 1.000000 1.000000 1.000000 -0.207551 -0.088448 -0.974217
7087 1 -5.326080 -2.818863 -23.065933 0 1.000000 1.000000 1.000000 -0.223516 -0.118448 -0.967476
7088 1 -4.914629 -3.501306 -23.064037 0 1.000000 1.000000 1.000000 -0.206244 -0.146401 -0.967487
7089 1 -5.280192 -4.191927 -22.867321 0 1.000000 1.000000 1.000000 -0.221431 -0.176136 -0.959137
7090 1 -4.864555 -4.851987 -22.829277 0 1.000000 1.000000 1.000000 -0.204329 -0.202887 -0.957646
7091 1 -5.217893 -5.523401 -22.597672 0 1.000000 1.000000 1.000000 -0.218607 -0.232069 -0.947816
7092 1 -4.800107 -6.155784 -22.527112 0 1.000000 1.000000 1.000000 -0.201855 -0.257422 -0.944981
7093 1 -5.140936 -6.802588 -22.264572 0 1.000000 1.000000 1.000000 -0.215129 -0.285795 -0.933831
7094 1 -4.723032 -7.403158 -22.165726 0 1.000000 1.000000 1.000000 -0.198885 -0.309608 -0.929832
7095 1 -5.051336 -8.021057 -21.876744 0 1.000000 1.000000 1.000000 -0.211094 -0.336959 -0.917550
7096 1 -4.635258 -8.586887 -21.754154 0 1.000000 1.000000 1.000000 -0.195486 -0.359143 -0.912580
7097 1 -4.951241 -9.172752 -21.443481 0 1.000000 1.000000 1.000000 -0.206604 -0.385308 -0.899362
7098 1 -4.538780 -9.702085 -21.301745 0 1.000000 1.000000 1.000000 -0.191731 -0.405823 -0.893615
7099 1 -4.842813 -10.253911 -20.974134 0 1.000000 1.000000 1.000000 -0.201761 -0.430684 -0.879661
7100 1 -4.435560 -10.746050 -20.817685 0 1.000000 1.000000 1.000000 -0.187692 -0.449533 -0.873322
7101 1 -3.347518 11.161060 -20.803315 0 1.000000 1.000000 1.000000 -0.142164 0.466614 -0.872961
7102 1 -3.736332 10.696109 -20.980195 0 1.000000 1.000000 1.000000 -0.155276 0.449537 -0.879663
7103 1 -3.427263 10.156775 -21.298254 0 1.000000 1.000000 1.000000 -0.145205 0.424573 -0.893674
7104 1 -3.822458 9.654889 -21.463355 0 1.000000 1.000000 1.000000 -0.159199 0.405826 -0.899978
7105 1 -3.502565 9.082005 -21.765572 0 1.000000 1.000000 1.000000 -0.148055 0.379599 -0.913227
7106 1 -3.902904 8.543335 -21.914635 0 1.000000 1.000000 1.000000 -0.162884 0.359146 -0.918958
7107 1 -3.571998 7.938533 -22.196430 0 1.000000 1.000000 1.000000 -0.150664 0.331767 -0.931252
7108 1 -3.976048 7.364185 -22.324931 0 1.000000 1.000000 1.000000 -0.166253 0.309610 -0.936216
7109 1 -3.634085 6.730152 -22.581666 0 1.000000 1.000000 1.000000 -0.152979 0.281237 -0.947366
7110 1 -4.040241 6.122321 -22.685000 0 1.000000 1.000000 1.000000 -0.169224 0.257424 -0.951365
7111 1 -3.687361 5.462854 -22.912202 0 1.000000 1.000000 1.000000 -0.154954 0.228259 -0.961191
7112 1 -4.093890 4.824904 -22.985920 0 1.000000 1.000000 1.000000 -0.171718 0.202889 -0.964027
7113 1 -3.730455 4.144899 -23.179546 0 1.000000 1.000000 1.000000 -0.156543 0.173177 -0.972370
7114 1 -4.135556 3.481361 -23.219619 0 1.000000 1.000000 1.000000 -0.173662 0.146402 -0.973862
7115 1 -3.762176 2.786700 -23.376326 0 1.000000 1.000000 1.000000 -0.157708 0.116424 -0.980599
7116 1 -4.164049 2.103177 -23.379429 0 1.000000 1.000000 1.000000 -0.174994 0.088449 -0.980588
7117 1 -3.781600 1.400525 -23.496823 0 1.000000 1.000000 1.000000 -0.158419 0.058510 -0.985637
7118 1 -4.178518 0.703490 -23.460578 0 1.000000 1.000000 1.000000 -0.175672 0.029586 -0.984004
7119 1 -3.788142 0.000000 -23.537403 0 1.000000 1.000000 1.000000 -0.158658 0.000000 -0.987334
7120 1 -4.178518 -0.703490 -23.460578 0 1.000000 1.000000 1.000000 -0.175672 -0.029586 -0.984004
7121 1 -3.781600 -1.400525 -23.496823 0 1.000000 1.000000 1.000000 -0.158419 -0.058510 -0.985637
7122 1 -4.164049 -2.103177 -23.379429 0 1.000000 1.000000 1.000000 -0.174994 -0.088449 -0.980588
7123 1 -3.762176 -2.786700 -23.376326 0 1.000000 1.000000 1.000000 -0.157708 -0.116424 -0.980599
7124 1 -4.135556 -3.481361 -23.219619 0 1.000000 1.000000 1.000000 -0.173662 -0.146402 -0.973862
7125 1 -3.730455 -4.144899 -23.179546 0 1.000000 1.000000 1.000000 -0.156543 -0.173177 -0.972370
7126 1 -4.093890 -4.824904 -22.985920 0 1.000000 1.000000 1.000000 -0.171718 -0.202889 -0.964027
7127 1 -3.687361 -5.462854 -22.912202 0 1.000000 1.000000 1.000000 -0.154954 -0.228259 -0.961191
7128 1 -4.040241 -6.122321 -22.685000 0 1.000000 1.000000 1.000000 -0.169224 -0.257424 -0.951365
7129 1 -3.634085 -6.730152 -22.581666 0 1.000000 1.000000 1.000000 -0.152979 -0.281237 -0.947366
7130 1 -3.976048 -7.364185 -22.324931 0 1.000000 1.000000 1.000000 -0.166253 -0.309610 -0.936216
7131 1 -3.571998 -7.938533 -22.196430 0 1.000000 1.000000 1.000000 -0.150664 -0.331767 -0.931252
7132 1 -3.902904 -8.543335 -21.914635 0 1.000000 1.000000 1.000000 -0.162884 -0.359146 -0.918958
7133 1 -3.502565 -9.082005 -21.765572 0 1.000000 1.000000 1.000000 -0.148055 -0.379599 -0.913227
7134 1 -3.822458 -9.654889 -21.463355 0 1.000000 1.000000 1.000000 -0.159199 -0.405826 -0.899978
7135 1 -3.427263 -10.156775 -21.298254 0 1.000000 1.000000 1.000000 -0.145205 -0.424573 -0.893674
7136 1 -3.736332 -10.696109 -20.980195 0 1.000000 1.000000 1.000000 -0.155276 -0.449537 -0.879663
7137 1 -3.347518 -11.161060 -20.803315 0 1.000000 1.000000 1.000000 -0.142164 -0.466614 -0.872961
7138 1 -2.295057 11.534594 -20.742830 0 1.000000 1.000000 1.000000 -0.098100 0.481969 -0.870679
7139 1 -2.663188 11.096291 -20.936619 0 1.000000 1.000000 1.000000 -0.110217 0.466618 -0.877565
7140 1 -2.350628 10.569586 -21.244008 0 1.000000 1.000000 1.000000 -0.100116 0.441578 -0.891620
7141 1 -2.725888 10.095020 -21.428764 0 1.000000 1.000000 1.000000 -0.113171 0.424577 -0.898291
7142 1 -2.403564 9.535486 -21.721354 0 1.000000 1.000000 1.000000 -0.102013 0.398314 -0.911559
7143 1 -2.785046 9.024357 -21.893061 0 1.000000 1.000000 1.000000 -0.115981 0.379603 -0.917851
7144 1 -2.452937 8.433300 -22.166494 0 1.000000 1.000000 1.000000 -0.103760 0.352223 -0.930147
7145 1 -2.839550 7.886146 -22.320800 0 1.000000 1.000000 1.000000 -0.118590 0.331770 -0.935877
7146 1 -2.497766 7.265844 -22.570603 0 1.000000 1.000000 1.000000 -0.105329 0.303423 -0.947017
7147 1 -2.888252 6.684198 -22.702969 0 1.000000 1.000000 1.000000 -0.120938 0.281240 -0.951986
7148 1 -2.537059 6.037976 -22.924761 0 1.000000 1.000000 1.000000 -0.106689 0.252117 -0.961798
7149 1 -2.930014 5.424463 -23.030661 0 1.000000 1.000000 1.000000 -0.122964 0.228261 -0.965804
7150 1 -2.569863 4.756707 -23.220391 0 1.000000 1.000000 1.000000 -0.107814 0.198597 -0.974133
7151 1 -2.963775 4.115093 -23.295558 0 1.000000 1.000000 1.000000 -0.124611 0.173179 -0.976976
7152 1 -2.595317 3.431177 -23.449761 0 1.000000 1.000000 1.000000 -0.108680 0.143244 -0.983702
7153 1 -2.988616 2.766323 -23.490455 0 1.000000 1.000000 1.000000 -0.125827 0.116425 -0.985197
7154 1 -2.612712 2.072453 -23.606497 0 1.000000 1.000000 1.000000 -0.109268 0.086515 -0.990240
7155 1 -3.003823 1.390179 -23.609762 0 1.000000 1.000000 1.000000 -0.126574 0.058510 -0.990230
7156 1 -2.621541 0.693144 -23.686051 0 1.000000 1.000000 1.000000 -0.109566 0.028935 -0.993558
7157 1 -3.008943 0.000000 -23.649936 0 1.000000 1.000000 1.000000 -0.126826 -0.000000 -0.991925
7158 1 -2.621541 -0.693144 -23.686051 0 1.000000 1.000000 1.000000 -0.109566 -0.028935 -0.993558
7159 1 -3.003823 -1.390179 -23.609762 0 1.000000 1.000000 1.000000 -0.126574 -0.058510 -0.990230
7160 1 -2.612712 -2.072453 -23.606497 0 1.000000 1.000000 1.000000 -0.109268 -0.086515 -0.990240
7161 1 -2.988616 -2.766323 -23.490455 0 1.000000 1.000000 1.000000 -0.125827 -0.116425 -0.985197
7162 1 -2.595317 -3.431177 -23.449761 0 1.000000 1.000000 1.000000 -0.108680 -0.143244 -0.983702
7163 1 -2.963775 -4.115093 -23.295558 0 1.000000 1.000000 1.000000 -0.124611 -0.173179 -0.976976
7164 1 -2.569863 -4.756707 -23.220391 0 1.000000 1.000000 1.000000 -0.107814 -0.198597 -0.974133
7165 1 -2.930014 -5.424463 -23.030661 0 1.000000 1.000000 1.000000 -0.122964 -0.228261 -0.965804
7166 1 -2.537059 -6.037976 -22.924761 0 1.000000 1.000000 1.000000 -0.106689 -0.252117 -0.961798
7167 1 -2.888252 -6.684198 -22.702969 0 1.000000 1.000000 1.000000 -0.120938 -0.281240 -0.951986
7168 1 -2.497766 -7.265844 -22.570603 0 1.000000 1.000000 1.000000 -0.105329 -0.303423 -0.947017
7169 1 -2.839550 -7.886146 -22.320800 0 1.000000 1.000000 1.000000 -0.118590 -0.331770 -0.935877
7170 1 -2.452937 -8.433300 -22.166494 0 1.000000 1.000000 1.000000 -0.103760 -0.352223 -0.930147
7171 1 -2.785046 -9.024357 -21.893061 0 1.000000 1.000000 1.000000 -0.115981 -0.379603 -0.917851
7172 1 -2.403564 -9.535486 -21.721354 0 1.000000 1.000000 1.000000 -0.102013 -0.398314 -0.911559
7173 1 -2.725888 -10.095020 -21.428764 0 1.000000 1.000000 1.000000 -0.113171 -0.424577 -0.898291
7174 1 -2.350628 -10.569586 -21.244008 0 1.000000 1.000000 1.000000 -0.100116 -0.441578 -0.891620
7175 1 -2.663188 -11.096291 -20.936619 0 1.000000 1.000000 1.000000 -0.110217 -0.466618 -0.877565
7176 1 -2.295057 -11.534594 -20.742830 0 1.000000 1.000000 1.000000 -0.098100 -0.481969 -0.870679
7177 1 -1.283091 11.868331 -20.642231 0 1.000000 1.000000 1.000000 -0.055708 0.495677 -0.866719
7178 1 -1.629039 11.455743 -20.849498 0 1.000000 1.000000 1.000000 -0.066818 0.481974 -0.873634
7179 1 -1.314499 10.941688 -21.145427 0 1.000000 1.000000 1.000000 -0.056701 0.456893 -0.887713
7180 1 -1.667957 10.493834 -21.346147 0 1.000000 1.000000 1.000000 -0.068786 0.441582 -0.894580
7181 1 -1.344646 9.947855 -21.628259 0 1.000000 1.000000 1.000000 -0.057629 0.415319 -0.907849
7182 1 -1.704993 9.464072 -21.818711 0 1.000000 1.000000 1.000000 -0.070684 0.398319 -0.914520
7183 1 -1.373041 8.887196 -22.082897 0 1.000000 1.000000 1.000000 -0.058479 0.370973 -0.926800
7184 1 -1.739504 8.367553 -22.258973 0 1.000000 1.000000 1.000000 -0.072474 0.352227 -0.933104
7185 1 -1.399161 7.761693 -22.500973 0 1.000000 1.000000 1.000000 -0.059242 0.323940 -0.944221
7186 1 -1.770810 7.207138 -22.658297 0 1.000000 1.000000 1.000000 -0.074116 0.303426 -0.949968
7187 1 -1.422465 6.575180 -22.873879 0 1.000000 1.000000 1.000000 -0.059905 0.274380 -0.959754
7188 1 -1.798228 5.987665 -23.007977 0 1.000000 1.000000 1.000000 -0.075570 0.252120 -0.964741
7189 1 -1.442422 5.333499 -23.193149 0 1.000000 1.000000 1.000000 -0.060461 0.222537 -0.973048
7190 1 -1.821102 4.716055 -23.299663 0 1.000000 1.000000 1.000000 -0.076793 0.198600 -0.977068
7191 1 -1.458538 4.044540 -23.450911 0 1.000000 1.000000 1.000000 -0.060901 0.168738 -0.983778
7192 1 -1.838841 3.401278 -23.525842 0 1.000000 1.000000 1.000000 -0.077748 0.143246 -0.986629
7193 1 -1.470385 2.718124 -23.640370 0 1.000000 1.000000 1.000000 -0.061220 0.113392 -0.991662
7194 1 -1.850958 2.054154 -23.680331 0 1.000000 1.000000 1.000000 -0.078405 0.086517 -0.993160
7195 1 -1.477634 1.365719 -23.756269 0 1.000000 1.000000 1.000000 -0.061413 0.056971 -0.996485
7196 1 -1.857106 0.686982 -23.758723 0 1.000000 1.000000 1.000000 -0.078739 0.028935 -0.996475
7197 1 -1.480074 0.000000 -23.795282 0 1.000000 1.000000 1.000000 -0.061477 0.000000 -0.998108
7198 1 -1.857106 -0.686982 -23.758723 0 1.000000 1.000000 1.000000 -0.078739 -0.028935 -0.996475
7199 1 -1.477634 -1.365719 -23.756269 0 1.000000 1.000000 1.000000 -0.061413 -0.056971 -0.996485
7200 1 -1.850958 -2.054154 -23.680331 0 1.000000 1.000000 1.000000 -0.078405 -0.086517 -0.993160
7201 1 -1.470385 -2.718124 -23.640370 0 1.000000 1.000000 1.000000 -0.061220 -0.113392 -0.991662
7202 1 -1.838841 -3.401278 -23.525842 0 1.000000 1.000000 1.000000 -0.077748 -0.143246 -0.986629
7203 1 -1.458538 -4.044540 -23.450911 0 1.000000 1.000000 1.000000 -0.060901 -0.168738 -0.983778
7204 1 -1.821102 -4.716055 -23.299663 0 1.000000 1.000000 1.000000 -0.076793 -0.198600 -0.977068
7205 1 -1.442422 -5.333499 -23.193149 0 1.000000 1.000000 1.000000 -0.060461 -0.222537 -0.973048
7206 1 -1.798228 -5.987665 -23.007977 0 1.000000 1.000000 1.000000 -0.075570 -0.252120 -0.964741
7207 1 -1.422465 -6.575180 -22.873879 0 1.000000 1.000000 1.000000 -0.059905 -0.274380 -0.959754
7208 1 -1.770810 -7.207138 -22.658297 0 1.000000 1.000000 1.000000 -0.074116 -0.303426 -0.949968
7209 1 -1.399161 -7.761693 -22.500973 0 1.000000 1.000000 1.000000 -0.059242 -0.323940 -0.944221
7210 1 -1.739504 -8.367553 -22.258973 0 1.000000 1.000000 1.000000 -0.072474 -0.352227 -0.933104
7211 1 -1.373041 -8.887196 -22.082897 0 1.000000 1.000000 1.000000 -0.058479 -0.370973 -0.926800
7212 1 -1.704993 -9.464072 -21.818711 0 1.000000 1.000000 1.000000 -0.070684 -0.398319 -0.914520
7213 1 -1.344646 -9.947855 -21.628259 0 1.000000 1.000000 1.000000 -0.057629 -0.415319 -0.907849
7214 1 -1.667957 -10.493834 -21.346147 0 1.000000 1.000000 1.000000 -0.068786 -0.441582 -0.894580
7215 1 -1.314499 -10.941688 -21.145427 0 1.000000 1.000000 1.000000 -0.056701 -0.456893 -0.887713
7216 1 -1.629039 -11.455743 -20.849498 0 1.000000 1.000000 1.000000 -0.066818 -0.481974 -0.873634
7217 1 -1.283091 -11.868331 -20.642231 0 1.000000 1.000000 1.000000 -0.055708 -0.495677 -0.866719
7218 1 -0.315093 12.164492 -20.507486 0 1.000000 1.000000 1.000000 -0.015138 0.507833 -0.861323
7219 1 -0.638030 11.776400 -20.724999 0 1.000000 1.000000 1.000000 -0.025251 0.495682 -0.868137
7220 1 -0.322937 11.274924 -21.008977 0 1.000000 1.000000 1.000000 -0.015134 0.470600 -0.882217
7221 1 -0.653457 10.852800 -21.222137 0 1.000000 1.000000 1.000000 -0.026244 0.456898 -0.889132
7222 1 -0.330521 10.320443 -21.493216 0 1.000000 1.000000 1.000000 -0.015104 0.430675 -0.902381
7223 1 -0.668251 9.863352 -21.698618 0 1.000000 1.000000 1.000000 -0.027222 0.415324 -0.909266
7224 1 -0.337731 9.300909 -21.952952 0 1.000000 1.000000 1.000000 -0.015051 0.388054 -0.921514
7225 1 -0.682173 8.808535 -22.146780 0 1.000000 1.000000 1.000000 -0.028165 0.370978 -0.928214
7226 1 -0.344442 8.217600 -22.380353 0 1.000000 1.000000 1.000000 -0.014981 0.342792 -0.939292
7227 1 -0.694967 7.690401 -22.558470 0 1.000000 1.000000 1.000000 -0.029053 0.323944 -0.945630
7228 1 -0.350525 7.073459 -22.767241 0 1.000000 1.000000 1.000000 -0.014899 0.295015 -0.955376
7229 1 -0.706373 6.512793 -22.925325 0 1.000000 1.000000 1.000000 -0.029861 0.274384 -0.961157
7230 1 -0.355848 5.873269 -23.105422 0 1.000000 1.000000 1.000000 -0.014814 0.244921 -0.969430
7231 1 -0.716133 5.281490 -23.239146 0 1.000000 1.000000 1.000000 -0.030565 0.222540 -0.974444
7232 1 -0.360285 4.623735 -23.387074 0 1.000000 1.000000 1.000000 -0.014732 0.192790 -0.981129
7233 1 -0.724010 4.004230 -23.492325 0 1.000000 1.000000 1.000000 -0.031141 0.168741 -0.985168
7234 1 -0.363724 3.333444 -23.605194 0 1.000000 1.000000 1.000000 -0.014662 0.138976 -0.990187
7235 1 -0.729797 2.690600 -23.678308 0 1.000000 1.000000 1.000000 -0.031570 0.113393 -0.993049
7236 1 -0.366073 2.012667 -23.754038 0 1.000000 1.000000 1.000000 -0.014611 0.083905 -0.996367
7237 1 -0.733337 1.351755 -23.792037 0 1.000000 1.000000 1.000000 -0.031834 0.056972 -0.997868
7238 1 -0.367264 0.673019 -23.829522 0 1.000000 1.000000 1.000000 -0.014584 0.028056 -0.999500
7239 1 -0.734528 0.000000 -23.830312 0 1.000000 1.000000 1.000000 -0.031923 -0.000000 -0.999490
7240 1 -0.367264 -0.673019 -23.829522 0 1.000000 1.000000 1.000000 -0.014584 -0.028056 -0.999500
7241 1 -0.733337 -1.351755 -23.792037 0 1.000000 1.000000 1.000000 -0.031834 -0.056972 -0.997868
7242 1 -0.366073 -2.012667 -23.754038 0 1.000000 1.000000 1.000000 -0.014611 -0.083905 -0.996367
7243 1 -0.729797 -2.690600 -23.678308 0 1.000000 1.000000 1.000000 -0.031570 -0.113393 -0.993049
7244 1 -0.363724 -3.333444 -23.605194 0 1.000000 1.000000 1.000000 -0.014662 -0.138976 -0.990187
7245 1 -0.724010 -4.004230 -23.492325 0 1.000000 1.000000 1.000000 -0.031141 -0.168741 -0.985168
7246 1 -0.360285 -4.623735 -23.387074 0 1.000000 1.000000 1.000000 -0.014732 -0.192790 -0.981129
7247 1 -0.716133 -5.281490 -23.239146 0 1.000000 1.000000 1.000000 -0.030565 -0.222540 -0.974444
7248 1 -0.355848 -5.873269 -23.105422 0 1.000000 1.000000 1.000000 -0.014814 -0.244921 -0.969430
7249 1 -0.706373 -6.512793 -22.925325 0 1.000000 1.000000 1.000000 -0.029861 -0.274384 -0.961157
7250 1 -0.350525 -7.073459 -22.767241 0 1.000000 1.000000 1.000000 -0.014899 -0.295015 -0.955376
7251 1 -0.694967 -7.690401 -22.558470 0 1.000000 1.000000 1.000000 -0.029053 -0.323944 -0.945630
7252 1 -0.344442 -8.217600 -22.380353 0 1.000000 1.000000 1.000000 -0.014981 -0.342792 -0.939292
7253 1 -0.682173 -8.808535 -22.146780 0 1.000000 1.000000 1.000000 -0.028165 -0.370978 -0.928214
7254 1 -0.337731 -9.300909 -21.952952 0 1.000000 1.000000 1.000000 -0.015051 -0.388054 -0.921514
7255 1 -0.668251 -9.863352 -21.698618 0 1.000000 1.000000 1.000000 -0.027222 -0.415324 -0.909266
7256 1 -0.330521 -10.320443 -21.493216 0 1.000000 1.000000 1.000000 -0.015104 -0.430675 -0.902381
7257 1 -0.653457 -10.852800 -21.222137 0 1.000000 1.000000 1.000000 -0.026244 -0.456898 -0.889132
7258 1 -0.322937 -11.274924 -21.008977 0 1.000000 1.000000 1.000000 -0.015134 -0.470600 -0.882217
7259 1 -0.638030 -11.776400 -20.724999 0 1.000000 1.000000 1.000000 -0.025251 -0.495682 -0.868137
7260 1 -0.315093 -12.164492 -20.507486 0 1.000000 1.000000 1.000000 -0.015138 -0.507833 -0.861323
7261 1 12.674323 20.192393 -0.509831 0 1.000000 1.000000 1.000000 0.532327 0.846185 -0.024494
7262 1 13.351008 19.725886 -1.115930 0 1.000000 1.000000 1.000000 0.560738 0.826508 -0.049563
7263 1 12.808754 20.086969 -1.032354 0 1.000000 1.000000 1.000000 0.536538 0.842886 -0.040856
7264 1 12.390854 20.319294 -1.482677 0 1.000000 1.000000 1.000000 0.520164 0.851585 -0.065062
7265 1 14.033924 19.198158 -1.748944 0 1.000000 1.000000 1.000000 0.589404 0.804281 -0.075733
7266 1 13.488641 19.593098 -1.660259 0 1.000000 1.000000 1.000000 0.565012 0.822314 -0.067540
7267 1 13.068592 19.830928 -2.126904 0 1.000000 1.000000 1.000000 0.548637 0.831012 -0.091744
7268 1 12.513059 20.196041 -2.032898 0 1.000000 1.000000 1.000000 0.524438 0.847390 -0.083038
7269 1 12.069387 20.412309 -2.499330 0 1.000000 1.000000 1.000000 0.506408 0.855575 -0.107435
7270 1 14.717307 18.605434 -2.406611 0 1.000000 1.000000 1.000000 0.618080 0.779350 -0.102913
7271 1 14.172481 19.035429 -2.314192 0 1.000000 1.000000 1.000000 0.593659 0.799049 -0.095340
7272 1 13.751250 19.277632 -2.797414 0 1.000000 1.000000 1.000000 0.577310 0.807733 -0.119504
7273 1 13.192644 19.678191 -2.698810 0 1.000000 1.000000 1.000000 0.552881 0.825794 -0.111299
7274 1 12.745268 19.899363 -3.181665 0 1.000000 1.000000 1.000000 0.534823 0.833991 -0.135732
7275 1 12.177544 20.268368 -3.076190 0 1.000000 1.000000 1.000000 0.510664 0.850343 -0.127041
7276 1 11.707519 20.465585 -3.556247 0 1.000000 1.000000 1.000000 0.490967 0.857910 -0.151466
7277 1 15.394486 17.944793 -3.085769 0 1.000000 1.000000 1.000000 0.646484 0.751600 -0.130981
7278 1 14.854048 18.410448 -2.991353 0 1.000000 1.000000 1.000000 0.622220 0.772938 -0.124131
7279 1 14.432624 18.655634 -3.491206 0 1.000000 1.000000 1.000000 0.605921 0.781595 -0.148221
7280 1 13.874652 19.092823 -3.389685 0 1.000000 1.000000 1.000000 0.581433 0.801349 -0.140627
7281 1 13.424535 19.317790 -3.889049 0 1.000000 1.000000 1.000000 0.563374 0.809546 -0.165060
7282 1 12.853757 19.723771 -3.779632 0 1.000000 1.000000 1.000000 0.538946 0.827607 -0.156856
7283 1 12.378402 19.925213 -4.275849 0 1.000000 1.000000 1.000000 0.519194 0.835195 -0.181348
7284 1 11.799888 20.298022 -4.157938 0 1.000000 1.000000 1.000000 0.495109 0.851497 -0.172683
7285 1 11.303369 20.473242 -4.648437 0 1.000000 1.000000 1.000000 0.473773 0.858341 -0.196950
7286 1 16.058003 17.214487 -3.782316 0 1.000000 1.000000 1.000000 0.674301 0.720965 -0.159774
7287 1 15.526237 17.715657 -3.687990 0 1.000000 1.000000 1.000000 0.650400 0.743869 -0.153748
7288 1 15.105594 17.962192 -4.204281 0 1.000000 1.000000 1.000000 0.634167 0.752490 -0.177738
7289 1 14.552419 18.436515 -4.101912 0 1.000000 1.000000 1.000000 0.609816 0.773906 -0.170864
7290 1 14.100568 18.663929 -4.617641 0 1.000000 1.000000 1.000000 0.591781 0.782091 -0.195263
7291 1 13.530656 19.108015 -4.506299 0 1.000000 1.000000 1.000000 0.567263 0.801870 -0.187661
7292 1 13.050941 19.312634 -5.018563 0 1.000000 1.000000 1.000000 0.547486 0.809467 -0.212183
7293 1 12.469465 19.723851 -4.897530 0 1.000000 1.000000 1.000000 0.523091 0.827504 -0.203990
7294 1 11.965974 19.902584 -5.403509 0 1.000000 1.000000 1.000000 0.501678 0.834373 -0.228344
7295 1 11.378391 20.279167 -5.272327 0 1.000000 1.000000 1.000000 0.477692 0.850609 -0.219716
7296 1 10.855775 20.429642 -5.769390 0 1.000000 1.000000 1.000000 0.454789 0.856631 -0.243620
7297 1 16.699815 16.414248 -4.491220 0 1.000000 1.000000 1.000000 0.701194 0.687438 -0.189094
7298 1 16.181228 16.949904 -4.399386 0 1.000000 1.000000 1.000000 0.677872 0.711787 -0.183980
7299 1 15.762282 17.195937 -4.931625 0 1.000000 1.000000 1.000000 0.661716 0.720367 -0.207855
7300 1 15.218414 17.707056 -4.830845 0 1.000000 1.000000 1.000000 0.637718 0.743364 -0.201804
7301 1 14.765849 17.935345 -5.362513 0 1.000000 1.000000 1.000000 0.619726 0.751531 -0.226146
7302 1 14.201178 18.417896 -5.251678 0 1.000000 1.000000 1.000000 0.595322 0.772992 -0.219258
7303 1 13.718148 18.624432 -5.779615 0 1.000000 1.000000 1.000000 0.575546 0.780589 -0.243779
7304 1 13.137824 19.075084 -5.657843 0 1.000000 1.000000 1.000000 0.551028 0.800368 -0.236177
7305 1 12.628357 19.256388 -6.178962 0 1.000000 1.000000 1.000000 0.529568 0.807251 -0.260583
7306 1 12.037983 19.672670 -6.045662 0 1.000000 1.000000 1.000000 0.505231 0.825246 -0.252410
7307 1 11.506805 19.825966 -6.557073 0 1.000000 1.000000 1.000000 0.482235 0.831292 -0.276411
7308 1 10.912179 20.206355 -6.411984 0 1.000000 1.000000 1.000000 0.458363 0.847451 -0.267825
7309 1 10.364489 20.329695 -6.911100 0 1.000000 1.000000 1.000000 0.434015 0.852563 -0.291147
7310 1 17.311585 15.545551 -5.206613 0 1.000000 1.000000 1.000000 0.726809 0.651087 -0.218709
7311 1 16.810727 16.113685 -5.119910 0 1.000000 1.000000 1.000000 0.704291 0.676706 -0.214577
7312 1 16.394299 16.357199 -5.667271 0 1.000000 1.000000 1.000000 0.688214 0.685243 -0.238334
7313 1 15.864440 16.903794 -5.570821 0 1.000000 1.000000 1.000000 0.664797 0.709692 -0.233199
7314 1 15.412155 17.131201 -6.117677 0 1.000000 1.000000 1.000000 0.646858 0.717834 -0.257466
7315 1 14.857431 17.651633 -6.010149 0 1.000000 1.000000 1.000000 0.622796 0.740893 -0.251401
7316 1 14.372178 17.858634 -6.553080 0 1.000000 1.000000 1.000000 0.603039 0.748482 -0.275897
7317 1 13.797566 18.348883 -6.433381 0 1.000000 1.000000 1.000000 0.578614 0.769963 -0.269003
7318 1 13.283231 18.531640 -6.969020 0 1.000000 1.000000 1.000000 0.557134 0.776853 -0.293431
7319 1 12.694347 18.988492 -6.836373 0 1.000000 1.000000 1.000000 0.532641 0.796612 -0.285837
7320 1 12.155653 19.143829 -7.361550 0 1.000000 1.000000 1.000000 0.509583 0.802675 -0.309901
7321 1 11.558486 19.565021 -7.215549 0 1.000000 1.000000 1.000000 0.485318 0.820616 -0.301753
7322 1 11.000770 19.690582 -7.727416 0 1.000000 1.000000 1.000000 0.460871 0.825749 -0.325171
7323 1 10.401400 20.074868 -7.568055 0 1.000000 1.000000 1.000000 0.437117 0.841828 -0.316628
7324 1 9.830348 20.169210 -8.064191 0 1.000000 1.000000 1.000000 0.411499 0.845960 -0.339147
7325 1 17.885050 14.611806 -5.921943 0 1.000000 1.000000 1.000000 0.750801 0.612059 -0.248358
7326 1 17.406310 15.209384 -5.843149 0 1.000000 1.000000 1.000000 0.729304 0.638722 -0.245257
7327 1 16.993085 15.448270 -6.404442 0 1.000000 1.000000 1.000000 0.713299 0.647221 -0.268905
7328 1 16.481931 16.027951 -6.315267 0 1.000000 1.000000 1.000000 0.690697 0.672935 -0.264757
7329 1 16.030856 16.252584 -6.876205 0 1.000000 1.000000 1.000000 0.672814 0.681051 -0.288948
7330 1 15.490938 16.809237 -6.775065 0 1.000000 1.000000 1.000000 0.649333 0.705567 -0.283799
7331 1 15.004566 17.015100 -7.331971 0 1.000000 1.000000 1.000000 0.629607 0.713144 -0.308255
7332 1 14.440529 17.544065 -7.217514 0 1.000000 1.000000 1.000000 0.605510 0.736236 -0.302181
7333 1 13.922521 17.727005 -7.766737 0 1.000000 1.000000 1.000000 0.584030 0.743126 -0.326608
7334 1 13.339834 18.224332 -7.637942 0 1.000000 1.000000 1.000000 0.559606 0.764607 -0.319715
7335 1 12.794825 18.380795 -8.176017 0 1.000000 1.000000 1.000000 0.536514 0.770678 -0.343814
7336 1 12.199528 18.843440 -8.032271 0 1.000000 1.000000 1.000000 0.512060 0.790406 -0.336233
7337 1 11.632912 18.970663 -8.556070 0 1.000000 1.000000 1.000000 0.487545 0.795553 -0.359714
7338 1 11.031322 19.396613 -8.397215 0 1.000000 1.000000 1.000000 0.463357 0.813438 -0.351594
7339 1 10.448982 19.492748 -8.904067 0 1.000000 1.000000 1.000000 0.437643 0.817585 -0.374196
7340 1 9.847379 19.881060 -8.730403 0 1.000000 1.000000 1.000000 0.413998 0.833591 -0.365693
7341 1 9.255387 19.945231 -9.218181 0 1.000000 1.000000 1.000000 0.387335 0.836693 -0.387190
7342 1 18.412436 13.618423 -6.630227 0 1.000000 1.000000 1.000000 0.772844 0.570579 -0.277762
7343 1 17.959814 14.241415 -6.562118 0 1.000000 1.000000 1.000000 0.752568 0.598017 -0.275713
7344 1 17.550322 14.473567 -7.135781 0 1.000000 1.000000 1.000000 0.736622 0.606485 -0.299273
7345 1 17.062333 15.082845 -7.056899 0 1.000000 1.000000 1.000000 0.715060 0.633228 -0.296162
7346 1 16.613304 15.302758 -7.630441 0 1.000000 1.000000 1.000000 0.697227 0.641321 -0.320283
7347 1 16.092982 15.892816 -7.538921 0 1.000000 1.000000 1.000000 0.674569 0.667099 -0.316125
7348 1 15.606575 16.095840 -8.108425 0 1.000000 1.000000 1.000000 0.654878 0.674662 -0.340537
7349 1 15.058077 16.661471 -8.002615 0 1.000000 1.000000 1.000000 0.631359 0.699218 -0.335379
7350 1 14.537649 16.843209 -8.564149 0 1.000000 1.000000 1.000000 0.609893 0.706103 -0.359791
7351 1 13.966129 17.379779 -8.442728 0 1.000000 1.000000 1.000000 0.585782 0.729209 -0.353714
7352 1 13.416136 17.536342 -8.992529 0 1.000000 1.000000 1.000000 0.562678 0.735284 -0.377825
7353 1 12.827518 18.040032 -8.854612 0 1.000000 1.000000 1.000000 0.538268 0.756752 -0.370937
7354 1 12.253324 18.168263 -9.389253 0 1.000000 1.000000 1.000000 0.513713 0.761907 -0.394457
7355 1 11.654014 18.636249 -9.234456 0 1.000000 1.000000 1.000000 0.489304 0.781600 -0.386890
7356 1 11.061619 18.733889 -9.750997 0 1.000000 1.000000 1.000000 0.463526 0.785757 -0.409548
7357 1 10.458177 19.164438 -9.579462 0 1.000000 1.000000 1.000000 0.439408 0.803590 -0.401452
7358 1 9.853905 19.230215 -10.075551 0 1.000000 1.000000 1.000000 0.412664 0.806702 -0.423013
7359 1 9.252718 19.622696 -9.887933 0 1.000000 1.000000 1.000000 0.389106 0.822649 -0.414543
7360 1 8.642894 19.656332 -10.361860 0 1.000000 1.000000 1.000000 0.361667 0.824700 -0.434817
7361 1 18.886882 12.572735 -7.324341 0 1.000000 1.000000 1.000000 0.792651 0.526955 -0.306633
7362 1 18.463779 13.216225 -7.269548 0 1.000000 1.000000 1.000000 0.773770 0.554862 -0.305627
7363 1 18.058378 13.439638 -7.853662 0 1.000000 1.000000 1.000000 0.757862 0.563310 -0.329129
7364 1 17.597543 14.073988 -7.788004 0 1.000000 1.000000 1.000000 0.737546 0.590802 -0.327076
7365 1 17.151278 14.287271 -8.372310 0 1.000000 1.000000 1.000000 0.719752 0.598878 -0.351143
7366 1 16.655029 14.906763 -8.293629 0 1.000000 1.000000 1.000000 0.698150 0.625671 -0.348027
7367 1 16.169620 15.105227 -8.873996 0 1.000000 1.000000 1.000000 0.678490 0.633222 -0.372398
7368 1 15.641489 15.704247 -8.780312 0 1.000000 1.000000 1.000000 0.655800 0.659037 -0.368234
7369 1 15.119920 15.883338 -9.352544 0 1.000000 1.000000 1.000000 0.634351 0.665917 -0.392624
7370 1 14.564578 16.456670 -9.242192 0 1.000000 1.000000 1.000000 0.610814 0.690492 -0.387463
7371 1 14.011041 16.612229 -9.802232 0 1.000000 1.000000 1.000000 0.587709 0.696566 -0.411574
7372 1 13.434120 17.155332 -9.673989 0 1.000000 1.000000 1.000000 0.563599 0.719672 -0.405497
7373 1 12.853851 17.283846 -10.218106 0 1.000000 1.000000 1.000000 0.539025 0.724831 -0.429036
7374 1 12.261673 17.793088 -10.071286 0 1.000000 1.000000 1.000000 0.514636 0.746281 -0.422154
7375 1 11.660696 17.891895 -10.596251 0 1.000000 1.000000 1.000000 0.488822 0.750444 -0.444845
7376 1 11.059952 18.364710 -10.430758 0 1.000000 1.000000 1.000000 0.464452 0.770105 -0.437291
7377 1 10.444764 18.432125 -10.933971 0 1.000000 1.000000 1.000000 0.437658 0.773222 -0.458893
7378 1 9.842158 18.867080 -10.750297 0 1.000000 1.000000 1.000000 0.413592 0.791016 -0.450815
7379 1 9.219381 18.902439 -11.229859 0 1.000000 1.000000 1.000000 0.386100 0.793072 -0.471130
7380 1 8.621303 19.299209 -11.029039 0 1.000000 1.000000 1.000000 0.362598 0.808980 -0.462680
7381 1 7.997359 19.302830 -11.483768 0 1.000000 1.000000 1.000000 0.334689 0.809990 -0.481559
7382 1 19.302830 11.483768 -7.997359 0 1.000000 1.000000 1.000000 0.809990 0.481559 -0.334689
7383 1 18.911863 12.142138 -7.958217 0 1.000000 1.000000 1.000000 0.792643 0.509610 -0.334686
7384 1 18.510750 12.355009 -8.550551 0 1.000000 1.000000 1.000000 0.776748 0.518052 -0.358168
7385 1 18.080369 13.009020 -8.500789 0 1.000000 1.000000 1.000000 0.757855 0.545978 -0.357161
7386 1 17.637454 13.213891 -9.093692 0 1.000000 1.000000 1.000000 0.740081 0.554046 -0.381199
7387 1 17.169199 13.857792 -9.030872 0 1.000000 1.000000 1.000000 0.719745 0.581564 -0.379144
7388 1 16.685743 14.050039 -9.620034 0 1.000000 1.000000 1.000000 0.700107 0.589108 -0.403487
7389 1 16.182413 14.677983 -9.541839 0 1.000000 1.000000 1.000000 0.678483 0.615927 -0.400367
7390 1 15.660977 14.852988 -10.122833 0 1.000000 1.000000 1.000000 0.657051 0.622801 -0.424738
7391 1 15.126615 15.459324 -10.027223 0 1.000000 1.000000 1.000000 0.634344 0.648635 -0.420571
7392 1 14.571047 15.612742 -10.595714 0 1.000000 1.000000 1.000000 0.611246 0.654708 -0.444675
7393 1 14.010816 16.192316 -10.481075 0 1.000000 1.000000 1.000000 0.587703 0.679289 -0.439513
7394 1 13.426129 16.320340 -11.033034 0 1.000000 1.000000 1.000000 0.563122 0.684450 -0.463057
7395 1 12.846086 16.868768 -10.898307 0 1.000000 1.000000 1.000000 0.539019 0.707549 -0.456982
7396 1 12.238228 16.968363 -11.430207 0 1.000000 1.000000 1.000000 0.513186 0.711715 -0.479689
7397 1 11.645016 17.482248 -11.274970 0 1.000000 1.000000 1.000000 0.488817 0.733148 -0.472814
7398 1 11.020559 17.551315 -11.783942 0 1.000000 1.000000 1.000000 0.461997 0.736268 -0.494437
7399 1 10.421051 18.028376 -11.608435 0 1.000000 1.000000 1.000000 0.437654 0.755906 -0.486893
7400 1 9.786835 18.065840 -12.092361 0 1.000000 1.000000 1.000000 0.410134 0.757964 -0.507228
7401 1 9.187771 18.504947 -11.897459 0 1.000000 1.000000 1.000000 0.386096 0.775738 -0.499160
7402 1 8.550551 18.510750 -12.355009 0 1.000000 1.000000 1.000000 0.358168 0.776748 -0.518052
7403 1 7.958217 18.911863 -12.142138 0 1.000000 1.000000 1.000000 0.334686 0.792643 -0.509610
7404 1 7.324341 18.886882 -12.572735 0 1.000000 1.000000 1.000000 0.306633 0.792651 -0.526955
7405 1 19.656332 10.361860 -8.642894 0 1.000000 1.000000 1.000000 0.824700 0.434817 -0.361667
7406 1 19.299209 11.029039 -8.621303 0 1.000000 1.000000 1.000000 0.808980 0.462680 -0.362598
7407 1 18.902439 11.229859 -9.219381 0 1.000000 1.000000 1.000000 0.793072 0.471130 -0.386100
7408 1 18.504947 11.897459 -9.187771 0 1.000000 1.000000 1.000000 0.775738 0.499160 -0.386096
7409 1 18.065840 12.092361 -9.786835 0 1.000000 1.000000 1.000000 0.757964 0.507228 -0.410134
7410 1 17.628729 12.754783 -9.742518 0 1.000000 1.000000 1.000000 0.739071 0.535154 -0.409126
7411 1 17.148088 12.939302 -10.338129 0 1.000000 1.000000 1.000000 0.719441 0.542695 -0.433460
7412 1 16.673357 13.590657 -10.278465 0 1.000000 1.000000 1.000000 0.699097 0.570223 -0.431403
7413 1 16.153290 13.760216 -10.866004 0 1.000000 1.000000 1.000000 0.677675 0.577095 -0.455761
7414 1 15.644239 14.394602 -10.788568 0 1.000000 1.000000 1.000000 0.656042 0.603925 -0.452640
7415 1 15.088188 14.544764 -11.363457 0 1.000000 1.000000 1.000000 0.632950 0.609997 -0.476736
7416 1 14.549359 15.156568 -11.266214 0 1.000000 1.000000 1.000000 0.610238 0.635837 -0.472569
7417 1 13.962027 15.283313 -11.824141 0 1.000000 1.000000 1.000000 0.585657 0.640998 -0.496112
7418 1 13.399029 15.867511 -11.705600 0 1.000000 1.000000 1.000000 0.562114 0.665579 -0.490951
7419 1 12.786183 15.967482 -12.242745 0 1.000000 1.000000 1.000000 0.536274 0.669746 -0.513664
7420 1 12.205426 16.519905 -12.102078 0 1.000000 1.000000 1.000000 0.512178 0.692838 -0.507591
7421 1 11.573609 16.590614 -12.615287 0 1.000000 1.000000 1.000000 0.485347 0.695960 -0.529224
7422 1 10.981954 17.108138 -12.452387 0 1.000000 1.000000 1.000000 0.460989 0.717382 -0.522352
7423 1 10.338129 17.148088 -12.939302 0 1.000000 1.000000 1.000000 0.433460 0.719441 -0.542695
7424 1 9.742518 17.628729 -12.754783 0 1.000000 1.000000 1.000000 0.409126 0.739071 -0.535154
7425 1 9.093692 17.637454 -13.213891 0 1.000000 1.000000 1.000000 0.381199 0.740081 -0.554046
7426 1 8.500789 18.080369 -13.009020 0 1.000000 1.000000 1.000000 0.357161 0.757855 -0.545978
7427 1 7.853662 18.058378 -13.439638 0 1.000000 1.000000 1.000000 0.329129 0.757862 -0.563310
7428 1 7.269548 18.463779 -13.216225 0 1.000000 1.000000 1.000000 0.305627 0.773770 -0.554862
7429 1 6.630227 18.412436 -13.618423 0 1.000000 1.000000 1.000000 0.277762 0.772844 -0.570579
7430 1 19.945231 9.218181 -9.255387 0 1.000000 1.000000 1.000000 0.836693 0.387190 -0.387335
7431 1 19.622696 9.887933 -9.252718 0 1.000000 1.000000 1.000000 0.822649 0.414543 -0.389106
7432 1 19.230215 10.075551 -9.853905 0 1.000000 1.000000 1.000000 0.806702 0.423013 -0.412664
7433 1 18.867080 10.750297 -9.842158 0 1.000000 1.000000 1.000000 0.791016 0.450815 -0.413592
7434 1 18.432125 10.933971 -10.444764 0 1.000000 1.000000 1.000000 0.773222 0.458893 -0.437658
7435 1 18.028376 11.608435 -10.421051 0 1.000000 1.000000 1.000000 0.755906 0.486893 -0.437654
7436 1 17.551315 11.783942 -11.020559 0 1.000000 1.000000 1.000000 0.736268 0.494437 -0.461997
7437 1 17.108138 12.452387 -10.981954 0 1.000000 1.000000 1.000000 0.717382 0.522352 -0.460989
7438 1 16.590614 12.615287 -11.573609 0 1.000000 1.000000 1.000000 0.695960 0.529224 -0.485347
7439 1 16.110497 13.271760 -11.517324 0 1.000000 1.000000 1.000000 0.675617 0.556752 -0.483290
7440 1 15.555507 13.417629 -12.096347 0 1.000000 1.000000 1.000000 0.652528 0.562823 -0.507383
7441 1 15.042250 14.056247 -12.019917 0 1.000000 1.000000 1.000000 0.630893 0.589657 -0.504261
7442 1 14.454114 14.180941 -12.581748 0 1.000000 1.000000 1.000000 0.606313 0.594818 -0.527803
7443 1 13.912721 14.796203 -12.483216 0 1.000000 1.000000 1.000000 0.583599 0.620659 -0.523636
7444 1 13.296929 14.896121 -13.023753 0 1.000000 1.000000 1.000000 0.557758 0.624826 -0.546350
7445 1 12.733390 15.483201 -12.901823 0 1.000000 1.000000 1.000000 0.534216 0.649406 -0.541188
7446 1 12.096347 15.555507 -13.417629 0 1.000000 1.000000 1.000000 0.507383 0.652528 -0.562823
7447 1 11.517324 16.110497 -13.271760 0 1.000000 1.000000 1.000000 0.483290 0.675617 -0.556752
7448 1 10.866004 16.153290 -13.760216 0 1.000000 1.000000 1.000000 0.455761 0.677675 -0.577095
7449 1 10.278465 16.673357 -13.590657 0 1.000000 1.000000 1.000000 0.431403 0.699097 -0.570223
7450 1 9.620034 16.685743 -14.050039 0 1.000000 1.000000 1.000000 0.403487 0.700107 -0.589108
7451 1 9.030872 17.169199 -13.857792 0 1.000000 1.000000 1.000000 0.379144 0.719745 -0.581564
7452 1 8.372310 17.151278 -14.287271 0 1.000000 1.000000 1.000000 0.351143 0.719752 -0.598878
7453 1 7.788004 17.597543 -14.073988 0 1.000000 1.000000 1.000000 0.327076 0.737546 -0.590802
7454 1 7.135781 17.550322 -14.473567 0 1.000000 1.000000 1.000000 0.299273 0.736622 -0.606485
7455 1 6.562118 17.959814 -14.241415 0 1.000000 1.000000 1.000000 0.275713 0.752568 -0.598017
7456 1 5.921943 17.885050 -14.611806 0 1.000000 1.000000 1.000000 0.248358 0.750801 -0.612059
7457 1 20.169210 8.064191 -9.830348 0 1.000000 1.000000 1.000000 0.845960 0.339147 -0.411499
7458 1 19.881060 8.730403 -9.847379 0 1.000000 1.000000 1.000000 0.833591 0.365693 -0.413998
7459 1 19.492748 8.904067 -10.448982 0 1.000000 1.000000 1.000000 0.817585 0.374196 -0.437643
7460 1 19.164438 9.579462 -10.458177 0 1.000000 1.000000 1.000000 0.803590 0.401452 -0.439408
7461 1 18.733889 9.750997 -11.061619 0 1.000000 1.000000 1.000000 0.785757 0.409548 -0.463526
7462 1 18.364710 10.430758 -11.059952 0 1.000000 1.000000 1.000000 0.770105 0.437291 -0.464452
7463 1 17.891895 10.596251 -11.660696 0 1.000000 1.000000 1.000000 0.750444 0.444845 -0.488822
7464 1 17.482248 11.274970 -11.645016 0 1.000000 1.000000 1.000000 0.733148 0.472814 -0.488817
7465 1 16.968363 11.430207 -12.238228 0 1.000000 1.000000 1.000000 0.711715 0.479689 -0.513186
7466 1 16.519905 12.102078 -12.205426 0 1.000000 1.000000 1.000000 0.692838 0.507591 -0.512178
7467 1 15.967482 12.242745 -12.786183 0 1.000000 1.000000 1.000000 0.669746 0.513664 -0.536274
7468 1 15.483201 12.901823 -12.733390 0 1.000000 1.000000 1.000000 0.649406 0.541188 -0.534216
7469 1 14.896121 13.023753 -13.296929 0 1.000000 1.000000 1.000000 0.624826 0.546350 -0.557758
7470 1 14.380292 13.664254 -13.221718 0 1.000000 1.000000 1.000000 0.603192 0.573183 -0.554636
7471 1 13.763686 13.763686 -13.763686 0 1.000000 1.000000 1.000000 0.577350 0.577350 -0.577350
7472 1 13.221718 14.380292 -13.664254 0 1.000000 1.000000 1.000000 0.554636 0.603192 -0.573183
7473 1 12.581748 14.454114 -14.180941 0 1.000000 1.000000 1.000000 0.527803 0.606313 -0.594818
7474 1 12.019917 15.042250 -14.056247 0 1.000000 1.000000 1.000000 0.504261 0.630893 -0.589657
7475 1 11.363457 15.088188 -14.544764 0 1.000000 1.000000 1.000000 0.476736 0.632950 -0.609997
7476 1 10.788568 15.644239 -14.394602 0 1.000000 1.000000 1.000000 0.452640 0.656042 -0.603925
7477 1 10.122833 15.660977 -14.852988 0 1.000000 1.000000 1.000000 0.424738 0.657051 -0.622801
7478 1 9.541839 16.182413 -14.677983 0 1.000000 1.000000 1.000000 0.400367 0.678483 -0.615927
7479 1 8.873996 16.169620 -15.105227 0 1.000000 1.000000 1.000000 0.372398 0.678490 -0.633222
7480 1 8.293629 16.655029 -14.906763 0 1.000000 1.000000 1.000000 0.348027 0.698150 -0.625671
7481 1 7.630441 16.613304 -15.302758 0 1.000000 1.000000 1.000000 0.320283 0.697227 -0.641321
7482 1 7.056899 17.062333 -15.082845 0 1.000000 1.000000 1.000000 0.296162 0.715060 -0.633228
7483 1 6.404442 16.993085 -15.448270 0 1.000000 1.000000 1.000000 0.268905 0.713299 -0.647221
7484 1 5.843149 17.406310 -15.209384 0 1.000000 1.000000 1.000000 0.245257 0.729304 -0.638722
7485 1 5.206613 17.311585 -15.545551 0 1.000000 1.000000 1.000000 0.218709 0.726809 -0.651087
7486 1 20.329695 6.911100 -10.364489 0 1.000000 1.000000 1.000000 0.852563 0.291147 -0.434015
7487 1 20.074868 7.568055 -10.401400 0 1.000000 1.000000 1.000000 0.841828 0.316628 -0.437117
7488 1 19.690582 7.727416 -11.000770 0 1.000000 1.000000 1.000000 0.825749 0.325171 -0.460871
7489 1 19.396613 8.397215 -11.031322 0 1.000000 1.000000 1.000000 0.813438 0.351594 -0.463357
7490 1 18.970663 8.556070 -11.632912 0 1.000000 1.000000 1.000000 0.795553 0.359714 -0.487545
7491 1 18.636249 9.234456 -11.654014 0 1.000000 1.000000 1.000000 0.781600 0.386890 -0.489304
7492 1 18.168263 9.389253 -12.253324 0 1.000000 1.000000 1.000000 0.761907 0.394457 -0.513713
7493 1 17.793088 10.071286 -12.261673 0 1.000000 1.000000 1.000000 0.746281 0.422154 -0.514636
7494 1 17.283846 10.218106 -12.853851 0 1.000000 1.000000 1.000000 0.724831 0.429036 -0.539025
7495 1 16.868768 10.898307 -12.846086 0 1.000000 1.000000 1.000000 0.707549 0.456982 -0.539019
7496 1 16.320340 11.033034 -13.426129 0 1.000000 1.000000 1.000000 0.684450 0.463057 -0.563122
7497 1 15.867511 11.705600 -13.399029 0 1.000000 1.000000 1.000000 0.665579 0.490951 -0.562114
7498 1 15.283313 11.824141 -13.962027 0 1.000000 1.000000 1.000000 0.640998 0.496112 -0.585657
7499 1 14.796203 12.483216 -13.912721 0 1.000000 1.000000 1.000000 0.620659 0.523636 -0.583599
7500 1 14.180941 12.581748 -14.454114 0 1.000000 1.000000 1.000000 0.594818 0.527803 -0.606313
7501 1 13.664254 13.221718 -14.380292 0 1.000000 1.000000 1.000000 0.573183 0.554636 -0.603192
7502 1 13.023753 13.296929 -14.896121 0 1.000000 1.000000 1.000000 0.546350 0.557758 -0.624826
7503 1 12.483216 13.912721 -14.796203 0 1.000000 1.000000 1.000000 0.523636 0.583599 -0.620659
7504 1 11.824141 13.962027 -15.283313 0 1.000000 1.000000 1.000000 0.496112 0.585657 -0.640998
7505 1 11.266214 14.549359 -15.156568 0 1.000000 1.000000 1.000000 0.472569 0.610238 -0.635837
7506 1 10.595714 14.571047 -15.612742 0 1.000000 1.000000 1.000000 0.444675 0.611246 -0.654708
7507 1 10.027223 15.126615 -15.459324 0 1.000000 1.000000 1.000000 0.420571 0.634344 -0.648635
7508 1 9.352544 15.119920 -15.883338 0 1.000000 1.000000 1.000000 0.392624 0.634351 -0.665917
7509 1 8.780312 15.641489 -15.704247 0 1.000000 1.000000 1.000000 0.368234 0.655800 -0.659037
7510 1 8.108425 15.606575 -16.095840 0 1.000000 1.000000 1.000000 0.340537 0.654878 -0.674662
7511 1 7.538921 16.092982 -15.892816 0 1.000000 1.000000 1.000000 0.316125 0.674569 -0.667099
7512 1 6.876205 16.030856 -16.252584 0 1.000000 1.000000 1.000000 0.288948 0.672814 -0.681051
7513 1 6.315267 16.481931 -16.027951 0 1.000000 1.000000 1.000000 0.264757 0.690697 -0.672935
7514 1 5.667271 16.394299 -16.357199 0 1.000000 1.000000 1.000000 0.238334 0.688214 -0.685243
7515 1 5.119910 16.810727 -16.113685 0 1.000000 1.000000 1.000000 0.214577 0.704291 -0.676706
7516 1 4.491220 16.699815 -16.414248 0 1.000000 1.000000 1.000000 0.189094 0.701194 -0.687438
7517 1 20.429642 5.769390 -10.855775 0 1.000000 1.000000 1.000000 0.856631 0.243620 -0.454789
7518 1 20.206355 6.411984 -10.912179 0 1.000000 1.000000 1.000000 0.847451 0.267825 -0.458363
7519 1 19.825966 6.557073 -11.506805 0 1.000000 1.000000 1.000000 0.831292 0.276411 -0.482235
7520 1 19.565021 7.215549 -11.558486 0 1.000000 1.000000 1.000000 0.820616 0.301753 -0.485318
7521 1 19.143829 7.361550 -12.155653 0 1.000000 1.000000 1.000000 0.802675 0.309901 -0.509583
7522 1 18.843440 8.032271 -12.199528 0 1.000000 1.000000 1.000000 0.790406 0.336233 -0.512060
7523 1 18.380795 8.176017 -12.794825 0 1.000000 1.000000 1.000000 0.770678 0.343814 -0.536514
7524 1 18.040032 8.854612 -12.827518 0 1.000000 1.000000 1.000000 0.756752 0.370937 -0.538268
7525 1 17.536342 8.992529 -13.416136 0 1.000000 1.000000 1.000000 0.735284 0.377825 -0.562678
7526 1 17.155332 9.673989 -13.434120 0 1.000000 1.000000 1.000000 0.719672 0.405497 -0.563599
7527 1 16.612229 9.802232 -14.011041 0 1.000000 1.000000 1.000000 0.696566 0.411574 -0.587709
7528 1 16.192316 10.481075 -14.010816 0 1.000000 1.000000 1.000000 0.679289 0.439513 -0.587703
7529 1 15.612742 10.595714 -14.571047 0 1.000000 1.000000 1.000000 0.654708 0.444675 -0.611246
7530 1 15.156568 11.266214 -14.549359 0 1.000000 1.000000 1.000000 0.635837 0.472569 -0.610238
7531 1 14.544764 11.363457 -15.088188 0 1.000000 1.000000 1.000000 0.609997 0.476736 -0.632950
7532 1 14.056247 12.019917 -15.042250 0 1.000000 1.000000 1.000000 0.589657 0.504261 -0.630893
7533 1 13.417629 12.096347 -15.555507 0 1.000000 1.000000 1.000000 0.562823 0.507383 -0.652528
7534 1 12.901823 12.733390 -15.483201 0 1.000000 1.000000 1.000000 0.541188 0.534216 -0.649406
7535 1 12.242745 12.786183 -15.967482 0 1.000000 1.000000 1.000000 0.513664 0.536274 -0.669746
7536 1 11.705600 13.399029 -15.867511 0 1.000000 1.000000 1.000000 0.490951 0.562114 -0.665579
7537 1 11.033034 13.426129 -16.320340 0 1.000000 1.000000 1.000000 0.463057 0.563122 -0.684450
7538 1 10.481075 14.010816 -16.192316 0 1.000000 1.000000 1.000000 0.439513 0.587703 -0.679289
7539 1 9.802232 14.011041 -16.612229 0 1.000000 1.000000 1.000000 0.411574 0.587709 -0.696566
7540 1 9.242192 14.564578 -16.456670 0 1.000000 1.000000 1.000000 0.387463 0.610814 -0.690492
7541 1 8.564149 14.537649 -16.843209 0 1.000000 1.000000 1.000000 0.359791 0.609893 -0.706103
7542 1 8.002615 15.058077 -16.661471 0 1.000000 1.000000 1.000000 0.335379 0.631359 -0.699218
7543 1 7.331971 15.004566 -17.015100 0 1.000000 1.000000 1.000000 0.308255 0.629607 -0.713144
7544 1 6.775065 15.490938 -16.809237 0 1.000000 1.000000 1.000000 0.283799 0.649333 -0.705567
7545 1 6.117677 15.412155 -17.131201 0 1.000000 1.000000 1.000000 0.257466 0.646858 -0.717834
7546 1 5.570821 15.864440 -16.903794 0 1.000000 1.000000 1.000000 0.233199 0.664797 -0.709692
7547 1 4.931625 15.762282 -17.195937 0 1.000000 1.000000 1.000000 0.207855 0.661716 -0.720367
7548 1 4.399386 16.181228 -16.949904 0 1.000000 1.000000 1.000000 0.183980 0.677872 -0.711787
7549 1 3.782316 16.058003 -17.214487 0 1.000000 1.000000 1.000000 0.159774 0.674301 -0.720965
7550 1 20.473242 4.648437 -11.303369 0 1.000000 1.000000 1.000000 0.858341 0.196950 -0.473773
7551 1 20.279167 5.272327 -11.378391 0 1.000000 1.000000 1.000000 0.850609 0.219716 -0.477692
7552 1 19.902584 5.403509 -11.965974 0 1.000000 1.000000 1.000000 0.834373 0.228344 -0.501678
7553 1 19.672670 6.045662 -12.037983 0 1.000000 1.000000 1.000000 0.825246 0.252410 -0.505231
7554 1 19.256388 6.178962 -12.628357 0 1.000000 1.000000 1.000000 0.807251 0.260583 -0.529568
7555 1 18.988492 6.836373 -12.694347 0 1.000000 1.000000 1.000000 0.796612 0.285837 -0.532641
7556 1 18.531640 6.969020 -13.283231 0 1.000000 1.000000 1.000000 0.776853 0.293431 -0.557134
7557 1 18.224332 7.637942 -13.339834 0 1.000000 1.000000 1.000000 0.764607 0.319715 -0.559606
7558 1 17.727005 7.766737 -13.922521 0 1.000000 1.000000 1.000000 0.743126 0.326608 -0.584030
7559 1 17.379779 8.442728 -13.966129 0 1.000000 1.000000 1.000000 0.729209 0.353714 -0.585782
7560 1 16.843209 8.564149 -14.537649 0 1.000000 1.000000 1.000000 0.706103 0.359791 -0.609893
7561 1 16.456670 9.242192 -14.564578 0 1.000000 1.000000 1.000000 0.690492 0.387463 -0.610814
7562 1 15.883338 9.352544 -15.119920 0 1.000000 1.000000 1.000000 0.665917 0.392624 -0.634351
7563 1 15.459324 10.027223 -15.126615 0 1.000000 1.000000 1.000000 0.648635 0.420571 -0.634344
7564 1 14.852988 10.122833 -15.660977 0 1.000000 1.000000 1.000000 0.622801 0.424738 -0.657051
7565 1 14.394602 10.788568 -15.644239 0 1.000000 1.000000 1.000000 0.603925 0.452640 -0.656042
7566 1 13.760216 10.866004 -16.153290 0 1.000000 1.000000 1.000000 0.577095 0.455761 -0.677675
7567 1 13.271760 11.517324 -16.110497 0 1.000000 1.000000 1.000000 0.556752 0.483290 -0.675617
7568 1 12.615287 11.573609 -16.590614 0 1.000000 1.000000 1.000000 0.529224 0.485347 -0.695960
7569 1 12.102078 12.205426 -16.519905 0 1.000000 1.000000 1.000000 0.507591 0.512178 -0.692838
7570 1 11.430207 12.238228 -16.968363 0 1.000000 1.000000 1.000000 0.479689 0.513186 -0.711715
7571 1 10.898307 12.846086 -16.868768 0 1.000000 1.000000 1.000000 0.456982 0.539019 -0.707549
7572 1 10.218106 12.853851 -17.283846 0 1.000000 1.000000 1.000000 0.429036 0.539025 -0.724831
7573 1 9.673989 13.434120 -17.155332 0 1.000000 1.000000 1.000000 0.405497 0.563599 -0.719672
7574 1 8.992529 13.416136 -17.536342 0 1.000000 1.000000 1.000000 0.377825 0.562678 -0.735284
7575 1 8.442728 13.966129 -17.379779 0 1.000000 1.000000 1.000000 0.353714 0.585782 -0.729209
7576 1 7.766737 13.922521 -17.727005 0 1.000000 1.000000 1.000000 0.326608 0.584030 -0.743126
7577 1 7.217514 14.440529 -17.544065 0 1.000000 1.000000 1.000000 0.302181 0.605510 -0.736236
7578 1 6.553080 14.372178 -17.858634 0 1.000000 1.000000 1.000000 0.275897 0.603039 -0.748482
7579 1 6.010149 14.857431 -17.651633 0 1.000000 1.000000 1.000000 0.251401 0.622796 -0.740893
7580 1 5.362513 14.765849 -17.935345 0 1.000000 1.000000 1.000000 0.226146 0.619726 -0.751531
7581 1 4.830845 15.218414 -17.707056 0 1.000000 1.000000 1.000000 0.201804 0.637718 -0.743364
7582 1 4.204281 15.105594 -17.962192 0 1.000000 1.000000 1.000000 0.177738 0.634167 -0.752490
7583 1 3.687990 15.526237 -17.715657 0 1.000000 1.000000 1.000000 0.153748 0.650400 -0.743869
7584 1 3.085769 15.394486 -17.944793 0 1.000000 1.000000 1.000000 0.130981 0.646484 -0.751600
7585 1 20.465585 3.556247 -11.707519 0 1.000000 1.000000 1.000000 0.857910 0.151466 -0.490967
7586 1 20.298022 4.157938 -11.799888 0 1.000000 1.000000 1.000000 0.851497 0.172683 -0.495109
7587 1 19.925213 4.275849 -12.378402 0 1.000000 1.000000 1.000000 0.835195 0.181348 -0.519194
7588 1 19.723851 4.897530 -12.469465 0 1.000000 1.000000 1.000000 0.827504 0.203990 -0.523091
7589 1 19.312634 5.018563 -13.050941 0 1.000000 1.000000 1.000000 0.809467 0.212183 -0.547486
7590 1 19.075084 5.657843 -13.137824 0 1.000000 1.000000 1.000000 0.800368 0.236177 -0.551028
7591 1 18.624432 5.779615 -13.718148 0 1.000000 1.000000 1.000000 0.780589 0.243779 -0.575546
7592 1 18.348883 6.433381 -13.797566 0 1.000000 1.000000 1.000000 0.769963 0.269003 -0.578614
7593 1 17.858634 6.553080 -14.372178 0 1.000000 1.000000 1.000000 0.748482 0.275897 -0.603039
7594 1 17.544065 7.217514 -14.440529 0 1.000000 1.000000 1.000000 0.736236 0.302181 -0.605510
7595 1 17.015100 7.331971 -15.004566 0 1.000000 1.000000 1.000000 0.713144 0.308255 -0.629607
7596 1 16.661471 8.002615 -15.058077 0 1.000000 1.000000 1.000000 0.699218 0.335379 -0.631359
7597 1 16.095840 8.108425 -15.606575 0 1.000000 1.000000 1.000000 0.674662 0.340537 -0.654878
7598 1 15.704247 8.780312 -15.641489 0 1.000000 1.000000 1.000000 0.659037 0.368234 -0.655800
7599 1 15.105227 8.873996 -16.169620 0 1.000000 1.000000 1.000000 0.633222 0.372398 -0.678490
7600 1 14.677983 9.541839 -16.182413 0 1.000000 1.000000 1.000000 0.615927 0.400367 -0.678483
7601 1 14.050039 9.620034 -16.685743 0 1.000000 1.000000 1.000000 0.589108 0.403487 -0.700107
7602 1 13.590657 10.278465 -16.673357 0 1.000000 1.000000 1.000000 0.570223 0.431403 -0.699097
7603 1 12.939302 10.338129 -17.148088 0 1.000000 1.000000 1.000000 0.542695 0.433460 -0.719441
7604 1 12.452387 10.981954 -17.108138 0 1.000000 1.000000 1.000000 0.522352 0.460989 -0.717382
7605 1 11.783942 11.020559 -17.551315 0 1.000000 1.000000 1.000000 0.494437 0.461997 -0.736268
7606 1 11.274970 11.645016 -17.482248 0 1.000000 1.000000 1.000000 0.472814 0.488817 -0.733148
7607 1 10.596251 11.660696 -17.891895 0 1.000000 1.000000 1.000000 0.444845 0.488822 -0.750444
7608 1 10.071286 12.261673 -17.793088 0 1.000000 1.000000 1.000000 0.422154 0.514636 -0.746281
7609 1 9.389253 12.253324 -18.168263 0 1.000000 1.000000 1.000000 0.394457 0.513713 -0.761907
7610 1 8.854612 12.827518 -18.040032 0 1.000000 1.000000 1.000000 0.370937 0.538268 -0.756752
7611 1 8.176017 12.794825 -18.380795 0 1.000000 1.000000 1.000000 0.343814 0.536514 -0.770678
7612 1 7.637942 13.339834 -18.224332 0 1.000000 1.000000 1.000000 0.319715 0.559606 -0.764607
7613 1 6.969020 13.283231 -18.531640 0 1.000000 1.000000 1.000000 0.293431 0.557134 -0.776853
7614 1 6.433381 13.797566 -18.348883 0 1.000000 1.000000 1.000000 0.269003 0.578614 -0.769963
7615 1 5.779615 13.718148 -18.624432 0 1.000000 1.000000 1.000000 0.243779 0.575546 -0.780589
7616 1 5.251678 14.201178 -18.417896 0 1.000000 1.000000 1.000000 0.219258 0.595322 -0.772992
7617 1 4.617641 14.100568 -18.663929 0 1.000000 1.000000 1.000000 0.195263 0.591781 -0.782091
7618 1 4.101912 14.552419 -18.436515 0 1.000000 1.000000 1.000000 0.170864 0.609816 -0.773906
7619 1 3.491206 14.432624 -18.655634 0 1.000000 1.000000 1.000000 0.148221 0.605921 -0.781595
7620 1 2.991353 14.854048 -18.410448 0 1.000000 1.000000 1.000000 0.124131 0.622220 -0.772938
7621 1 2.406611 14.717307 -18.605434 0 1.000000 1.000000 1.000000 0.102913 0.618080 -0.779350
7622 1 20.412309 2.499330 -12.069387 0 1.000000 1.000000 1.000000 0.855575 0.107435 -0.506408
7623 1 20.268368 3.076190 -12.177544 0 1.000000 1.000000 1.000000 0.850343 0.127041 -0.510664
7624 1 19.899363 3.181665 -12.745268 0 1.000000 1.000000 1.000000 0.833991 0.135732 -0.534823
7625 1 19.723771 3.779632 -12.853757 0 1.000000 1.000000 1.000000 0.827607 0.156856 -0.538946
7626 1 19.317790 3.889049 -13.424535 0 1.000000 1.000000 1.000000 0.809546 0.165060 -0.563374
7627 1 19.108015 4.506299 -13.530656 0 1.000000 1.000000 1.000000 0.801870 0.187661 -0.567263
7628 1 18.663929 4.617641 -14.100568 0 1.000000 1.000000 1.000000 0.782091 0.195263 -0.591781
7629 1 18.417896 5.251678 -14.201178 0 1.000000 1.000000 1.000000 0.772992 0.219258 -0.595322
7630 1 17.935345 5.362513 -14.765849 0 1.000000 1.000000 1.000000 0.751531 0.226146 -0.619726
7631 1 17.651633 6.010149 -14.857431 0 1.000000 1.000000 1.000000 0.740893 0.251401 -0.622796
7632 1 17.131201 6.117677 -15.412155 0 1.000000 1.000000 1.000000 0.717834 0.257466 -0.646858
7633 1 16.809237 6.775065 -15.490938 0 1.000000 1.000000 1.000000 0.705567 0.283799 -0.649333
7634 1 16.252584 6.876205 -16.030856 0 1.000000 1.000000 1.000000 0.681051 0.288948 -0.672814
7635 1 15.892816 7.538921 -16.092982 0 1.000000 1.000000 1.000000 0.667099 0.316125 -0.674569
7636 1 15.302758 7.630441 -16.613304 0 1.000000 1.000000 1.000000 0.641321 0.320283 -0.697227
7637 1 14.906763 8.293629 -16.655029 0 1.000000 1.000000 1.000000 0.625671 0.348027 -0.698150
7638 1 14.287271 8.372310 -17.151278 0 1.000000 1.000000 1.000000 0.598878 0.351143 -0.719752
7639 1 13.857792 9.030872 -17.169199 0 1.000000 1.000000 1.000000 0.581564 0.379144 -0.719745
7640 1 13.213891 9.093692 -17.637454 0 1.000000 1.000000 1.000000 0.554046 0.381199 -0.740081
7641 1 12.754783 9.742518 -17.628729 0 1.000000 1.000000 1.000000 0.535154 0.409126 -0.739071
7642 1 12.092361 9.786835 -18.065840 0 1.000000 1.000000 1.000000 0.507228 0.410134 -0.757964
7643 1 11.608435 10.421051 -18.028376 0 1.000000 1.000000 1.000000 0.486893 0.437654 -0.755906
7644 1 10.933971 10.444764 -18.432125 0 1.000000 1.000000 1.000000 0.458893 0.437658 -0.773222
7645 1 10.430758 11.059952 -18.364710 0 1.000000 1.000000 1.000000 0.437291 0.464452 -0.770105
7646 1 9.750997 11.061619 -18.733889 0 1.000000 1.000000 1.000000 0.409548 0.463526 -0.785757
7647 1 9.234456 11.654014 -18.636249 0 1.000000 1.000000 1.000000 0.386890 0.489304 -0.781600
7648 1 8.556070 11.632912 -18.970663 0 1.000000 1.000000 1.000000 0.359714 0.487545 -0.795553
7649 1 8.032271 12.199528 -18.843440 0 1.000000 1.000000 1.000000 0.336233 0.512060 -0.790406
7650 1 7.361550 12.155653 -19.143829 0 1.000000 1.000000 1.000000 0.309901 0.509583 -0.802675
7651 1 6.836373 12.694347 -18.988492 0 1.000000 1.000000 1.000000 0.285837 0.532641 -0.796612
7652 1 6.178962 12.628357 -19.256388 0 1.000000 1.000000 1.000000 0.260583 0.529568 -0.807251
7653 1 5.657843 13.137824 -19.075084 0 1.000000 1.000000 1.000000 0.236177 0.551028 -0.800368
7654 1 5.018563 13.050941 -19.312634 0 1.000000 1.000000 1.000000 0.212183 0.547486 -0.809467
7655 1 4.506299 13.530656 -19.108015 0 1.000000 1.000000 1.000000 0.187661 0.567263 -0.801870
7656 1 3.889049 13.424535 -19.317790 0 1.000000 1.000000 1.000000 0.165060 0.563374 -0.809546
7657 1 3.389685 13.874652 -19.092823 0 1.000000 1.000000 1.000000 0.140627 0.581433 -0.801349
7658 1 2.797414 13.751250 -19.277632 0 1.000000 1.000000 1.000000 0.119504 0.577310 -0.807733
7659 1 2.314192 14.172481 -19.035429 0 1.000000 1.000000 1.000000 0.095340 0.593659 -0.799049
7660 1 1.748944 14.033924 -19.198158 0 1.000000 1.000000 1.000000 0.075733 0.589404 -0.804281
7661 1 20.319294 1.482677 -12.390854 0 1.000000 1.000000 1.000000 0.851585 0.065062 -0.520164
7662 1 20.196041 2.032898 -12.513059 0 1.000000 1.000000 1.000000 0.847390 0.083038 -0.524438
7663 1 19.830928 2.126904 -13.068592 0 1.000000 1.000000 1.000000 0.831012 0.091744 -0.548637
7664 1 19.678191 2.698810 -13.192644 0 1.000000 1.000000 1.000000 0.825794 0.111299 -0.552881
7665 1 19.277632 2.797414 -13.751250 0 1.000000 1.000000 1.000000 0.807733 0.119504 -0.577310
7666 1 19.092823 3.389685 -13.874652 0 1.000000 1.000000 1.000000 0.801349 0.140627 -0.581433
7667 1 18.655634 3.491206 -14.432624 0 1.000000 1.000000 1.000000 0.781595 0.148221 -0.605921
7668 1 18.436515 4.101912 -14.552419 0 1.000000 1.000000 1.000000 0.773906 0.170864 -0.609816
7669 1 17.962192 4.204281 -15.105594 0 1.000000 1.000000 1.000000 0.752490 0.177738 -0.634167
7670 1 17.707056 4.830845 -15.218414 0 1.000000 1.000000 1.000000 0.743364 0.201804 -0.637718
7671 1 17.195937 4.931625 -15.762282 0 1.000000 1.000000 1.000000 0.720367 0.207855 -0.661716
7672 1 16.903794 5.570821 -15.864440 0 1.000000 1.000000 1.000000 0.709692 0.233199 -0.664797
7673 1 16.357199 5.667271 -16.394299 0 1.000000 1.000000 1.000000 0.685243 0.238334 -0.688214
7674 1 16.027951 6.315267 -16.481931 0 1.000000 1.000000 1.000000 0.672935 0.264757 -0.690697
7675 1 15.448270 6.404442 -16.993085 0 1.000000 1.000000 1.000000 0.647221 0.268905 -0.713299
7676 1 15.082845 7.056899 -17.062333 0 1.000000 1.000000 1.000000 0.633228 0.296162 -0.715060
7677 1 14.473567 7.135781 -17.550322 0 1.000000 1.000000 1.000000 0.606485 0.299273 -0.736622
7678 1 14.073988 7.788004 -17.597543 0 1.000000 1.000000 1.000000 0.590802 0.327076 -0.737546
7679 1 13.439638 7.853662 -18.058378 0 1.000000 1.000000 1.000000 0.563310 0.329129 -0.757862
7680 1 13.009020 8.500789 -18.080369 0 1.000000 1.000000 1.000000 0.545978 0.357161 -0.757855
7681 1 12.355009 8.550551 -18.510750 0 1.000000 1.000000 1.000000 0.518052 0.358168 -0.776748
7682 1 11.897459 9.187771 -18.504947 0 1.000000 1.000000 1.000000 0.499160 0.386096 -0.775738
7683 1 11.229859 9.219381 -18.902439 0 1.000000 1.000000 1.000000 0.471130 0.386100 -0.793072
7684 1 10.750297 9.842158 -18.867080 0 1.000000 1.000000 1.000000 0.450815 0.413592 -0.791016
7685 1 10.075551 9.853905 -19.230215 0 1.000000 1.000000 1.000000 0.423013 0.412664 -0.806702
7686 1 9.579462 10.458177 -19.164438 0 1.000000 1.000000 1.000000 0.401452 0.439408 -0.803590
7687 1 8.904067 10.448982 -19.492748 0 1.000000 1.000000 1.000000 0.374196 0.437643 -0.817585
7688 1 8.397215 11.031322 -19.396613 0 1.000000 1.000000 1.000000 0.351594 0.463357 -0.813438
7689 1 7.727416 11.000770 -19.690582 0 1.000000 1.000000 1.000000 0.325171 0.460871 -0.825749
7690 1 7.215549 11.558486 -19.565021 0 1.000000 1.000000 1.000000 0.301753 0.485318 -0.820616
7691 1 6.557073 11.506805 -19.825966 0 1.000000 1.000000 1.000000 0.276411 0.482235 -0.831292
7692 1 6.045662 12.037983 -19.672670 0 1.000000 1.000000 1.000000 0.252410 0.505231 -0.825246
7693 1 5.403509 11.965974 -19.902584 0 1.000000 1.000000 1.000000 0.228344 0.501678 -0.834373
7694 1 4.897530 12.469465 -19.723851 0 1.000000 1.000000 1.000000 0.203990 0.523091 -0.827504
7695 1 4.275849 12.378402 -19.925213 0 1.000000 1.000000 1.000000 0.181348 0.519194 -0.835195
7696 1 3.779632 12.853757 -19.723771 0 1.000000 1.000000 1.000000 0.156856 0.538946 -0.827607
7697 1 3.181665 12.745268 -19.899363 0 1.000000 1.000000 1.000000 0.135732 0.534823 -0.833991
7698 1 2.698810 13.192644 -19.678191 0 1.000000 1.000000 1.000000 0.111299 0.552881 -0.825794
7699 1 2.126904 13.068592 -19.830928 0 1.000000 1.000000 1.000000 0.091744 0.548637 -0.831012
7700 1 1.660259 13.488641 -19.593098 0 1.000000 1.000000 1.000000 0.067540 0.565012 -0.822314
7701 1 1.115930 13.351008 -19.725886 0 1.000000 1.000000 1.000000 0.049563 0.560738 -0.826508
7702 1 20.192393 0.509831 -12.674323 0 1.000000 1.000000 1.000000 0.846185 0.024494 -0.532327
7703 1 20.086969 1.032354 -12.808754 0 1.000000 1.000000 1.000000 0.842886 0.040856 -0.536538
7704 1 19.725886 1.115930 -13.351008 0 1.000000 1.000000 1.000000 0.826508 0.049563 -0.560738
7705 1 19.593098 1.660259 -13.488641 0 1.000000 1.000000 1.000000 0.822314 0.067540 -0.565012
7706 1 19.198158 1.748944 -14.033924 0 1.000000 1.000000 1.000000 0.804281 0.075733 -0.589404
7707 1 19.035429 2.314192 -14.172481 0 1.000000 1.000000 1.000000 0.799049 0.095340 -0.593659
7708 1 18.605434 2.406611 -14.717307 0 1.000000 1.000000 1.000000 0.779350 0.102913 -0.618080
7709 1 18.410448 2.991353 -14.854048 0 1.000000 1.000000 1.000000 0.772938 0.124131 -0.622220
7710 1 17.944793 3.085769 -15.394486 0 1.000000 1.000000 1.000000 0.751600 0.130981 -0.646484
7711 1 17.715657 3.687990 -15.526237 0 1.000000 1.000000 1.000000 0.743869 0.153748 -0.650400
7712 1 17.214487 3.782316 -16.058003 0 1.000000 1.000000 1.000000 0.720965 0.159774 -0.674301
7713 1 16.949904 4.399386 -16.181228 0 1.000000 1.000000 1.000000 0.711787 0.183980 -0.677872
7714 1 16.414248 4.491220 -16.699815 0 1.000000 1.000000 1.000000 0.687438 0.189094 -0.701194
7715 1 16.113685 5.119910 -16.810727 0 1.000000 1.000000 1.000000 0.676706 0.214577 -0.704291
7716 1 15.545551 5.206613 -17.311585 0 1.000000 1.000000 1.000000 0.651087 0.218709 -0.726809
7717 1 15.209384 5.843149 -17.406310 0 1.000000 1.000000 1.000000 0.638722 0.245257 -0.729304
7718 1 14.611806 5.921943 -17.885050 0 1.000000 1.000000 1.000000 0.612059 0.248358 -0.750801
7719 1 14.241415 6.562118 -17.959814 0 1.000000 1.000000 1.000000 0.598017 0.275713 -0.752568
7720 1 13.618423 6.630227 -18.412436 0 1.000000 1.000000 1.000000 0.570579 0.277762 -0.772844
7721 1 13.216225 7.269548 -18.463779 0 1.000000 1.000000 1.000000 0.554862 0.305627 -0.773770
7722 1 12.572735 7.324341 -18.886882 0 1.000000 1.000000 1.000000 0.526955 0.306633 -0.792651
7723 1 12.142138 7.958217 -18.911863 0 1.000000 1.000000 1.000000 0.509610 0.334686 -0.792643
7724 1 11.483768 7.997359 -19.302830 0 1.000000 1.000000 1.000000 0.481559 0.334689 -0.809990
7725 1 11.029039 8.621303 -19.299209 0 1.000000 1.000000 1.000000 0.462680 0.362598 -0.808980
7726 1 10.361860 8.642894 -19.656332 0 1.000000 1.000000 1.000000 0.434817 0.361667 -0.824700
7727 1 9.887933 9.252718 -19.622696 0 1.000000 1.000000 1.000000 0.414543 0.389106 -0.822649
7728 1 9.218181 9.255387 -19.945231 0 1.000000 1.000000 1.000000 0.387190 0.387335 -0.836693
7729 1 8.730403 9.847379 -19.881060 0 1.000000 1.000000 1.000000 0.365693 0.413998 -0.833591
7730 1 8.064191 9.830348 -20.169210 0 1.000000 1.000000 1.000000 0.339147 0.411499 -0.845960
7731 1 7.568055 10.401400 -20.074868 0 1.000000 1.000000 1.000000 0.316628 0.437117 -0.841828
7732 1 6.911100 10.364489 -20.329695 0 1.000000 1.000000 1.000000 0.291147 0.434015 -0.852563
7733 1 6.411984 10.912179 -20.206355 0 1.000000 1.000000 1.000000 0.267825 0.458363 -0.847451
7734 1 5.769390 10.855775 -20.429642 0 1.000000 1.000000 1.000000 0.243620 0.454789 -0.856631
7735 1 5.272327 11.378391 -20.279167 0 1.000000 1.000000 1.000000 0.219716 0.477692 -0.850609
7736 1 4.648437 11.303369 -20.473242 0 1.000000 1.000000 1.000000 0.196950 0.473773 -0.858341
7737 1 4.157938 11.799888 -20.298022 0 1.000000 1.000000 1.000000 0.172683 0.495109 -0.851497
7738 1 3.556247 11.707519 -20.465585 0 1.000000 1.000000 1.000000 0.151466 0.490967 -0.857910
7739 1 3.076190 12.177544 -20.268368 0 1.000000 1.000000 1.000000 0.127041 0.510664 -0.850343
7740 1 2.499330 12.069387 -20.412309 0 1.000000 1.000000 1.000000 0.107435 0.506408 -0.855575
7741 1 2.032898 12.513059 -20.196041 0 1.000000 1.000000 1.000000 0.083038 0.524438 -0.847390
7742 1 1.482677 12.390854 -20.319294 0 1.000000 1.000000 1.000000 0.065062 0.520164 -0.851585
7743 1 1.032354 12.808754 -20.086969 0 1.000000 1.000000 1.000000 0.040856 0.536538 -0.842886
7744 1 0.509831 12.674323 -20.192393 0 1.000000 1.000000 1.000000 0.024494 0.532327 -0.846185
7745 1 20.507486 -0.315093 12.164492 0 1.000000 1.000000 1.000000 0.861323 -0.015138 0.507833
7746 1 20.642231 -1.283091 11.868331 0 1.000000 1.000000 1.000000 0.866719 -0.055708 0.495677
7747 1 20.724999 -0.638030 11.776400 0 1.000000 1.000000 1.000000 0.868137 -0.025251 0.495682
7748 1 21.008977 -0.322937 11.274924 0 1.000000 1.000000 1.000000 0.882217 -0.015134 0.470600
7749 1 20.742830 -2.295057 11.534594 0 1.000000 1.000000 1.000000 0.870679 -0.098100 0.481969
7750 1 20.849498 -1.629039 11.455743 0 1.000000 1.000000 1.000000 0.873634 -0.066818 0.481974
7751 1 21.145427 -1.314499 10.941688 0 1.000000 1.000000 1.000000 0.887713 -0.056701 0.456893
7752 1 21.222137 -0.653457 10.852800 0 1.000000 1.000000 1.000000 0.889132 -0.026244 0.456898
7753 1 21.493216 -0.330521 10.320443 0 1.000000 1.000000 1.000000 0.902381 -0.015104 0.430675
7754 1 20.803315 -3.347518 11.161060 0 1.000000 1.000000 1.000000 0.872961 -0.142164 0.466614
7755 1 20.936619 -2.663188 11.096291 0 1.000000 1.000000 1.000000 0.877565 -0.110217 0.466618
7756 1 21.244008 -2.350628 10.569586 0 1.000000 1.000000 1.000000 0.891620 -0.100116 0.441578
7757 1 21.346147 -1.667957 10.493834 0 1.000000 1.000000 1.000000 0.894580 -0.068786 0.441582
7758 1 21.628259 -1.344646 9.947855 0 1.000000 1.000000 1.000000 0.907849 -0.057629 0.415319
7759 1 21.698618 -0.668251 9.863352 0 1.000000 1.000000 1.000000 0.909266 -0.027222 0.415324
7760 1 21.952952 -0.337731 9.300909 0 1.000000 1.000000 1.000000 0.921514 -0.015051 0.388054
7761 1 20.817685 -4.435560 10.746050 0 1.000000 1.000000 1.000000 0.873322 -0.187692 0.449533
7762 1 20.980195 -3.736332 10.696109 0 1.000000 1.000000 1.000000 0.879663 -0.155276 0.449537
7763 1 21.298254 -3.427263 10.156775 0 1.000000 1.000000 1.000000 0.893674 -0.145205 0.424573
7764 1 21.428764 -2.725888 10.095020 0 1.000000 1.000000 1.000000 0.898291 -0.113171 0.424577
7765 1 21.721354 -2.403564 9.535486 0 1.000000 1.000000 1.000000 0.911559 -0.102013 0.398314
7766 1 21.818711 -1.704993 9.464072 0 1.000000 1.000000 1.000000 0.914520 -0.070684 0.398319
7767 1 22.082897 -1.373041 8.887196 0 1.000000 1.000000 1.000000 0.926800 -0.058479 0.370973
7768 1 22.146780 -0.682173 8.808535 0 1.000000 1.000000 1.000000 0.928214 -0.028165 0.370978
7769 1 22.380353 -0.344442 8.217600 0 1.000000 1.000000 1.000000 0.939292 -0.014981 0.342792
7770 1 20.780167 -5.552754 10.288613 0 1.000000 1.000000 1.000000 0.871530 -0.234412 0.430681
7771 1 20.974134 -4.842813 10.253911 0 1.000000 1.000000 1.000000 0.879661 -0.201761 0.430684
7772 1 21.301745 -4.538780 9.702085 0 1.000000 1.000000 1.000000 0.893615 -0.191731 0.405823
7773 1 21.463355 -3.822458 9.654889 0 1.000000 1.000000 1.000000 0.899978 -0.159199 0.405826
7774 1 21.765572 -3.502565 9.082005 0 1.000000 1.000000 1.000000 0.913227 -0.148055 0.379599
7775 1 21.893061 -2.785046 9.024357 0 1.000000 1.000000 1.000000 0.917851 -0.115981 0.379603
7776 1 22.166494 -2.452937 8.433300 0 1.000000 1.000000 1.000000 0.930147 -0.103760 0.352223
7777 1 22.258973 -1.739504 8.367553 0 1.000000 1.000000 1.000000 0.933104 -0.072474 0.352227
7778 1 22.500973 -1.399161 7.761693 0 1.000000 1.000000 1.000000 0.944221 -0.059242 0.323940
7779 1 22.558470 -0.694967 7.690401 0 1.000000 1.000000 1.000000 0.945630 -0.029053 0.323944
7780 1 22.767241 -0.350525 7.073459 0 1.000000 1.000000 1.000000 0.955376 -0.014899 0.295015
7781 1 20.685542 -6.691173 9.788715 0 1.000000 1.000000 1.000000 0.867377 -0.281992 0.410046
7782 1 20.912728 -5.975421 9.769244 0 1.000000 1.000000 1.000000 0.877312 -0.249370 0.410048
7783 1 21.248431 -5.677941 9.205209 0 1.000000 1.000000 1.000000 0.891198 -0.239387 0.385306
7784 1 21.443481 -4.951241 9.172752 0 1.000000 1.000000 1.000000 0.899362 -0.206604 0.385308
7785 1 21.754154 -4.635258 8.586887 0 1.000000 1.000000 1.000000 0.912580 -0.195486 0.359143
7786 1 21.914635 -3.902904 8.543335 0 1.000000 1.000000 1.000000 0.918958 -0.162884 0.359146
7787 1 22.196430 -3.571998 7.938533 0 1.000000 1.000000 1.000000 0.931252 -0.150664 0.331767
7788 1 22.320800 -2.839550 7.886146 0 1.000000 1.000000 1.000000 0.935877 -0.118590 0.331770
7789 1 22.570603 -2.497766 7.265844 0 1.000000 1.000000 1.000000 0.947017 -0.105329 0.303423
7790 1 22.658297 -1.770810 7.207138 0 1.000000 1.000000 1.000000 0.949968 -0.074116 0.303426
7791 1 22.873879 -1.422465 6.575180 0 1.000000 1.000000 1.000000 0.959754 -0.059905 0.274380
7792 1 22.925325 -0.706373 6.512793 0 1.000000 1.000000 1.000000 0.961157 -0.029861 0.274384
7793 1 23.105422 -0.355848 5.873269 0 1.000000 1.000000 1.000000 0.969430 -0.014814 0.244921
7794 1 20.529495 -7.841522 9.247394 0 1.000000 1.000000 1.000000 0.860692 -0.330042 0.387662
7795 1 20.791001 -7.125461 9.242672 0 1.000000 1.000000 1.000000 0.872393 -0.297739 0.387663
7796 1 21.133004 -6.835950 8.666883 0 1.000000 1.000000 1.000000 0.886210 -0.287804 0.363043
7797 1 21.363249 -6.104183 8.648891 0 1.000000 1.000000 1.000000 0.896186 -0.255049 0.363044
7798 1 21.680889 -5.793561 8.050605 0 1.000000 1.000000 1.000000 0.909363 -0.243964 0.336957
7799 1 21.876744 -5.051336 8.021057 0 1.000000 1.000000 1.000000 0.917550 -0.211094 0.336959
7800 1 22.165726 -4.723032 7.403158 0 1.000000 1.000000 1.000000 0.929832 -0.198885 0.309608
7801 1 22.324931 -3.976048 7.364185 0 1.000000 1.000000 1.000000 0.936216 -0.166253 0.309610
7802 1 22.581666 -3.634085 6.730152 0 1.000000 1.000000 1.000000 0.947366 -0.152979 0.281237
7803 1 22.702969 -2.888252 6.684198 0 1.000000 1.000000 1.000000 0.951986 -0.120938 0.281240
7804 1 22.924761 -2.537059 6.037976 0 1.000000 1.000000 1.000000 0.961798 -0.106689 0.252117
7805 1 23.007977 -1.798228 5.987665 0 1.000000 1.000000 1.000000 0.964741 -0.075570 0.252120
7806 1 23.193149 -1.442422 5.333499 0 1.000000 1.000000 1.000000 0.973048 -0.060461 0.222537
7807 1 23.239146 -0.716133 5.281490 0 1.000000 1.000000 1.000000 0.974444 -0.030565 0.222540
7808 1 23.387074 -0.360285 4.623735 0 1.000000 1.000000 1.000000 0.981129 -0.014732 0.192790
7809 1 20.308956 -8.993387 8.666869 0 1.000000 1.000000 1.000000 0.851355 -0.378129 0.363611
7810 1 20.605070 -8.282941 8.675906 0 1.000000 1.000000 1.000000 0.864732 -0.346447 0.363610
7811 1 20.951286 -8.002641 8.089018 0 1.000000 1.000000 1.000000 0.878486 -0.336557 0.339103
7812 1 21.217715 -7.271712 8.084716 0 1.000000 1.000000 1.000000 0.890231 -0.304133 0.339103
7813 1 21.540526 -6.967807 7.474786 0 1.000000 1.000000 1.000000 0.903367 -0.293082 0.313099
7814 1 21.773454 -6.221423 7.458666 0 1.000000 1.000000 1.000000 0.913370 -0.260237 0.313100
7815 1 22.068156 -5.897102 6.828549 0 1.000000 1.000000 1.000000 0.925632 -0.248047 0.285793
7816 1 22.264572 -5.140936 6.802588 0 1.000000 1.000000 1.000000 0.933831 -0.215129 0.285795
7817 1 22.527112 -4.800107 6.155784 0 1.000000 1.000000 1.000000 0.944981 -0.201855 0.257422
7818 1 22.685000 -4.040241 6.122321 0 1.000000 1.000000 1.000000 0.951365 -0.169224 0.257424
7819 1 22.912202 -3.687361 5.462854 0 1.000000 1.000000 1.000000 0.961191 -0.154954 0.228259
7820 1 23.030661 -2.930014 5.424463 0 1.000000 1.000000 1.000000 0.965804 -0.122964 0.228261
7821 1 23.220391 -2.569863 4.756707 0 1.000000 1.000000 1.000000 0.974133 -0.107814 0.198597
7822 1 23.299663 -1.821102 4.716055 0 1.000000 1.000000 1.000000 0.977068 -0.076793 0.198600
7823 1 23.450911 -1.458538 4.044540 0 1.000000 1.000000 1.000000 0.983778 -0.060901 0.168738
7824 1 23.492325 -0.724010 4.004230 0 1.000000 1.000000 1.000000 0.985168 -0.031141 0.168741
7825 1 23.605194 -0.363724 3.333444 0 1.000000 1.000000 1.000000 0.990187 -0.014662 0.138976
7826 1 20.022405 -10.135615 8.050576 0 1.000000 1.000000 1.000000 0.839311 -0.425787 0.338026
7827 1 20.352494 -9.436893 8.071881 0 1.000000 1.000000 1.000000 0.854218 -0.395032 0.338025
7828 1 20.700600 -9.166803 7.474771 0 1.000000 1.000000 1.000000 0.867922 -0.385178 0.313609
7829 1 21.003279 -8.442996 7.482870 0 1.000000 1.000000 1.000000 0.881339 -0.353401 0.313608
7830 1 21.329206 -8.147002 6.862308 0 1.000000 1.000000 1.000000 0.894436 -0.342381 0.287679
7831 1 21.600024 -7.402742 6.858525 0 1.000000 1.000000 1.000000 0.906210 -0.309877 0.287679
7832 1 21.898718 -7.083705 6.217322 0 1.000000 1.000000 1.000000 0.918450 -0.297708 0.260421
7833 1 22.133922 -6.324449 6.203465 0 1.000000 1.000000 1.000000 0.928470 -0.264809 0.260422
7834 1 22.400898 -5.986068 5.545120 0 1.000000 1.000000 1.000000 0.939612 -0.251543 0.232067
7835 1 22.597672 -5.217893 5.523401 0 1.000000 1.000000 1.000000 0.947816 -0.218607 0.232069
7836 1 22.829277 -4.864555 4.851987 0 1.000000 1.000000 1.000000 0.957646 -0.204329 0.202887
7837 1 22.985920 -4.093890 4.824904 0 1.000000 1.000000 1.000000 0.964027 -0.171718 0.202889
7838 1 23.179546 -3.730455 4.144899 0 1.000000 1.000000 1.000000 0.972370 -0.156543 0.173177
7839 1 23.295558 -2.963775 4.115093 0 1.000000 1.000000 1.000000 0.976976 -0.124611 0.173179
7840 1 23.449761 -2.595317 3.431177 0 1.000000 1.000000 1.000000 0.983702 -0.108680 0.143244
7841 1 23.525842 -1.838841 3.401278 0 1.000000 1.000000 1.000000 0.986629 -0.077748 0.143246
7842 1 23.640370 -1.470385 2.718124 0 1.000000 1.000000 1.000000 0.991662 -0.061220 0.113392
7843 1 23.678308 -0.729797 2.690600 0 1.000000 1.000000 1.000000 0.993049 -0.031570 0.113393
7844 1 23.754038 -0.366073 2.012667 0 1.000000 1.000000 1.000000 0.996367 -0.014611 0.083905
7845 1 19.670094 -11.256786 7.403114 0 1.000000 1.000000 1.000000 0.824574 -0.472545 0.311092
7846 1 20.032546 -10.575812 7.434739 0 1.000000 1.000000 1.000000 0.840815 -0.443006 0.311090
7847 1 20.380072 -10.316631 6.828519 0 1.000000 1.000000 1.000000 0.854485 -0.433175 0.286732
7848 1 20.718038 -9.606343 6.847246 0 1.000000 1.000000 1.000000 0.869421 -0.402359 0.286731
7849 1 21.044836 -9.319226 6.217307 0 1.000000 1.000000 1.000000 0.882490 -0.391362 0.260859
7850 1 21.353326 -8.583692 6.224270 0 1.000000 1.000000 1.000000 0.895932 -0.359526 0.260859
7851 1 21.654071 -8.271099 5.573368 0 1.000000 1.000000 1.000000 0.908152 -0.347376 0.233645
7852 1 21.928644 -7.515372 5.570202 0 1.000000 1.000000 1.000000 0.919943 -0.314825 0.233646
7853 1 22.198475 -7.180698 4.901814 0 1.000000 1.000000 1.000000 0.931075 -0.301570 0.205315
7854 1 22.435524 -6.410651 4.890589 0 1.000000 1.000000 1.000000 0.941103 -0.268645 0.205316
7855 1 22.670341 -6.058112 4.208810 0 1.000000 1.000000 1.000000 0.950933 -0.254367 0.176135
7856 1 22.867321 -5.280192 4.191927 0 1.000000 1.000000 1.000000 0.959137 -0.221431 0.176136
7857 1 23.064037 -4.914629 3.501306 0 1.000000 1.000000 1.000000 0.967487 -0.206244 0.146401
7858 1 23.219619 -4.135556 3.481361 0 1.000000 1.000000 1.000000 0.973862 -0.173662 0.146402
7859 1 23.376326 -3.762176 2.786700 0 1.000000 1.000000 1.000000 0.980599 -0.157708 0.116424
7860 1 23.490455 -2.988616 2.766323 0 1.000000 1.000000 1.000000 0.985197 -0.125827 0.116425
7861 1 23.606497 -2.612712 2.072453 0 1.000000 1.000000 1.000000 0.990240 -0.109268 0.086515
7862 1 23.680331 -1.850958 2.054154 0 1.000000 1.000000 1.000000 0.993160 -0.078405 0.086517
7863 1 23.756269 -1.477634 1.365719 0 1.000000 1.000000 1.000000 0.996485 -0.061413 0.056971
7864 1 23.792037 -0.733337 1.351755 0 1.000000 1.000000 1.000000 0.997868 -0.031834 0.056972
7865 1 23.829522 -0.367264 0.673019 0 1.000000 1.000000 1.000000 0.999500 -0.014584 0.028056
7866 1 19.254146 -12.345754 6.730095 0 1.000000 1.000000 1.000000 0.807235 -0.517941 0.283036
7867 1 19.646391 -11.688174 6.769726 0 1.000000 1.000000 1.000000 0.824566 -0.489880 0.283033
7868 1 19.990824 -11.440273 6.155742 0 1.000000 1.000000 1.000000 0.838225 -0.480057 0.258696
7869 1 20.362053 -10.749704 6.182910 0 1.000000 1.000000 1.000000 0.854476 -0.450497 0.258695
7870 1 20.687381 -10.472160 5.545093 0 1.000000 1.000000 1.000000 0.867530 -0.439513 0.232853
7871 1 21.032199 -9.751971 5.560764 0 1.000000 1.000000 1.000000 0.882481 -0.408666 0.232852
7872 1 21.332915 -9.446784 4.901801 0 1.000000 1.000000 1.000000 0.894687 -0.396529 0.205670
7873 1 21.646297 -8.701446 4.907443 0 1.000000 1.000000 1.000000 0.908142 -0.364661 0.205670
7874 1 21.917244 -8.371630 4.230770 0 1.000000 1.000000 1.000000 0.919266 -0.351416 0.177362
7875 1 22.194848 -7.606609 4.228308 0 1.000000 1.000000 1.000000 0.931065 -0.318841 0.177362
7876 1 22.431532 -7.256110 3.538014 0 1.000000 1.000000 1.000000 0.940893 -0.304567 0.148189
7877 1 22.669976 -6.477661 3.529741 0 1.000000 1.000000 1.000000 0.950923 -0.271634 0.148190
7878 1 22.868851 -6.111191 2.830415 0 1.000000 1.000000 1.000000 0.959275 -0.256442 0.118447
7879 1 23.065933 -5.326080 2.818863 0 1.000000 1.000000 1.000000 0.967476 -0.223516 0.118448
7880 1 23.224618 -4.948881 2.115395 0 1.000000 1.000000 1.000000 0.974217 -0.207551 0.088448
7881 1 23.379429 -4.164049 2.103177 0 1.000000 1.000000 1.000000 0.980588 -0.174994 0.088449
7882 1 23.496823 -3.781600 1.400525 0 1.000000 1.000000 1.000000 0.985637 -0.158419 0.058510
7883 1 23.609762 -3.003823 1.390179 0 1.000000 1.000000 1.000000 0.990230 -0.126574 0.058510
7884 1 23.686051 -2.621541 0.693144 0 1.000000 1.000000 1.000000 0.993558 -0.109566 0.028935
7885 1 23.758723 -1.857106 0.686982 0 1.000000 1.000000 1.000000 0.996475 -0.078739 0.028935
7886 1 23.795282 -1.480074 0.000000 0 1.000000 1.000000 1.000000 0.998108 -0.061477 0.000000
7887 1 23.830312 -0.734528 0.000000 0 1.000000 1.000000 1.000000 0.999490 -0.031923 0.000000
7888 1 23.829522 -0.367264 -0.673019 0 1.000000 1.000000 1.000000 0.999500 -0.014584 -0.028056
7889 1 18.778508 -13.392178 6.037909 0 1.000000 1.000000 1.000000 0.787455 -0.561549 0.254121
7890 1 19.197115 -12.762998 6.082984 0 1.000000 1.000000 1.000000 0.805604 -0.535188 0.254118
7891 1 19.536012 -12.526410 5.462801 0 1.000000 1.000000 1.000000 0.819275 -0.525355 0.229762
7892 1 19.937475 -11.861265 5.495927 0 1.000000 1.000000 1.000000 0.836593 -0.497315 0.229759
7893 1 20.258995 -11.593689 4.851949 0 1.000000 1.000000 1.000000 0.849647 -0.486330 0.203919
7894 1 20.637672 -10.895153 4.873946 0 1.000000 1.000000 1.000000 0.865897 -0.456771 0.203917
7895 1 20.936230 -10.598101 4.208786 0 1.000000 1.000000 1.000000 0.878099 -0.444639 0.176746
7896 1 21.286656 -9.869921 4.220970 0 1.000000 1.000000 1.000000 0.893055 -0.413781 0.176745
7897 1 21.556891 -9.545958 3.538003 0 1.000000 1.000000 1.000000 0.904173 -0.400541 0.148451
7898 1 21.874097 -8.793005 3.542161 0 1.000000 1.000000 1.000000 0.917634 -0.368660 0.148451
7899 1 22.111197 -8.445720 2.845444 0 1.000000 1.000000 1.000000 0.927458 -0.354389 0.119287
7900 1 22.391027 -7.673846 2.843758 0 1.000000 1.000000 1.000000 0.939261 -0.321806 0.119287
7901 1 22.591034 -7.307721 2.137885 0 1.000000 1.000000 1.000000 0.947612 -0.306614 0.089544
7902 1 22.830414 -6.523516 2.132815 0 1.000000 1.000000 1.000000 0.957643 -0.273682 0.089545
7903 1 22.990484 -6.143715 1.422726 0 1.000000 1.000000 1.000000 0.964386 -0.257712 0.059537
7904 1 23.187607 -5.354192 1.416858 0 1.000000 1.000000 1.000000 0.972585 -0.224796 0.059538
7905 1 23.306174 -4.966278 0.707605 0 1.000000 1.000000 1.000000 0.977636 -0.208213 0.029586
7906 1 23.460578 -4.178518 0.703490 0 1.000000 1.000000 1.000000 0.984004 -0.175672 0.029586
7907 1 23.537403 -3.788142 0.000000 0 1.000000 1.000000 1.000000 0.987334 -0.158658 0.000000
7908 1 23.649936 -3.008943 0.000000 0 1.000000 1.000000 1.000000 0.991925 -0.126826 0.000000
7909 1 23.686051 -2.621541 -0.693144 0 1.000000 1.000000 1.000000 0.993558 -0.109566 -0.028935
7910 1 23.758723 -1.857106 -0.686982 0 1.000000 1.000000 1.000000 0.996475 -0.078739 -0.028935
7911 1 23.756269 -1.477634 -1.365719 0 1.000000 1.000000 1.000000 0.996485 -0.061413 -0.056971
7912 1 23.792037 -0.733337 -1.351755 0 1.000000 1.000000 1.000000 0.997868 -0.031834 -0.056972
7913 1 23.754038 -0.366073 -2.012667 0 1.000000 1.000000 1.000000 0.996367 -0.014611 -0.083905
7914 1 18.248774 -14.387012 5.333425 0 1.000000 1.000000 1.000000 0.765463 -0.602997 0.224635
7915 1 18.689611 -13.790375 5.381281 0 1.000000 1.000000 1.000000 0.784138 -0.578506 0.224632
7916 1 19.020707 -13.564819 4.756647 0 1.000000 1.000000 1.000000 0.797842 -0.568649 0.200217
7917 1 19.448501 -12.930034 4.793091 0 1.000000 1.000000 1.000000 0.815951 -0.542345 0.200215
7918 1 19.763990 -12.672526 4.144854 0 1.000000 1.000000 1.000000 0.829020 -0.531347 0.174344
7919 1 20.173021 -12.001327 4.170585 0 1.000000 1.000000 1.000000 0.846319 -0.503337 0.174342
7920 1 20.467343 -11.712881 3.501276 0 1.000000 1.000000 1.000000 0.858526 -0.491200 0.147160
7921 1 20.851875 -11.008191 3.517480 0 1.000000 1.000000 1.000000 0.874770 -0.461652 0.147159
7922 1 21.119568 -10.690887 2.830398 0 1.000000 1.000000 1.000000 0.885888 -0.448412 0.118865
7923 1 21.474158 -9.956834 2.838737 0 1.000000 1.000000 1.000000 0.900844 -0.417554 0.118865
7924 1 21.710179 -9.613832 2.137879 0 1.000000 1.000000 1.000000 0.910667 -0.403284 0.089704
7925 1 22.030012 -8.855671 2.140427 0 1.000000 1.000000 1.000000 0.924129 -0.371400 0.089704
7926 1 22.230063 -8.491127 1.430361 0 1.000000 1.000000 1.000000 0.932480 -0.356209 0.059964
7927 1 22.511255 -7.715052 1.429505 0 1.000000 1.000000 1.000000 0.944284 -0.323625 0.059964
7928 1 22.672068 -7.333943 0.715182 0 1.000000 1.000000 1.000000 0.951027 -0.307654 0.029955
7929 1 22.911918 -6.546811 0.713473 0 1.000000 1.000000 1.000000 0.961057 -0.274724 0.029955
7930 1 23.031461 -6.154672 0.000000 0 1.000000 1.000000 1.000000 0.966108 -0.258140 0.000000
7931 1 23.228594 -5.363662 0.000000 0 1.000000 1.000000 1.000000 0.974306 -0.225227 0.000000
7932 1 23.306174 -4.966278 -0.707605 0 1.000000 1.000000 1.000000 0.977636 -0.208213 -0.029586
7933 1 23.460578 -4.178518 -0.703490 0 1.000000 1.000000 1.000000 0.984004 -0.175672 -0.029586
7934 1 23.496823 -3.781600 -1.400525 0 1.000000 1.000000 1.000000 0.985637 -0.158419 -0.058510
7935 1 23.609762 -3.003823 -1.390179 0 1.000000 1.000000 1.000000 0.990230 -0.126574 -0.058510
7936 1 23.606497 -2.612712 -2.072453 0 1.000000 1.000000 1.000000 0.990240 -0.109268 -0.086515
7937 1 23.680331 -1.850958 -2.054154 0 1.000000 1.000000 1.000000 0.993160 -0.078405 -0.086517
7938 1 23.640370 -1.470385 -2.718124 0 1.000000 1.000000 1.000000 0.991662 -0.061220 -0.113392
7939 1 23.678308 -0.729797 -2.690600 0 1.000000 1.000000 1.000000 0.993049 -0.031570 -0.113393
7940 1 23.605194 -0.363724 -3.333444 0 1.000000 1.000000 1.000000 0.990187 -0.014662 -0.138976
7941 1 17.671870 -15.322883 4.623659 0 1.000000 1.000000 1.000000 0.741541 -0.641983 0.194872
7942 1 18.130320 -14.761921 4.671676 0 1.000000 1.000000 1.000000 0.760445 -0.619475 0.194870
7943 1 18.451623 -14.546844 4.044478 0 1.000000 1.000000 1.000000 0.774200 -0.609582 0.170365
7944 1 18.901173 -13.946379 4.081593 0 1.000000 1.000000 1.000000 0.792808 -0.585177 0.170362
7945 1 19.208621 -13.698764 3.431130 0 1.000000 1.000000 1.000000 0.805907 -0.574154 0.144435
7946 1 19.643644 -13.059697 3.457948 0 1.000000 1.000000 1.000000 0.823977 -0.547905 0.144433
7947 1 19.931795 -12.780075 2.786668 0 1.000000 1.000000 1.000000 0.836198 -0.535754 0.117222
7948 1 20.346462 -12.104458 2.804266 0 1.000000 1.000000 1.000000 0.853478 -0.507775 0.117220
7949 1 20.609858 -11.794411 2.115375 0 1.000000 1.000000 1.000000 0.864602 -0.494528 0.088914
7950 1 20.998431 -11.085529 2.125303 0 1.000000 1.000000 1.000000 0.880838 -0.464994 0.088913
7951 1 21.231903 -10.747740 1.422717 0 1.000000 1.000000 1.000000 0.890662 -0.450722 0.059750
7952 1 21.589061 -10.010095 1.426954 0 1.000000 1.000000 1.000000 0.905616 -0.419868 0.059749
7953 1 21.788057 -9.648315 0.715179 0 1.000000 1.000000 1.000000 0.913967 -0.404677 0.030009
7954 1 22.109227 -8.887509 0.716038 0 1.000000 1.000000 1.000000 0.927429 -0.372793 0.030009
7955 1 22.270112 -8.506426 0.000000 0 1.000000 1.000000 1.000000 0.934172 -0.356822 0.000000
7956 1 22.551762 -7.728935 0.000000 0 1.000000 1.000000 1.000000 0.945976 -0.324238 0.000000
7957 1 22.672068 -7.333943 -0.715182 0 1.000000 1.000000 1.000000 0.951027 -0.307654 -0.029955
7958 1 22.911918 -6.546811 -0.713473 0 1.000000 1.000000 1.000000 0.961057 -0.274724 -0.029955
7959 1 22.990484 -6.143715 -1.422726 0 1.000000 1.000000 1.000000 0.964386 -0.257712 -0.059537
7960 1 23.187607 -5.354192 -1.416858 0 1.000000 1.000000 1.000000 0.972585 -0.224796 -0.059538
7961 1 23.224618 -4.948881 -2.115395 0 1.000000 1.000000 1.000000 0.974217 -0.207551 -0.088448
7962 1 23.379429 -4.164049 -2.103177 0 1.000000 1.000000 1.000000 0.980588 -0.174994 -0.088449
7963 1 23.376326 -3.762176 -2.786700 0 1.000000 1.000000 1.000000 0.980599 -0.157708 -0.116424
7964 1 23.490455 -2.988616 -2.766323 0 1.000000 1.000000 1.000000 0.985197 -0.125827 -0.116425
7965 1 23.449761 -2.595317 -3.431177 0 1.000000 1.000000 1.000000 0.983702 -0.108680 -0.143244
7966 1 23.525842 -1.838841 -3.401278 0 1.000000 1.000000 1.000000 0.986629 -0.077748 -0.143246
7967 1 23.450911 -1.458538 -4.044540 0 1.000000 1.000000 1.000000 0.983778 -0.060901 -0.168738
7968 1 23.492325 -0.724010 -4.004230 0 1.000000 1.000000 1.000000 0.985168 -0.031141 -0.168741
7969 1 23.387074 -0.360285 -4.623735 0 1.000000 1.000000 1.000000 0.981129 -0.014732 -0.192790
7970 1 17.055663 -16.194322 3.915447 0 1.000000 1.000000 1.000000 0.716007 -0.678283 0.165125
7971 1 17.526861 -15.671091 3.961182 0 1.000000 1.000000 1.000000 0.734856 -0.657816 0.165123
7972 1 17.836721 -15.465733 3.333384 0 1.000000 1.000000 1.000000 0.748675 -0.647876 0.140506
7973 1 18.303033 -14.902448 3.368662 0 1.000000 1.000000 1.000000 0.767490 -0.625474 0.140504
7974 1 18.600719 -14.664321 2.718079 0 1.000000 1.000000 1.000000 0.780627 -0.614419 0.114502
7975 1 19.056757 -14.061102 2.743433 0 1.000000 1.000000 1.000000 0.799180 -0.590085 0.114501
7976 1 19.337029 -13.790292 2.072423 0 1.000000 1.000000 1.000000 0.811421 -0.577913 0.087245
7977 1 19.777045 -13.148333 2.088841 0 1.000000 1.000000 1.000000 0.829461 -0.551708 0.087244
7978 1 20.034549 -12.845931 1.400508 0 1.000000 1.000000 1.000000 0.840595 -0.538451 0.058915
7979 1 20.452695 -12.167625 1.409444 0 1.000000 1.000000 1.000000 0.857861 -0.510494 0.058914
7980 1 20.682239 -11.835818 0.707598 0 1.000000 1.000000 1.000000 0.867688 -0.496218 0.029742
7981 1 21.072875 -11.124813 0.710943 0 1.000000 1.000000 1.000000 0.883920 -0.466692 0.029742
7982 1 21.269748 -10.766892 -0.000000 0 1.000000 1.000000 1.000000 0.892271 -0.451500 0.000000
7983 1 21.627773 -10.028039 -0.000000 0 1.000000 1.000000 1.000000 0.907224 -0.420648 0.000000
7984 1 21.788057 -9.648315 -0.715179 0 1.000000 1.000000 1.000000 0.913967 -0.404677 -0.030009
7985 1 22.109227 -8.887509 -0.716038 0 1.000000 1.000000 1.000000 0.927429 -0.372793 -0.030009
7986 1 22.230063 -8.491127 -1.430361 0 1.000000 1.000000 1.000000 0.932480 -0.356209 -0.059964
7987 1 22.511255 -7.715052 -1.429505 0 1.000000 1.000000 1.000000 0.944284 -0.323625 -0.059964
7988 1 22.591034 -7.307721 -2.137885 0 1.000000 1.000000 1.000000 0.947612 -0.306614 -0.089544
7989 1 22.830414 -6.523516 -2.132815 0 1.000000 1.000000 1.000000 0.957643 -0.273682 -0.089545
7990 1 22.868851 -6.111191 -2.830415 0 1.000000 1.000000 1.000000 0.959275 -0.256442 -0.118447
7991 1 23.065933 -5.326080 -2.818863 0 1.000000 1.000000 1.000000 0.967476 -0.223516 -0.118448
7992 1 23.064037 -4.914629 -3.501306 0 1.000000 1.000000 1.000000 0.967487 -0.206244 -0.146401
7993 1 23.219619 -4.135556 -3.481361 0 1.000000 1.000000 1.000000 0.973862 -0.173662 -0.146402
7994 1 23.179546 -3.730455 -4.144899 0 1.000000 1.000000 1.000000 0.972370 -0.156543 -0.173177
7995 1 23.295558 -2.963775 -4.115093 0 1.000000 1.000000 1.000000 0.976976 -0.124611 -0.173179
7996 1 23.220391 -2.569863 -4.756707 0 1.000000 1.000000 1.000000 0.974133 -0.107814 -0.198597
7997 1 23.299663 -1.821102 -4.716055 0 1.000000 1.000000 1.000000 0.977068 -0.076793 -0.198600
7998 1 23.193149 -1.442422 -5.333499 0 1.000000 1.000000 1.000000 0.973048 -0.060461 -0.222537
7999 1 23.239146 -0.716133 -5.281490 0 1.000000 1.000000 1.000000 0.974444 -0.030565 -0.222540
8000 1 23.105422 -0.355848 -5.873269 0 1.000000 1.000000 1.000000 0.969430 -0.014814 -0.244921
8001 1 16.408528 -16.997851 3.215154 0 1.000000 1.000000 1.000000 0.689201 -0.711756 0.135666
8002 1 16.887601 -16.513342 3.256451 0 1.000000 1.000000 1.000000 0.707733 -0.693332 0.135664
8003 1 17.184746 -16.316806 2.630029 0 1.000000 1.000000 1.000000 0.721622 -0.683343 0.110926
8004 1 17.662669 -15.792428 2.661226 0 1.000000 1.000000 1.000000 0.740367 -0.662987 0.110924
8005 1 17.949214 -15.563212 2.012628 0 1.000000 1.000000 1.000000 0.753547 -0.651897 0.084841
8006 1 18.420952 -14.998389 2.034203 0 1.000000 1.000000 1.000000 0.772297 -0.629571 0.084839
8007 1 18.691927 -14.736186 1.365695 0 1.000000 1.000000 1.000000 0.784561 -0.617377 0.057534
8008 1 19.151968 -14.131307 1.378561 0 1.000000 1.000000 1.000000 0.803078 -0.593090 0.057533
8009 1 19.402205 -13.836749 0.693133 0 1.000000 1.000000 1.000000 0.814221 -0.579821 0.029180
8010 1 19.844770 -13.193332 0.698662 0 1.000000 1.000000 1.000000 0.832245 -0.553640 0.029180
8011 1 20.069154 -12.868110 -0.000000 0 1.000000 1.000000 1.000000 0.842076 -0.539359 0.000000
8012 1 20.488476 -12.188901 -0.000000 0 1.000000 1.000000 1.000000 0.859337 -0.511410 0.000000
8013 1 20.682239 -11.835818 -0.707598 0 1.000000 1.000000 1.000000 0.867688 -0.496218 -0.029742
8014 1 21.072875 -11.124813 -0.710943 0 1.000000 1.000000 1.000000 0.883920 -0.466692 -0.029742
8015 1 21.231903 -10.747740 -1.422717 0 1.000000 1.000000 1.000000 0.890662 -0.450722 -0.059750
8016 1 21.589061 -10.010095 -1.426954 0 1.000000 1.000000 1.000000 0.905616 -0.419868 -0.059749
8017 1 21.710179 -9.613832 -2.137879 0 1.000000 1.000000 1.000000 0.910667 -0.403284 -0.089704
8018 1 22.030012 -8.855671 -2.140427 0 1.000000 1.000000 1.000000 0.924129 -0.371400 -0.089704
8019 1 22.111197 -8.445720 -2.845444 0 1.000000 1.000000 1.000000 0.927458 -0.354389 -0.119287
8020 1 22.391027 -7.673846 -2.843758 0 1.000000 1.000000 1.000000 0.939261 -0.321806 -0.119287
8021 1 22.431532 -7.256110 -3.538014 0 1.000000 1.000000 1.000000 0.940893 -0.304567 -0.148189
8022 1 22.669976 -6.477661 -3.529741 0 1.000000 1.000000 1.000000 0.950923 -0.271634 -0.148190
8023 1 22.670341 -6.058112 -4.208810 0 1.000000 1.000000 1.000000 0.950933 -0.254367 -0.176135
8024 1 22.867321 -5.280192 -4.191927 0 1.000000 1.000000 1.000000 0.959137 -0.221431 -0.176136
8025 1 22.829277 -4.864555 -4.851987 0 1.000000 1.000000 1.000000 0.957646 -0.204329 -0.202887
8026 1 22.985920 -4.093890 -4.824904 0 1.000000 1.000000 1.000000 0.964027 -0.171718 -0.202889
8027 1 22.912202 -3.687361 -5.462854 0 1.000000 1.000000 1.000000 0.961191 -0.154954 -0.228259
8028 1 23.030661 -2.930014 -5.424463 0 1.000000 1.000000 1.000000 0.965804 -0.122964 -0.228261
8029 1 22.924761 -2.537059 -6.037976 0 1.000000 1.000000 1.000000 0.961798 -0.106689 -0.252117
8030 1 23.007977 -1.798228 -5.987665 0 1.000000 1.000000 1.000000 0.964741 -0.075570 -0.252120
8031 1 22.873879 -1.422465 -6.575180 0 1.000000 1.000000 1.000000 0.959754 -0.059905 -0.274380
8032 1 22.925325 -0.706373 -6.512793 0 1.000000 1.000000 1.000000 0.961157 -0.029861 -0.274384
8033 1 22.767241 -0.350525 -7.073459 0 1.000000 1.000000 1.000000 0.955376 -0.014899 -0.295015
8034 1 15.738929 -17.731916 2.528450 0 1.000000 1.000000 1.000000 0.661465 -0.742341 0.106741
8035 1 16.221205 -17.286143 2.563510 0 1.000000 1.000000 1.000000 0.679453 -0.725914 0.106739
8036 1 16.504755 -17.097464 1.940392 0 1.000000 1.000000 1.000000 0.693409 -0.715877 0.081883
8037 1 16.989224 -16.612635 1.965614 0 1.000000 1.000000 1.000000 0.711835 -0.697558 0.081882
8038 1 17.263615 -16.391641 1.321042 0 1.000000 1.000000 1.000000 0.725054 -0.686434 0.055720
8039 1 17.745682 -15.866595 1.336859 0 1.000000 1.000000 1.000000 0.743734 -0.666149 0.055719
8040 1 18.006263 -15.612646 0.673006 0 1.000000 1.000000 1.000000 0.756018 -0.653935 0.028371
8041 1 18.480770 -15.047059 0.680267 0 1.000000 1.000000 1.000000 0.774734 -0.631650 0.028371
8042 1 18.722628 -14.760376 -0.000000 0 1.000000 1.000000 1.000000 0.785885 -0.618372 0.000000
8043 1 19.184022 -14.154943 -0.000000 0 1.000000 1.000000 1.000000 0.804390 -0.594102 0.000000
8044 1 19.402205 -13.836749 -0.693133 0 1.000000 1.000000 1.000000 0.814221 -0.579821 -0.029180
8045 1 19.844770 -13.193332 -0.698662 0 1.000000 1.000000 1.000000 0.832245 -0.553640 -0.029180
8046 1 20.034549 -12.845931 -1.400508 0 1.000000 1.000000 1.000000 0.840595 -0.538451 -0.058915
8047 1 20.452695 -12.167625 -1.409444 0 1.000000 1.000000 1.000000 0.857861 -0.510494 -0.058914
8048 1 20.609858 -11.794411 -2.115375 0 1.000000 1.000000 1.000000 0.864602 -0.494528 -0.088914
8049 1 20.998431 -11.085529 -2.125303 0 1.000000 1.000000 1.000000 0.880838 -0.464994 -0.088913
8050 1 21.119568 -10.690887 -2.830398 0 1.000000 1.000000 1.000000 0.885888 -0.448412 -0.118865
8051 1 21.474158 -9.956834 -2.838737 0 1.000000 1.000000 1.000000 0.900844 -0.417554 -0.118865
8052 1 21.556891 -9.545958 -3.538003 0 1.000000 1.000000 1.000000 0.904173 -0.400541 -0.148451
8053 1 21.874097 -8.793005 -3.542161 0 1.000000 1.000000 1.000000 0.917634 -0.368660 -0.148451
8054 1 21.917244 -8.371630 -4.230770 0 1.000000 1.000000 1.000000 0.919266 -0.351416 -0.177362
8055 1 22.194848 -7.606609 -4.228308 0 1.000000 1.000000 1.000000 0.931065 -0.318841 -0.177362
8056 1 22.198475 -7.180698 -4.901814 0 1.000000 1.000000 1.000000 0.931075 -0.301570 -0.205315
8057 1 22.435524 -6.410651 -4.890589 0 1.000000 1.000000 1.000000 0.941103 -0.268645 -0.205316
8058 1 22.400898 -5.986068 -5.545120 0 1.000000 1.000000 1.000000 0.939612 -0.251543 -0.232067
8059 1 22.597672 -5.217893 -5.523401 0 1.000000 1.000000 1.000000 0.947816 -0.218607 -0.232069
8060 1 22.527112 -4.800107 -6.155784 0 1.000000 1.000000 1.000000 0.944981 -0.201855 -0.257422
8061 1 22.685000 -4.040241 -6.122321 0 1.000000 1.000000 1.000000 0.951365 -0.169224 -0.257424
8062 1 22.581666 -3.634085 -6.730152 0 1.000000 1.000000 1.000000 0.947366 -0.152979 -0.281237
8063 1 22.702969 -2.888252 -6.684198 0 1.000000 1.000000 1.000000 0.951986 -0.120938 -0.281240
8064 1 22.570603 -2.497766 -7.265844 0 1.000000 1.000000 1.000000 0.947017 -0.105329 -0.303423
8065 1 22.658297 -1.770810 -7.207138 0 1.000000 1.000000 1.000000 0.949968 -0.074116 -0.303426
8066 1 22.500973 -1.399161 -7.761693 0 1.000000 1.000000 1.000000 0.944221 -0.059242 -0.323940
8067 1 22.558470 -0.694967 -7.690401 0 1.000000 1.000000 1.000000 0.945630 -0.029053 -0.323944
8068 1 22.380353 -0.344442 -8.217600 0 1.000000 1.000000 1.000000 0.939292 -0.014981 -0.342792
8069 1 15.055038 -18.396705 1.860151 0 1.000000 1.000000 1.000000 0.633131 -0.770048 0.078560
8070 1 15.536221 -17.988842 1.887574 0 1.000000 1.000000 1.000000 0.650386 -0.755531 0.078559
8071 1 15.805665 -17.807048 1.269579 0 1.000000 1.000000 1.000000 0.664400 -0.745453 0.053600
8072 1 16.291923 -17.361443 1.287336 0 1.000000 1.000000 1.000000 0.682290 -0.729114 0.053599
8073 1 16.553506 -17.147930 0.648705 0 1.000000 1.000000 1.000000 0.695542 -0.717964 0.027376
8074 1 17.040728 -16.662957 0.657189 0 1.000000 1.000000 1.000000 0.713912 -0.699700 0.027375
8075 1 17.290147 -16.416815 -0.000000 0 1.000000 1.000000 1.000000 0.726209 -0.687474 0.000000
8076 1 17.773614 -15.891550 -0.000000 0 1.000000 1.000000 1.000000 0.744867 -0.667213 0.000000
8077 1 18.006263 -15.612646 -0.673006 0 1.000000 1.000000 1.000000 0.756018 -0.653935 -0.028371
8078 1 18.480770 -15.047059 -0.680267 0 1.000000 1.000000 1.000000 0.774734 -0.631650 -0.028371
8079 1 18.691927 -14.736186 -1.365695 0 1.000000 1.000000 1.000000 0.784561 -0.617377 -0.057534
8080 1 19.151968 -14.131307 -1.378561 0 1.000000 1.000000 1.000000 0.803078 -0.593090 -0.057533
8081 1 19.337029 -13.790292 -2.072423 0 1.000000 1.000000 1.000000 0.811421 -0.577913 -0.087245
8082 1 19.777045 -13.148333 -2.088841 0 1.000000 1.000000 1.000000 0.829461 -0.551708 -0.087244
8083 1 19.931795 -12.780075 -2.786668 0 1.000000 1.000000 1.000000 0.836198 -0.535754 -0.117222
8084 1 20.346462 -12.104458 -2.804266 0 1.000000 1.000000 1.000000 0.853478 -0.507775 -0.117220
8085 1 20.467343 -11.712881 -3.501276 0 1.000000 1.000000 1.000000 0.858526 -0.491200 -0.147160
8086 1 20.851875 -11.008191 -3.517480 0 1.000000 1.000000 1.000000 0.874770 -0.461652 -0.147159
8087 1 20.936230 -10.598101 -4.208786 0 1.000000 1.000000 1.000000 0.878099 -0.444639 -0.176746
8088 1 21.286656 -9.869921 -4.220970 0 1.000000 1.000000 1.000000 0.893055 -0.413781 -0.176745
8089 1 21.332915 -9.446784 -4.901801 0 1.000000 1.000000 1.000000 0.894687 -0.396529 -0.205670
8090 1 21.646297 -8.701446 -4.907443 0 1.000000 1.000000 1.000000 0.908142 -0.364661 -0.205670
8091 1 21.654071 -8.271099 -5.573368 0 1.000000 1.000000 1.000000 0.908152 -0.347376 -0.233645
8092 1 21.928644 -7.515372 -5.570202 0 1.000000 1.000000 1.000000 0.919943 -0.314825 -0.233646
8093 1 21.898718 -7.083705 -6.217322 0 1.000000 1.000000 1.000000 0.918450 -0.297708 -0.260421
8094 1 22.133922 -6.324449 -6.203465 0 1.000000 1.000000 1.000000 0.928470 -0.264809 -0.260422
8095 1 22.068156 -5.897102 -6.828549 0 1.000000 1.000000 1.000000 0.925632 -0.248047 -0.285793
8096 1 22.264572 -5.140936 -6.802588 0 1.000000 1.000000 1.000000 0.933831 -0.215129 -0.285795
8097 1 22.165726 -4.723032 -7.403158 0 1.000000 1.000000 1.000000 0.929832 -0.198885 -0.309608
8098 1 22.324931 -3.976048 -7.364185 0 1.000000 1.000000 1.000000 0.936216 -0.166253 -0.309610
8099 1 22.196430 -3.571998 -7.938533 0 1.000000 1.000000 1.000000 0.931252 -0.150664 -0.331767
8100 1 22.320800 -2.839550 -7.886146 0 1.000000 1.000000 1.000000 0.935877 -0.118590 -0.331770
8101 1 22.166494 -2.452937 -8.433300 0 1.000000 1.000000 1.000000 0.930147 -0.103760 -0.352223
8102 1 22.258973 -1.739504 -8.367553 0 1.000000 1.000000 1.000000 0.933104 -0.072474 -0.352227
8103 1 22.082897 -1.373041 -8.887196 0 1.000000 1.000000 1.000000 0.926800 -0.058479 -0.370973
8104 1 22.146780 -0.682173 -8.808535 0 1.000000 1.000000 1.000000 0.928214 -0.028165 -0.370978
8105 1 21.952952 -0.337731 -9.300909 0 1.000000 1.000000 1.000000 0.921514 -0.015051 -0.388054
8106 1 14.364445 -18.993885 1.214150 0 1.000000 1.000000 1.000000 0.604507 -0.794946 0.051294
8107 1 14.840733 -18.622427 1.232939 0 1.000000 1.000000 1.000000 0.620881 -0.782225 0.051294
8108 1 15.095896 -18.446595 0.621731 0 1.000000 1.000000 1.000000 0.634939 -0.772116 0.026259
8109 1 15.579645 -18.039079 0.630948 0 1.000000 1.000000 1.000000 0.652117 -0.757664 0.026258
8110 1 15.828099 -17.832305 -0.000000 0 1.000000 1.000000 1.000000 0.665387 -0.746499 0.000000
8111 1 16.315702 -17.386762 -0.000000 0 1.000000 1.000000 1.000000 0.683244 -0.730190 0.000000
8112 1 16.553506 -17.147930 -0.648705 0 1.000000 1.000000 1.000000 0.695542 -0.717964 -0.027376
8113 1 17.040728 -16.662957 -0.657189 0 1.000000 1.000000 1.000000 0.713912 -0.699700 -0.027375
8114 1 17.263615 -16.391641 -1.321042 0 1.000000 1.000000 1.000000 0.725054 -0.686434 -0.055720
8115 1 17.745682 -15.866595 -1.336859 0 1.000000 1.000000 1.000000 0.743734 -0.666149 -0.055719
8116 1 17.949214 -15.563212 -2.012628 0 1.000000 1.000000 1.000000 0.753547 -0.651897 -0.084841
8117 1 18.420952 -14.998389 -2.034203 0 1.000000 1.000000 1.000000 0.772297 -0.629571 -0.084839
8118 1 18.600719 -14.664321 -2.718079 0 1.000000 1.000000 1.000000 0.780627 -0.614419 -0.114502
8119 1 19.056757 -14.061102 -2.743433 0 1.000000 1.000000 1.000000 0.799180 -0.590085 -0.114501
8120 1 19.208621 -13.698764 -3.431130 0 1.000000 1.000000 1.000000 0.805907 -0.574154 -0.144435
8121 1 19.643644 -13.059697 -3.457948 0 1.000000 1.000000 1.000000 0.823977 -0.547905 -0.144433
8122 1 19.763990 -12.672526 -4.144854 0 1.000000 1.000000 1.000000 0.829020 -0.531347 -0.174344
8123 1 20.173021 -12.001327 -4.170585 0 1.000000 1.000000 1.000000 0.846319 -0.503337 -0.174342
8124 1 20.258995 -11.593689 -4.851949 0 1.000000 1.000000 1.000000 0.849647 -0.486330 -0.203919
8125 1 20.637672 -10.895153 -4.873946 0 1.000000 1.000000 1.000000 0.865897 -0.456771 -0.203917
8126 1 20.687381 -10.472160 -5.545093 0 1.000000 1.000000 1.000000 0.867530 -0.439513 -0.232853
8127 1 21.032199 -9.751971 -5.560764 0 1.000000 1.000000 1.000000 0.882481 -0.408666 -0.232852
8128 1 21.044836 -9.319226 -6.217307 0 1.000000 1.000000 1.000000 0.882490 -0.391362 -0.260859
8129 1 21.353326 -8.583692 -6.224270 0 1.000000 1.000000 1.000000 0.895932 -0.359526 -0.260859
8130 1 21.329206 -8.147002 -6.862308 0 1.000000 1.000000 1.000000 0.894436 -0.342381 -0.287679
8131 1 21.600024 -7.402742 -6.858525 0 1.000000 1.000000 1.000000 0.906210 -0.309877 -0.287679
8132 1 21.540526 -6.967807 -7.474786 0 1.000000 1.000000 1.000000 0.903367 -0.293082 -0.313099
8133 1 21.773454 -6.221423 -7.458666 0 1.000000 1.000000 1.000000 0.913370 -0.260237 -0.313100
8134 1 21.680889 -5.793561 -8.050605 0 1.000000 1.000000 1.000000 0.909363 -0.243964 -0.336957
8135 1 21.876744 -5.051336 -8.021057 0 1.000000 1.000000 1.000000 0.917550 -0.211094 -0.336959
8136 1 21.754154 -4.635258 -8.586887 0 1.000000 1.000000 1.000000 0.912580 -0.195486 -0.359143
8137 1 21.914635 -3.902904 -8.543335 0 1.000000 1.000000 1.000000 0.918958 -0.162884 -0.359146
8138 1 21.765572 -3.502565 -9.082005 0 1.000000 1.000000 1.000000 0.913227 -0.148055 -0.379599
8139 1 21.893061 -2.785046 -9.024357 0 1.000000 1.000000 1.000000 0.917851 -0.115981 -0.379603
8140 1 21.721354 -2.403564 -9.535486 0 1.000000 1.000000 1.000000 0.911559 -0.102013 -0.398314
8141 1 21.818711 -1.704993 -9.464072 0 1.000000 1.000000 1.000000 0.914520 -0.070684 -0.398319
8142 1 21.628259 -1.344646 -9.947855 0 1.000000 1.000000 1.000000 0.907849 -0.057629 -0.415319
8143 1 21.698618 -0.668251 -9.863352 0 1.000000 1.000000 1.000000 0.909266 -0.027222 -0.415324
8144 1 21.493216 -0.330521 -10.320443 0 1.000000 1.000000 1.000000 0.902381 -0.015104 -0.430675
8145 1 13.673945 -19.526300 0.593408 0 1.000000 1.000000 1.000000 0.575872 -0.817155 0.025077
8146 1 14.142099 -19.189239 0.602943 0 1.000000 1.000000 1.000000 0.591256 -0.806094 0.025076
8147 1 14.383091 -19.018523 -0.000000 0 1.000000 1.000000 1.000000 0.605338 -0.795969 -0.000000
8148 1 14.860601 -18.647337 -0.000000 0 1.000000 1.000000 1.000000 0.621667 -0.783281 -0.000000
8149 1 15.095896 -18.446595 -0.621731 0 1.000000 1.000000 1.000000 0.634939 -0.772116 -0.026259
8150 1 15.579645 -18.039079 -0.630948 0 1.000000 1.000000 1.000000 0.652117 -0.757664 -0.026258
8151 1 15.805665 -17.807048 -1.269579 0 1.000000 1.000000 1.000000 0.664400 -0.745453 -0.053600
8152 1 16.291923 -17.361443 -1.287336 0 1.000000 1.000000 1.000000 0.682290 -0.729114 -0.053599
8153 1 16.504755 -17.097464 -1.940392 0 1.000000 1.000000 1.000000 0.693409 -0.715877 -0.081883
8154 1 16.989224 -16.612635 -1.965614 0 1.000000 1.000000 1.000000 0.711835 -0.697558 -0.081882
8155 1 17.184746 -16.316806 -2.630029 0 1.000000 1.000000 1.000000 0.721622 -0.683343 -0.110926
8156 1 17.662669 -15.792428 -2.661226 0 1.000000 1.000000 1.000000 0.740367 -0.662987 -0.110924
8157 1 17.836721 -15.465733 -3.333384 0 1.000000 1.000000 1.000000 0.748675 -0.647876 -0.140506
8158 1 18.303033 -14.902448 -3.368662 0 1.000000 1.000000 1.000000 0.767490 -0.625474 -0.140504
8159 1 18.451623 -14.546844 -4.044478 0 1.000000 1.000000 1.000000 0.774200 -0.609582 -0.170365
8160 1 18.901173 -13.946379 -4.081593 0 1.000000 1.000000 1.000000 0.792808 -0.585177 -0.170362
8161 1 19.020707 -13.564819 -4.756647 0 1.000000 1.000000 1.000000 0.797842 -0.568649 -0.200217
8162 1 19.448501 -12.930034 -4.793091 0 1.000000 1.000000 1.000000 0.815951 -0.542345 -0.200215
8163 1 19.536012 -12.526410 -5.462801 0 1.000000 1.000000 1.000000 0.819275 -0.525355 -0.229762
8164 1 19.937475 -11.861265 -5.495927 0 1.000000 1.000000 1.000000 0.836593 -0.497315 -0.229759
8165 1 19.990824 -11.440273 -6.155742 0 1.000000 1.000000 1.000000 0.838225 -0.480057 -0.258696
8166 1 20.362053 -10.749704 -6.182910 0 1.000000 1.000000 1.000000 0.854476 -0.450497 -0.258695
8167 1 20.380072 -10.316631 -6.828519 0 1.000000 1.000000 1.000000 0.854485 -0.433175 -0.286732
8168 1 20.718038 -9.606343 -6.847246 0 1.000000 1.000000 1.000000 0.869421 -0.402359 -0.286731
8169 1 20.700600 -9.166803 -7.474771 0 1.000000 1.000000 1.000000 0.867922 -0.385178 -0.313609
8170 1 21.003279 -8.442996 -7.482870 0 1.000000 1.000000 1.000000 0.881339 -0.353401 -0.313608
8171 1 20.951286 -8.002641 -8.089018 0 1.000000 1.000000 1.000000 0.878486 -0.336557 -0.339103
8172 1 21.217715 -7.271712 -8.084716 0 1.000000 1.000000 1.000000 0.890231 -0.304133 -0.339103
8173 1 21.133004 -6.835950 -8.666883 0 1.000000 1.000000 1.000000 0.886210 -0.287804 -0.363043
8174 1 21.363249 -6.104183 -8.648891 0 1.000000 1.000000 1.000000 0.896186 -0.255049 -0.363044
8175 1 21.248431 -5.677941 -9.205209 0 1.000000 1.000000 1.000000 0.891198 -0.239387 -0.385306
8176 1 21.443481 -4.951241 -9.172752 0 1.000000 1.000000 1.000000 0.899362 -0.206604 -0.385308
8177 1 21.301745 -4.538780 -9.702085 0 1.000000 1.000000 1.000000 0.893615 -0.191731 -0.405823
8178 1 21.463355 -3.822458 -9.654889 0 1.000000 1.000000 1.000000 0.899978 -0.159199 -0.405826
8179 1 21.298254 -3.427263 -10.156775 0 1.000000 1.000000 1.000000 0.893674 -0.145205 -0.424573
8180 1 21.428764 -2.725888 -10.095020 0 1.000000 1.000000 1.000000 0.898291 -0.113171 -0.424577
8181 1 21.244008 -2.350628 -10.569586 0 1.000000 1.000000 1.000000 0.891620 -0.100116 -0.441578
8182 1 21.346147 -1.667957 -10.493834 0 1.000000 1.000000 1.000000 0.894580 -0.068786 -0.441582
8183 1 21.145427 -1.314499 -10.941688 0 1.000000 1.000000 1.000000 0.887713 -0.056701 -0.456893
8184 1 21.222137 -0.653457 -10.852800 0 1.000000 1.000000 1.000000 0.889132 -0.026244 -0.456898
8185 1 21.008977 -0.322937 -11.274924 0 1.000000 1.000000 1.000000 0.882217 -0.015134 -0.470600
8186 1 12.989417 -19.997655 0.000000 0 1.000000 1.000000 1.000000 0.547465 -0.836829 0.000000
8187 1 13.446784 -19.692645 -0.000000 0 1.000000 1.000000 1.000000 0.561789 -0.827281 0.000000
8188 1 13.673945 -19.526300 -0.593408 0 1.000000 1.000000 1.000000 0.575872 -0.817155 -0.025077
8189 1 14.142099 -19.189239 -0.602943 0 1.000000 1.000000 1.000000 0.591256 -0.806094 -0.025076
8190 1 14.364445 -18.993885 -1.214150 0 1.000000 1.000000 1.000000 0.604507 -0.794946 -0.051294
8191 1 14.840733 -18.622427 -1.232939 0 1.000000 1.000000 1.000000 0.620881 -0.782225 -0.051294
8192 1 15.055038 -18.396705 -1.860151 0 1.000000 1.000000 1.000000 0.633131 -0.770048 -0.078560
8193 1 15.536221 -17.988842 -1.887574 0 1.000000 1.000000 1.000000 0.650386 -0.755531 -0.078559
8194 1 15.738929 -17.731916 -2.528450 0 1.000000 1.000000 1.000000 0.661465 -0.742341 -0.106741
8195 1 16.221205 -17.286143 -2.563510 0 1.000000 1.000000 1.000000 0.679453 -0.725914 -0.106739
8196 1 16.408528 -16.997851 -3.215154 0 1.000000 1.000000 1.000000 0.689201 -0.711756 -0.135666
8197 1 16.887601 -16.513342 -3.256451 0 1.000000 1.000000 1.000000 0.707733 -0.693332 -0.135664
8198 1 17.055663 -16.194322 -3.915447 0 1.000000 1.000000 1.000000 0.716007 -0.678283 -0.165125
8199 1 17.526861 -15.671091 -3.961182 0 1.000000 1.000000 1.000000 0.734856 -0.657816 -0.165123
8200 1 17.671870 -15.322883 -4.623659 0 1.000000 1.000000 1.000000 0.741541 -0.641983 -0.194872
8201 1 18.130320 -14.761921 -4.671676 0 1.000000 1.000000 1.000000 0.760445 -0.619475 -0.194870
8202 1 18.248774 -14.387012 -5.333425 0 1.000000 1.000000 1.000000 0.765463 -0.602997 -0.224635
8203 1 18.689611 -13.790375 -5.381281 0 1.000000 1.000000 1.000000 0.784138 -0.578506 -0.224632
8204 1 18.778508 -13.392178 -6.037909 0 1.000000 1.000000 1.000000 0.787455 -0.561549 -0.254121
8205 1 19.197115 -12.762998 -6.082984 0 1.000000 1.000000 1.000000 0.805604 -0.535188 -0.254118
8206 1 19.254146 -12.345754 -6.730095 0 1.000000 1.000000 1.000000 0.807235 -0.517941 -0.283036
8207 1 19.646391 -11.688174 -6.769726 0 1.000000 1.000000 1.000000 0.824566 -0.489880 -0.283033
8208 1 19.670094 -11.256786 -7.403114 0 1.000000 1.000000 1.000000 0.824574 -0.472545 -0.311092
8209 1 20.032546 -10.575812 -7.434739 0 1.000000 1.000000 1.000000 0.840815 -0.443006 -0.311090
8210 1 20.022405 -10.135615 -8.050576 0 1.000000 1.000000 1.000000 0.839311 -0.425787 -0.338026
8211 1 20.352494 -9.436893 -8.071881 0 1.000000 1.000000 1.000000 0.854218 -0.395032 -0.338025
8212 1 20.308956 -8.993387 -8.666869 0 1.000000 1.000000 1.000000 0.851355 -0.378129 -0.363611
8213 1 20.605070 -8.282941 -8.675906 0 1.000000 1.000000 1.000000 0.864732 -0.346447 -0.363610
8214 1 20.529495 -7.841522 -9.247394 0 1.000000 1.000000 1.000000 0.860692 -0.330042 -0.387662
8215 1 20.791001 -7.125461 -9.242672 0 1.000000 1.000000 1.000000 0.872393 -0.297739 -0.387663
8216 1 20.685542 -6.691173 -9.788715 0 1.000000 1.000000 1.000000 0.867377 -0.281992 -0.410046
8217 1 20.912728 -5.975421 -9.769244 0 1.000000 1.000000 1.000000 0.877312 -0.249370 -0.410048
8218 1 20.780167 -5.552754 -10.288613 0 1.000000 1.000000 1.000000 0.871530 -0.234412 -0.430681
8219 1 20.974134 -4.842813 -10.253911 0 1.000000 1.000000 1.000000 0.879661 -0.201761 -0.430684
8220 1 20.817685 -4.435560 -10.746050 0 1.000000 1.000000 1.000000 0.873322 -0.187692 -0.449533
8221 1 20.980195 -3.736332 -10.696109 0 1.000000 1.000000 1.000000 0.879663 -0.155276 -0.449537
8222 1 20.803315 -3.347518 -11.161060 0 1.000000 1.000000 1.000000 0.872961 -0.142164 -0.466614
8223 1 20.936619 -2.663188 -11.096291 0 1.000000 1.000000 1.000000 0.877565 -0.110217 -0.466618
8224 1 20.742830 -2.295057 -11.534594 0 1.000000 1.000000 1.000000 0.870679 -0.098100 -0.481969
8225 1 20.849498 -1.629039 -11.455743 0 1.000000 1.000000 1.000000 0.873634 -0.066818 -0.481974
8226 1 20.642231 -1.283091 -11.868331 0 1.000000 1.000000 1.000000 0.866719 -0.055708 -0.495677
8227 1 20.724999 -0.638030 -11.776400 0 1.000000 1.000000 1.000000 0.868137 -0.025251 -0.495682
8228 1 20.507486 -0.315093 -12.164492 0 1.000000 1.000000 1.000000 0.861323 -0.015138 -0.507833
8229 1 0.000000 -12.989417 19.997655 0 1.000000 1.000000 1.000000 0.000000 -0.547465 0.836829
8230 1 -0.593408 -13.673945 19.526300 0 1.000000 1.000000 1.000000 -0.025077 -0.575872 0.817155
8231 1 0.000000 -13.446784 19.692645 0 1.000000 1.000000 1.000000 0.000000 -0.561789 0.827281
8232 1 0.593408 -13.673945 19.526300 0 1.000000 1.000000 1.000000 0.025077 -0.575872 0.817155
8233 1 -1.214150 -14.364445 18.993885 0 1.000000 1.000000 1.000000 -0.051294 -0.604507 0.794946
8234 1 -0.602943 -14.142099 19.189239 0 1.000000 1.000000 1.000000 -0.025076 -0.591256 0.806094
8235 1 0.000000 -14.383091 19.018523 0 1.000000 1.000000 1.000000 0.000000 -0.605338 0.795969
8236 1 0.602943 -14.142099 19.189239 0 1.000000 1.000000 1.000000 0.025076 -0.591256 0.806094
8237 1 1.214150 -14.364445 18.993885 0 1.000000 1.000000 1.000000 0.051294 -0.604507 0.794946
8238 1 -1.860151 -15.055038 18.396705 0 1.000000 1.000000 1.000000 -0.078560 -0.633131 0.770048
8239 1 -1.232939 -14.840733 18.622427 0 1.000000 1.000000 1.000000 -0.051294 -0.620881 0.782225
8240 1 -0.621731 -15.095896 18.446595 0 1.000000 1.000000 1.000000 -0.026259 -0.634939 0.772116
8241 1 0.000000 -14.860601 18.647337 0 1.000000 1.000000 1.000000 0.000000 -0.621667 0.783281
8242 1 0.621731 -15.095896 18.446595 0 1.000000 1.000000 1.000000 0.026259 -0.634939 0.772116
8243 1 1.232939 -14.840733 18.622427 0 1.000000 1.000000 1.000000 0.051294 -0.620881 0.782225
8244 1 1.860151 -15.055038 18.396705 0 1.000000 1.000000 1.000000 0.078560 -0.633131 0.770048
8245 1 -2.528450 -15.738929 17.731916 0 1.000000 1.000000 1.000000 -0.106741 -0.661465 0.742341
8246 1 -1.887574 -15.536221 17.988842 0 1.000000 1.000000 1.000000 -0.078559 -0.650386 0.755531
8247 1 -1.269579 -15.805665 17.807048 0 1.000000 1.000000 1.000000 -0.053600 -0.664400 0.745453
8248 1 -0.630948 -15.579645 18.039079 0 1.000000 1.000000 1.000000 -0.026258 -0.652117 0.757664
8249 1 0.000000 -15.828099 17.832305 0 1.000000 1.000000 1.000000 0.000000 -0.665387 0.746499
8250 1 0.630948 -15.579645 18.039079 0 1.000000 1.000000 1.000000 0.026258 -0.652117 0.757664
8251 1 1.269579 -15.805665 17.807048 0 1.000000 1.000000 1.000000 0.053600 -0.664400 0.745453
8252 1 1.887574 -15.536221 17.988842 0 1.000000 1.000000 1.000000 0.078559 -0.650386 0.755531
8253 1 2.528450 -15.738929 17.731916 0 1.000000 1.000000 1.000000 0.106741 -0.661465 0.742341
8254 1 -3.215154 -16.408528 16.997851 0 1.000000 1.000000 1.000000 -0.135666 -0.689201 0.711756
8255 1 -2.563510 -16.221205 17.286143 0 1.000000 1.000000 1.000000 -0.106739 -0.679453 0.725914
8256 1 -1.940392 -16.504755 17.097464 0 1.000000 1.000000 1.000000 -0.081883 -0.693409 0.715877
8257 1 -1.287336 -16.291923 17.361443 0 1.000000 1.000000 1.000000 -0.053599 -0.682290 0.729114
8258 1 -0.648705 -16.553506 17.147930 0 1.000000 1.000000 1.000000 -0.027376 -0.695542 0.717964
8259 1 0.000000 -16.315702 17.386762 0 1.000000 1.000000 1.000000 0.000000 -0.683244 0.730190
8260 1 0.648705 -16.553506 17.147930 0 1.000000 1.000000 1.000000 0.027376 -0.695542 0.717964
8261 1 1.287336 -16.291923 17.361443 0 1.000000 1.000000 1.000000 0.053599 -0.682290 0.729114
8262 1 1.940392 -16.504755 17.097464 0 1.000000 1.000000 1.000000 0.081883 -0.693409 0.715877
8263 1 2.563510 -16.221205 17.286143 0 1.000000 1.000000 1.000000 0.106739 -0.679453 0.725914
8264 1 3.215154 -16.408528 16.997851 0 1.000000 1.000000 1.000000 0.135666 -0.689201 0.711756
8265 1 -3.915447 -17.055663 16.194322 0 1.000000 1.000000 1.000000 -0.165125 -0.716007 0.678283
8266 1 -3.256451 -16.887601 16.513342 0 1.000000 1.000000 1.000000 -0.135664 -0.707733 0.693332
8267 1 -2.630029 -17.184746 16.316806 0 1.000000 1.000000 1.000000 -0.110926 -0.721622 0.683343
8268 1 -1.965614 -16.989224 16.612635 0 1.000000 1.000000 1.000000 -0.081882 -0.711835 0.697558
8269 1 -1.321042 -17.263615 16.391641 0 1.000000 1.000000 1.000000 -0.055720 -0.725054 0.686434
8270 1 -0.657189 -17.040728 16.662957 0 1.000000 1.000000 1.000000 -0.027375 -0.713912 0.699700
8271 1 0.000000 -17.290147 16.416815 0 1.000000 1.000000 1.000000 0.000000 -0.726209 0.687474
8272 1 0.657189 -17.040728 16.662957 0 1.000000 1.000000 1.000000 0.027375 -0.713912 0.699700
8273 1 1.321042 -17.263615 16.391641 0 1.000000 1.000000 1.000000 0.055720 -0.725054 0.686434
8274 1 1.965614 -16.989224 16.612635 0 1.000000 1.000000 1.000000 0.081882 -0.711835 0.697558
8275 1 2.630029 -17.184746 16.316806 0 1.000000 1.000000 1.000000 0.110926 -0.721622 0.683343
8276 1 3.256451 -16.887601 16.513342 0 1.000000 1.000000 1.000000 0.135664 -0.707733 0.693332
8277 1 3.915447 -17.055663 16.194322 0 1.000000 1.000000 1.000000 0.165125 -0.716007 0.678283
8278 1 -4.623659 -17.671870 15.322883 0 1.000000 1.000000 1.000000 -0.194872 -0.741541 0.641983
8279 1 -3.961182 -17.526861 15.671091 0 1.000000 1.000000 1.000000 -0.165123 -0.734856 0.657816
8280 1 -3.333384 -17.836721 15.465733 0 1.000000 1.000000 1.000000 -0.140506 -0.748675 0.647876
8281 1 -2.661226 -17.662669 15.792428 0 1.000000 1.000000 1.000000 -0.110924 -0.740367 0.662987
8282 1 -2.012628 -17.949214 15.563212 0 1.000000 1.000000 1.000000 -0.084841 -0.753547 0.651897
8283 1 -1.336859 -17.745682 15.866595 0 1.000000 1.000000 1.000000 -0.055719 -0.743734 0.666149
8284 1 -0.673006 -18.006263 15.612646 0 1.000000 1.000000 1.000000 -0.028371 -0.756018 0.653935
8285 1 0.000000 -17.773614 15.891550 0 1.000000 1.000000 1.000000 0.000000 -0.744867 0.667213
8286 1 0.673006 -18.006263 15.612646 0 1.000000 1.000000 1.000000 0.028371 -0.756018 0.653935
8287 1 1.336859 -17.745682 15.866595 0 1.000000 1.000000 1.000000 0.055719 -0.743734 0.666149
8288 1 2.012628 -17.949214 15.563212 0 1.000000 1.000000 1.000000 0.084841 -0.753547 0.651897
8289 1 2.661226 -17.662669 15.792428 0 1.000000 1.000000 1.000000 0.110924 -0.740367 0.662987
8290 1 3.333384 -17.836721 15.465733 0 1.000000 1.000000 1.000000 0.140506 -0.748675 0.647876
8291 1 3.961182 -17.526861 15.671091 0 1.000000 1.000000 1.000000 0.165123 -0.734856 0.657816
8292 1 4.623659 -17.671870 15.322883 0 1.000000 1.000000 1.000000 0.194872 -0.741541 0.641983
8293 1 -5.333425 -18.248774 14.387012 0 1.000000 1.000000 1.000000 -0.224635 -0.765463 0.602997
8294 1 -4.671676 -18.130320 14.761921 0 1.000000 1.000000 1.000000 -0.194870 -0.760445 0.619475
8295 1 -4.044478 -18.451623 14.546844 0 1.000000 1.000000 1.000000 -0.170365 -0.774200 0.609582
8296 1 -3.368662 -18.303033 14.902448 0 1.000000 1.000000 1.000000 -0.140504 -0.767490 0.625474
8297 1 -2.718079 -18.600719 14.664321 0 1.000000 1.000000 1.000000 -0.114502 -0.780627 0.614419
8298 1 -2.034203 -18.420952 14.998389 0 1.000000 1.000000 1.000000 -0.084839 -0.772297 0.629571
8299 1 -1.365695 -18.691927 14.736186 0 1.000000 1.000000 1.000000 -0.057534 -0.784561 0.617377
8300 1 -0.680267 -18.480770 15.047059 0 1.000000 1.000000 1.000000 -0.028371 -0.774734 0.631650
8301 1 0.000000 -18.722628 14.760376 0 1.000000 1.000000 1.000000 0.000000 -0.785885 0.618372
8302 1 0.680267 -18.480770 15.047059 0 1.000000 1.000000 1.000000 0.028371 -0.774734 0.631650
8303 1 1.365695 -18.691927 14.736186 0 1.000000 1.000000 1.000000 0.057534 -0.784561 0.617377
8304 1 2.034203 -18.420952 14.998389 0 1.000000 1.000000 1.000000 0.084839 -0.772297 0.629571
8305 1 2.718079 -18.600719 14.664321 0 1.000000 1.000000 1.000000 0.114502 -0.780627 0.614419
8306 1 3.368662 -18.303033 14.902448 0 1.000000 1.000000 1.000000 0.140504 -0.767490 0.625474
8307 1 4.044478 -18.451623 14.546844 0 1.000000 1.000000 1.000000 0.170365 -0.774200 0.609582
8308 1 4.671676 -18.130320 14.761921 0 1.000000 1.000000 1.000000 0.194870 -0.760445 0.619475
8309 1 5.333425 -18.248774 14.387012 0 1.000000 1.000000 1.000000 0.224635 -0.765463 0.602997
8310 1 -6.037909 -18.778508 13.392178 0 1.000000 1.000000 1.000000 -0.254121 -0.787455 0.561549
8311 1 -5.381281 -18.689611 13.790375 0 1.000000 1.000000 1.000000 -0.224632 -0.784138 0.578506
8312 1 -4.756647 -19.020707 13.564819 0 1.000000 1.000000 1.000000 -0.200217 -0.797842 0.568649
8313 1 -4.081593 -18.901173 13.946379 0 1.000000 1.000000 1.000000 -0.170362 -0.792808 0.585177
8314 1 -3.431130 -19.208621 13.698764 0 1.000000 1.000000 1.000000 -0.144435 -0.805907 0.574154
8315 1 -2.743433 -19.056757 14.061102 0 1.000000 1.000000 1.000000 -0.114501 -0.799180 0.590085
8316 1 -2.072423 -19.337029 13.790292 0 1.000000 1.000000 1.000000 -0.087245 -0.811421 0.577913
8317 1 -1.378561 -19.151968 14.131307 0 1.000000 1.000000 1.000000 -0.057533 -0.803078 0.593090
8318 1 -0.693133 -19.402205 13.836749 0 1.000000 1.000000 1.000000 -0.029180 -0.814221 0.579821
8319 1 0.000000 -19.184022 14.154943 0 1.000000 1.000000 1.000000 0.000000 -0.804390 0.594102
8320 1 0.693133 -19.402205 13.836749 0 1.000000 1.000000 1.000000 0.029180 -0.814221 0.579821
8321 1 1.378561 -19.151968 14.131307 0 1.000000 1.000000 1.000000 0.057533 -0.803078 0.593090
8322 1 2.072423 -19.337029 13.790292 0 1.000000 1.000000 1.000000 0.087245 -0.811421 0.577913
8323 1 2.743433 -19.056757 14.061102 0 1.000000 1.000000 1.000000 0.114501 -0.799180 0.590085
8324 1 3.431130 -19.208621 13.698764 0 1.000000 1.000000 1.000000 0.144435 -0.805907 0.574154
8325 1 4.081593 -18.901173 13.946379 0 1.000000 1.000000 1.000000 0.170362 -0.792808 0.585177
8326 1 4.756647 -19.020707 13.564819 0 1.000000 1.000000 1.000000 0.200217 -0.797842 0.568649
8327 1 5.381281 -18.689611 13.790375 0 1.000000 1.000000 1.000000 0.224632 -0.784138 0.578506
8328 1 6.037909 -18.778508 13.392178 0 1.000000 1.000000 1.000000 0.254121 -0.787455 0.561549
8329 1 -6.730095 -19.254146 12.345754 0 1.000000 1.000000 1.000000 -0.283036 -0.807235 0.517941
8330 1 -6.082984 -19.197115 12.762998 0 1.000000 1.000000 1.000000 -0.254118 -0.805604 0.535188
8331 1 -5.462801 -19.536012 12.526410 0 1.000000 1.000000 1.000000 -0.229762 -0.819275 0.525355
8332 1 -4.793091 -19.448501 12.930034 0 1.000000 1.000000 1.000000 -0.200215 -0.815951 0.542345
8333 1 -4.144854 -19.763990 12.672526 0 1.000000 1.000000 1.000000 -0.174344 -0.829020 0.531347
8334 1 -3.457948 -19.643644 13.059697 0 1.000000 1.000000 1.000000 -0.144433 -0.823977 0.547905
8335 1 -2.786668 -19.931795 12.780075 0 1.000000 1.000000 1.000000 -0.117222 -0.836198 0.535754
8336 1 -2.088841 -19.777045 13.148333 0 1.000000 1.000000 1.000000 -0.087244 -0.829461 0.551708
8337 1 -1.400508 -20.034549 12.845931 0 1.000000 1.000000 1.000000 -0.058915 -0.840595 0.538451
8338 1 -0.698662 -19.844770 13.193332 0 1.000000 1.000000 1.000000 -0.029180 -0.832245 0.553640
8339 1 0.000000 -20.069154 12.868110 0 1.000000 1.000000 1.000000 0.000000 -0.842076 0.539359
8340 1 0.698662 -19.844770 13.193332 0 1.000000 1.000000 1.000000 0.029180 -0.832245 0.553640
8341 1 1.400508 -20.034549 12.845931 0 1.000000 1.000000 1.000000 0.058915 -0.840595 0.538451
8342 1 2.088841 -19.777045 13.148333 0 1.000000 1.000000 1.000000 0.087244 -0.829461 0.551708
8343 1 2.786668 -19.931795 12.780075 0 1.000000 1.000000 1.000000 0.117222 -0.836198 0.535754
8344 1 3.457948 -19.643644 13.059697 0 1.000000 1.000000 1.000000 0.144433 -0.823977 0.547905
8345 1 4.144854 -19.763990 12.672526 0 1.000000 1.000000 1.000000 0.174344 -0.829020 0.531347
8346 1 4.793091 -19.448501 12.930034 0 1.000000 1.000000 1.000000 0.200215 -0.815951 0.542345
8347 1 5.462801 -19.536012 12.526410 0 1.000000 1.000000 1.000000 0.229762 -0.819275 0.525355
8348 1 6.082984 -19.197115 12.762998 0 1.000000 1.000000 1.000000 0.254118 -0.805604 0.535188
8349 1 6.730095 -19.254146 12.345754 0 1.000000 1.000000 1.000000 0.283036 -0.807235 0.517941
8350 1 -7.403114 -19.670094 11.256786 0 1.000000 1.000000 1.000000 -0.311092 -0.824574 0.472545
8351 1 -6.769726 -19.646391 11.688174 0 1.000000 1.000000 1.000000 -0.283033 -0.824566 0.489880
8352 1 -6.155742 -19.990824 11.440273 0 1.000000 1.000000 1.000000 -0.258696 -0.838225 0.480057
8353 1 -5.495927 -19.937475 11.861265 0 1.000000 1.000000 1.000000 -0.229759 -0.836593 0.497315
8354 1 -4.851949 -20.258995 11.593689 0 1.000000 1.000000 1.000000 -0.203919 -0.849647 0.486330
8355 1 -4.170585 -20.173021 12.001327 0 1.000000 1.000000 1.000000 -0.174342 -0.846319 0.503337
8356 1 -3.501276 -20.467343 11.712881 0 1.000000 1.000000 1.000000 -0.147160 -0.858526 0.491200
8357 1 -2.804266 -20.346462 12.104458 0 1.000000 1.000000 1.000000 -0.117220 -0.853478 0.507775
8358 1 -2.115375 -20.609858 11.794411 0 1.000000 1.000000 1.000000 -0.088914 -0.864602 0.494528
8359 1 -1.409444 -20.452695 12.167625 0 1.000000 1.000000 1.000000 -0.058914 -0.857861 0.510494
8360 1 -0.707598 -20.682239 11.835818 0 1.000000 1.000000 1.000000 -0.029742 -0.867688 0.496218
8361 1 0.000000 -20.488476 12.188901 0 1.000000 1.000000 1.000000 0.000000 -0.859337 0.511410
8362 1 0.707598 -20.682239 11.835818 0 1.000000 1.000000 1.000000 0.029742 -0.867688 0.496218
8363 1 1.409444 -20.452695 12.167625 0 1.000000 1.000000 1.000000 0.058914 -0.857861 0.510494
8364 1 2.115375 -20.609858 11.794411 0 1.000000 1.000000 1.000000 0.088914 -0.864602 0.494528
8365 1 2.804266 -20.346462 12.104458 0 1.000000 1.000000 1.000000 0.117220 -0.853478 0.507775
8366 1 3.501276 -20.467343 11.712881 0 1.000000 1.000000 1.000000 0.147160 -0.858526 0.491200
8367 1 4.170585 -20.173021 12.001327 0 1.000000 1.000000 1.000000 0.174342 -0.846319 0.503337
8368 1 4.851949 -20.258995 11.593689 0 1.000000 1.000000 1.000000 0.203919 -0.849647 0.486330
8369 1 5.495927 -19.937475 11.861265 0 1.000000 1.000000 1.000000 0.229759 -0.836593 0.497315
8370 1 6.155742 -19.990824 11.440273 0 1.000000 1.000000 1.000000 0.258696 -0.838225 0.480057
8371 1 6.769726 -19.646391 11.688174 0 1.000000 1.000000 1.000000 0.283033 -0.824566 0.489880
8372 1 7.403114 -19.670094 11.256786 0 1.000000 1.000000 1.000000 0.311092 -0.824574 0.472545
8373 1 -8.050576 -20.022405 10.135615 0 1.000000 1.000000 1.000000 -0.338026 -0.839311 0.425787
8374 1 -7.434739 -20.032546 10.575812 0 1.000000 1.000000 1.000000 -0.311090 -0.840815 0.443006
8375 1 -6.828519 -20.380072 10.316631 0 1.000000 1.000000 1.000000 -0.286732 -0.854485 0.433175
8376 1 -6.182910 -20.362053 10.749704 0 1.000000 1.000000 1.000000 -0.258695 -0.854476 0.450497
8377 1 -5.545093 -20.687381 10.472160 0 1.000000 1.000000 1.000000 -0.232853 -0.867530 0.439513
8378 1 -4.873946 -20.637672 10.895153 0 1.000000 1.000000 1.000000 -0.203917 -0.865897 0.456771
8379 1 -4.208786 -20.936230 10.598101 0 1.000000 1.000000 1.000000 -0.176746 -0.878099 0.444639
8380 1 -3.517480 -20.851875 11.008191 0 1.000000 1.000000 1.000000 -0.147159 -0.874770 0.461652
8381 1 -2.830398 -21.119568 10.690887 0 1.000000 1.000000 1.000000 -0.118865 -0.885888 0.448412
8382 1 -2.125303 -20.998431 11.085529 0 1.000000 1.000000 1.000000 -0.088913 -0.880838 0.464994
8383 1 -1.422717 -21.231903 10.747740 0 1.000000 1.000000 1.000000 -0.059750 -0.890662 0.450722
8384 1 -0.710943 -21.072875 11.124813 0 1.000000 1.000000 1.000000 -0.029742 -0.883920 0.466692
8385 1 0.000000 -21.269748 10.766892 0 1.000000 1.000000 1.000000 0.000000 -0.892271 0.451500
8386 1 0.710943 -21.072875 11.124813 0 1.000000 1.000000 1.000000 0.029742 -0.883920 0.466692
8387 1 1.422717 -21.231903 10.747740 0 1.000000 1.000000 1.000000 0.059750 -0.890662 0.450722
8388 1 2.125303 -20.998431 11.085529 0 1.000000 1.000000 1.000000 0.088913 -0.880838 0.464994
8389 1 2.830398 -21.119568 10.690887 0 1.000000 1.000000 1.000000 0.118865 -0.885888 0.448412
8390 1 3.517480 -20.851875 11.008191 0 1.000000 1.000000 1.000000 0.147159 -0.874770 0.461652
8391 1 4.208786 -20.936230 10.598101 0 1.000000 1.000000 1.000000 0.176746 -0.878099 0.444639
8392 1 4.873946 -20.637672 10.895153 0 1.000000 1.000000 1.000000 0.203917 -0.865897 0.456771
8393 1 5.545093 -20.687381 10.472160 0 1.000000 1.000000 1.000000 0.232853 -0.867530 0.439513
8394 1 6.182910 -20.362053 10.749704 0 1.000000 1.000000 1.000000 0.258695 -0.854476 0.450497
8395 1 6.828519 -20.380072 10.316631 0 1.000000 1.000000 1.000000 0.286732 -0.854485 0.433175
8396 1 7.434739 -20.032546 10.575812 0 1.000000 1.000000 1.000000 0.311090 -0.840815 0.443006
8397 1 8.050576 -20.022405 10.135615 0 1.000000 1.000000 1.000000 0.338026 -0.839311 0.425787
8398 1 -8.666869 -20.308956 8.993387 0 1.000000 1.000000 1.000000 -0.363611 -0.851355 0.378129
8399 1 -8.071881 -20.352494 9.436893 0 1.000000 1.000000 1.000000 -0.338025 -0.854218 0.395032
8400 1 -7.474771 -20.700600 9.166803 0 1.000000 1.000000 1.000000 -0.313609 -0.867922 0.385178
8401 1 -6.847246 -20.718038 9.606343 0 1.000000 1.000000 1.000000 -0.286731 -0.869421 0.402359
8402 1 -6.217307 -21.044836 9.319226 0 1.000000 1.000000 1.000000 -0.260859 -0.882490 0.391362
8403 1 -5.560764 -21.032199 9.751971 0 1.000000 1.000000 1.000000 -0.232852 -0.882481 0.408666
8404 1 -4.901801 -21.332915 9.446784 0 1.000000 1.000000 1.000000 -0.205670 -0.894687 0.396529
8405 1 -4.220970 -21.286656 9.869921 0 1.000000 1.000000 1.000000 -0.176745 -0.893055 0.413781
8406 1 -3.538003 -21.556891 9.545958 0 1.000000 1.000000 1.000000 -0.148451 -0.904173 0.400541
8407 1 -2.838737 -21.474158 9.956834 0 1.000000 1.000000 1.000000 -0.118865 -0.900844 0.417554
8408 1 -2.137879 -21.710179 9.613832 0 1.000000 1.000000 1.000000 -0.089704 -0.910667 0.403284
8409 1 -1.426954 -21.589061 10.010095 0 1.000000 1.000000 1.000000 -0.059749 -0.905616 0.419868
8410 1 -0.715179 -21.788057 9.648315 0 1.000000 1.000000 1.000000 -0.030009 -0.913967 0.404677
8411 1 0.000000 -21.627773 10.028039 0 1.000000 1.000000 1.000000 0.000000 -0.907224 0.420648
8412 1 0.715179 -21.788057 9.648315 0 1.000000 1.000000 1.000000 0.030009 -0.913967 0.404677
8413 1 1.426954 -21.589061 10.010095 0 1.000000 1.000000 1.000000 0.059749 -0.905616 0.419868
8414 1 2.137879 -21.710179 9.613832 0 1.000000 1.000000 1.000000 0.089704 -0.910667 0.403284
8415 1 2.838737 -21.474158 9.956834 0 1.000000 1.000000 1.000000 0.118865 -0.900844 0.417554
8416 1 3.538003 -21.556891 9.545958 0 1.000000 1.000000 1.000000 0.148451 -0.904173 0.400541
8417 1 4.220970 -21.286656 9.869921 0 1.000000 1.000000 1.000000 0.176745 -0.893055 0.413781
8418 1 4.901801 -21.332915 9.446784 0 1.000000 1.000000 1.000000 0.205670 -0.894687 0.396529
8419 1 5.560764 -21.032199 9.751971 0 1.000000 1.000000 1.000000 0.232852 -0.882481 0.408666
8420 1 6.217307 -21.044836 9.319226 0 1.000000 1.000000 1.000000 0.260859 -0.882490 0.391362
8421 1 6.847246 -20.718038 9.606343 0 1.000000 1.000000 1.000000 0.286731 -0.869421 0.402359
8422 1 7.474771 -20.700600 9.166803 0 1.000000 1.000000 1.000000 0.313609 -0.867922 0.385178
8423 1 8.071881 -20.352494 9.436893 0 1.000000 1.000000 1.000000 0.338025 -0.854218 0.395032
8424 1 8.666869 -20.308956 8.993387 0 1.000000 1.000000 1.000000 0.363611 -0.851355 0.378129
8425 1 -9.247394 -20.529495 7.841522 0 1.000000 1.000000 1.000000 -0.387662 -0.860692 0.330042
8426 1 -8.675906 -20.605070 8.282941 0 1.000000 1.000000 1.000000 -0.363610 -0.864732 0.346447
8427 1 -8.089018 -20.951286 8.002641 0 1.000000 1.000000 1.000000 -0.339103 -0.878486 0.336557
8428 1 -7.482870 -21.003279 8.442996 0 1.000000 1.000000 1.000000 -0.313608 -0.881339 0.353401
8429 1 -6.862308 -21.329206 8.147002 0 1.000000 1.000000 1.000000 -0.287679 -0.894436 0.342381
8430 1 -6.224270 -21.353326 8.583692 0 1.000000 1.000000 1.000000 -0.260859 -0.895932 0.359526
8431 1 -5.573368 -21.654071 8.271099 0 1.000000 1.000000 1.000000 -0.233645 -0.908152 0.347376
8432 1 -4.907443 -21.646297 8.701446 0 1.000000 1.000000 1.000000 -0.205670 -0.908142 0.364661
8433 1 -4.230770 -21.917244 8.371630 0 1.000000 1.000000 1.000000 -0.177362 -0.919266 0.351416
8434 1 -3.542161 -21.874097 8.793005 0 1.000000 1.000000 1.000000 -0.148451 -0.917634 0.368660
8435 1 -2.845444 -22.111197 8.445720 0 1.000000 1.000000 1.000000 -0.119287 -0.927458 0.354389
8436 1 -2.140427 -22.030012 8.855671 0 1.000000 1.000000 1.000000 -0.089704 -0.924129 0.371400
8437 1 -1.430361 -22.230063 8.491127 0 1.000000 1.000000 1.000000 -0.059964 -0.932480 0.356209
8438 1 -0.716038 -22.109227 8.887509 0 1.000000 1.000000 1.000000 -0.030009 -0.927429 0.372793
8439 1 0.000000 -22.270112 8.506426 0 1.000000 1.000000 1.000000 0.000000 -0.934172 0.356822
8440 1 0.716038 -22.109227 8.887509 0 1.000000 1.000000 1.000000 0.030009 -0.927429 0.372793
8441 1 1.430361 -22.230063 8.491127 0 1.000000 1.000000 1.000000 0.059964 -0.932480 0.356209
8442 1 2.140427 -22.030012 8.855671 0 1.000000 1.000000 1.000000 0.089704 -0.924129 0.371400
8443 1 2.845444 -22.111197 8.445720 0 1.000000 1.000000 1.000000 0.119287 -0.927458 0.354389
8444 1 3.542161 -21.874097 8.793005 0 1.000000 1.000000 1.000000 0.148451 -0.917634 0.368660
8445 1 4.230770 -21.917244 8.371630 0 1.000000 1.000000 1.000000 0.177362 -0.919266 0.351416
8446 1 4.907443 -21.646297 8.701446 0 1.000000 1.000000 1.000000 0.205670 -0.908142 0.364661
8447 1 5.573368 -21.654071 8.271099 0 1.000000 1.000000 1.000000 0.233645 -0.908152 0.347376
8448 1 6.224270 -21.353326 8.583692 0 1.000000 1.000000 1.000000 0.260859 -0.895932 0.359526
8449 1 6.862308 -21.329206 8.147002 0 1.000000 1.000000 1.000000 0.287679 -0.894436 0.342381
8450 1 7.482870 -21.003279 8.442996 0 1.000000 1.000000 1.000000 0.313608 -0.881339 0.353401
8451 1 8.089018 -20.951286 8.002641 0 1.000000 1.000000 1.000000 0.339103 -0.878486 0.336557
8452 1 8.675906 -20.605070 8.282941 0 1.000000 1.000000 1.000000 0.363610 -0.864732 0.346447
8453 1 9.247394 -20.529495 7.841522 0 1.000000 1.000000 1.000000 0.387662 -0.860692 0.330042
8454 1 -9.788715 -20.685542 6.691173 0 1.000000 1.000000 1.000000 -0.410046 -0.867377 0.281992
8455 1 -9.242672 -20.791001 7.125461 0 1.000000 1.000000 1.000000 -0.387663 -0.872393 0.297739
8456 1 -8.666883 -21.133004 6.835950 0 1.000000 1.000000 1.000000 -0.363043 -0.886210 0.287804
8457 1 -8.084716 -21.217715 7.271712 0 1.000000 1.000000 1.000000 -0.339103 -0.890231 0.304133
8458 1 -7.474786 -21.540526 6.967807 0 1.000000 1.000000 1.000000 -0.313099 -0.903367 0.293082
8459 1 -6.858525 -21.600024 7.402742 0 1.000000 1.000000 1.000000 -0.287679 -0.906210 0.309877
8460 1 -6.217322 -21.898718 7.083705 0 1.000000 1.000000 1.000000 -0.260421 -0.918450 0.297708
8461 1 -5.570202 -21.928644 7.515372 0 1.000000 1.000000 1.000000 -0.233646 -0.919943 0.314825
8462 1 -4.901814 -22.198475 7.180698 0 1.000000 1.000000 1.000000 -0.205315 -0.931075 0.301570
8463 1 -4.228308 -22.194848 7.606609 0 1.000000 1.000000 1.000000 -0.177362 -0.931065 0.318841
8464 1 -3.538014 -22.431532 7.256110 0 1.000000 1.000000 1.000000 -0.148189 -0.940893 0.304567
8465 1 -2.843758 -22.391027 7.673846 0 1.000000 1.000000 1.000000 -0.119287 -0.939261 0.321806
8466 1 -2.137885 -22.591034 7.307721 0 1.000000 1.000000 1.000000 -0.089544 -0.947612 0.306614
8467 1 -1.429505 -22.511255 7.715052 0 1.000000 1.000000 1.000000 -0.059964 -0.944284 0.323625
8468 1 -0.715182 -22.672068 7.333943 0 1.000000 1.000000 1.000000 -0.029955 -0.951027 0.307654
8469 1 0.000000 -22.551762 7.728935 0 1.000000 1.000000 1.000000 0.000000 -0.945976 0.324238
8470 1 0.715182 -22.672068 7.333943 0 1.000000 1.000000 1.000000 0.029955 -0.951027 0.307654
8471 1 1.429505 -22.511255 7.715052 0 1.000000 1.000000 1.000000 0.059964 -0.944284 0.323625
8472 1 2.137885 -22.591034 7.307721 0 1.000000 1.000000 1.000000 0.089544 -0.947612 0.306614
8473 1 2.843758 -22.391027 7.673846 0 1.000000 1.000000 1.000000 0.119287 -0.939261 0.321806
8474 1 3.538014 -22.431532 7.256110 0 1.000000 1.000000 1.000000 0.148189 -0.940893 0.304567
8475 1 4.228308 -22.194848 7.606609 0 1.000000 1.000000 1.000000 0.177362 -0.931065 0.318841
8476 1 4.901814 -22.198475 7.180698 0 1.000000 1.000000 1.000000 0.205315 -0.931075 0.301570
8477 1 5.570202 -21.928644 7.515372 0 1.000000 1.000000 1.000000 0.233646 -0.919943 0.314825
8478 1 6.217322 -21.898718 7.083705 0 1.000000 1.000000 1.000000 0.260421 -0.918450 0.297708
8479 1 6.858525 -21.600024 7.402742 0 1.000000 1.000000 1.000000 0.287679 -0.906210 0.309877
8480 1 7.474786 -21.540526 6.967807 0 1.000000 1.000000 1.000000 0.313099 -0.903367 0.293082
8481 1 8.084716 -21.217715 7.271712 0 1.000000 1.000000 1.000000 0.339103 -0.890231 0.304133
8482 1 8.666883 -21.133004 6.835950 0 1.000000 1.000000 1.000000 0.363043 -0.886210 0.287804
8483 1 9.242672 -20.791001 7.125461 0 1.000000 1.000000 1.000000 0.387663 -0.872393 0.297739
8484 1 9.788715 -20.685542 6.691173 0 1.000000 1.000000 1.000000 0.410046 -0.867377 0.281992
8485 1 -10.288613 -20.780167 5.552754 0 1.000000 1.000000 1.000000 -0.430681 -0.871530 0.234412
8486 1 -9.769244 -20.912728 5.975421 0 1.000000 1.000000 1.000000 -0.410048 -0.877312 0.249370
8487 1 -9.205209 -21.248431 5.677941 0 1.000000 1.000000 1.000000 -0.385306 -0.891198 0.239387
8488 1 -8.648891 -21.363249 6.104183 0 1.000000 1.000000 1.000000 -0.363044 -0.896186 0.255049
8489 1 -8.050605 -21.680889 5.793561 0 1.000000 1.000000 1.000000 -0.336957 -0.909363 0.243964
8490 1 -7.458666 -21.773454 6.221423 0 1.000000 1.000000 1.000000 -0.313100 -0.913370 0.260237
8491 1 -6.828549 -22.068156 5.897102 0 1.000000 1.000000 1.000000 -0.285793 -0.925632 0.248047
8492 1 -6.203465 -22.133922 6.324449 0 1.000000 1.000000 1.000000 -0.260422 -0.928470 0.264809
8493 1 -5.545120 -22.400898 5.986068 0 1.000000 1.000000 1.000000 -0.232067 -0.939612 0.251543
8494 1 -4.890589 -22.435524 6.410651 0 1.000000 1.000000 1.000000 -0.205316 -0.941103 0.268645
8495 1 -4.208810 -22.670341 6.058112 0 1.000000 1.000000 1.000000 -0.176135 -0.950933 0.254367
8496 1 -3.529741 -22.669976 6.477661 0 1.000000 1.000000 1.000000 -0.148190 -0.950923 0.271634
8497 1 -2.830415 -22.868851 6.111191 0 1.000000 1.000000 1.000000 -0.118447 -0.959275 0.256442
8498 1 -2.132815 -22.830414 6.523516 0 1.000000 1.000000 1.000000 -0.089545 -0.957643 0.273682
8499 1 -1.422726 -22.990484 6.143715 0 1.000000 1.000000 1.000000 -0.059537 -0.964386 0.257712
8500 1 -0.713473 -22.911918 6.546811 0 1.000000 1.000000 1.000000 -0.029955 -0.961057 0.274724
8501 1 0.000000 -23.031461 6.154672 0 1.000000 1.000000 1.000000 0.000000 -0.966108 0.258140
8502 1 0.713473 -22.911918 6.546811 0 1.000000 1.000000 1.000000 0.029955 -0.961057 0.274724
8503 1 1.422726 -22.990484 6.143715 0 1.000000 1.000000 1.000000 0.059537 -0.964386 0.257712
8504 1 2.132815 -22.830414 6.523516 0 1.000000 1.000000 1.000000 0.089545 -0.957643 0.273682
8505 1 2.830415 -22.868851 6.111191 0 1.000000 1.000000 1.000000 0.118447 -0.959275 0.256442
8506 1 3.529741 -22.669976 6.477661 0 1.000000 1.000000 1.000000 0.148190 -0.950923 0.271634
8507 1 4.208810 -22.670341 6.058112 0 1.000000 1.000000 1.000000 0.176135 -0.950933 0.254367
8508 1 4.890589 -22.435524 6.410651 0 1.000000 1.000000 1.000000 0.205316 -0.941103 0.268645
8509 1 5.545120 -22.400898 5.986068 0 1.000000 1.000000 1.000000 0.232067 -0.939612 0.251543
8510 1 6.203465 -22.133922 6.324449 0 1.000000 1.000000 1.000000 0.260422 -0.928470 0.264809
8511 1 6.828549 -22.068156 5.897102 0 1.000000 1.000000 1.000000 0.285793 -0.925632 0.248047
8512 1 7.458666 -21.773454 6.221423 0 1.000000 1.000000 1.000000 0.313100 -0.913370 0.260237
8513 1 8.050605 -21.680889 5.793561 0 1.000000 1.000000 1.000000 0.336957 -0.909363 0.243964
8514 1 8.648891 -21.363249 6.104183 0 1.000000 1.000000 1.000000 0.363044 -0.896186 0.255049
8515 1 9.205209 -21.248431 5.677941 0 1.000000 1.000000 1.000000 0.385306 -0.891198 0.239387
8516 1 9.769244 -20.912728 5.975421 0 1.000000 1.000000 1.000000 0.410048 -0.877312 0.249370
8517 1 10.288613 -20.780167 5.552754 0 1.000000 1.000000 1.000000 0.430681 -0.871530 0.234412
8518 1 -10.746050 -20.817685 4.435560 0 1.000000 1.000000 1.000000 -0.449533 -0.873322 0.187692
8519 1 -10.253911 -20.974134 4.842813 0 1.000000 1.000000 1.000000 -0.430684 -0.879661 0.201761
8520 1 -9.702085 -21.301745 4.538780 0 1.000000 1.000000 1.000000 -0.405823 -0.893615 0.191731
8521 1 -9.172752 -21.443481 4.951241 0 1.000000 1.000000 1.000000 -0.385308 -0.899362 0.206604
8522 1 -8.586887 -21.754154 4.635258 0 1.000000 1.000000 1.000000 -0.359143 -0.912580 0.195486
8523 1 -8.021057 -21.876744 5.051336 0 1.000000 1.000000 1.000000 -0.336959 -0.917550 0.211094
8524 1 -7.403158 -22.165726 4.723032 0 1.000000 1.000000 1.000000 -0.309608 -0.929832 0.198885
8525 1 -6.802588 -22.264572 5.140936 0 1.000000 1.000000 1.000000 -0.285795 -0.933831 0.215129
8526 1 -6.155784 -22.527112 4.800107 0 1.000000 1.000000 1.000000 -0.257422 -0.944981 0.201855
8527 1 -5.523401 -22.597672 5.217893 0 1.000000 1.000000 1.000000 -0.232069 -0.947816 0.218607
8528 1 -4.851987 -22.829277 4.864555 0 1.000000 1.000000 1.000000 -0.202887 -0.957646 0.204329
8529 1 -4.191927 -22.867321 5.280192 0 1.000000 1.000000 1.000000 -0.176136 -0.959137 0.221431
8530 1 -3.501306 -23.064037 4.914629 0 1.000000 1.000000 1.000000 -0.146401 -0.967487 0.206244
8531 1 -2.818863 -23.065933 5.326080 0 1.000000 1.000000 1.000000 -0.118448 -0.967476 0.223516
8532 1 -2.115395 -23.224618 4.948881 0 1.000000 1.000000 1.000000 -0.088448 -0.974217 0.207551
8533 1 -1.416858 -23.187607 5.354192 0 1.000000 1.000000 1.000000 -0.059538 -0.972585 0.224796
8534 1 -0.707605 -23.306174 4.966278 0 1.000000 1.000000 1.000000 -0.029586 -0.977636 0.208213
8535 1 0.000000 -23.228594 5.363662 0 1.000000 1.000000 1.000000 0.000000 -0.974306 0.225227
8536 1 0.707605 -23.306174 4.966278 0 1.000000 1.000000 1.000000 0.029586 -0.977636 0.208213
8537 1 1.416858 -23.187607 5.354192 0 1.000000 1.000000 1.000000 0.059538 -0.972585 0.224796
8538 1 2.115395 -23.224618 4.948881 0 1.000000 1.000000 1.000000 0.088448 -0.974217 0.207551
8539 1 2.818863 -23.065933 5.326080 0 1.000000 1.000000 1.000000 0.118448 -0.967476 0.223516
8540 1 3.501306 -23.064037 4.914629 0 1.000000 1.000000 1.000000 0.146401 -0.967487 0.206244
8541 1 4.191927 -22.867321 5.280192 0 1.000000 1.000000 1.000000 0.176136 -0.959137 0.221431
8542 1 4.851987 -22.829277 4.864555 0 1.000000 1.000000 1.000000 0.202887 -0.957646 0.204329
8543 1 5.523401 -22.597672 5.217893 0 1.000000 1.000000 1.000000 0.232069 -0.947816 0.218607
8544 1 6.155784 -22.527112 4.800107 0 1.000000 1.000000 1.000000 0.257422 -0.944981 0.201855
8545 1 6.802588 -22.264572 5.140936 0 1.000000 1.000000 1.000000 0.285795 -0.933831 0.215129
8546 1 7.403158 -22.165726 4.723032 0 1.000000 1.000000 1.000000 0.309608 -0.929832 0.198885
8547 1 8.021057 -21.876744 5.051336 0 1.000000 1.000000 1.000000 0.336959 -0.917550 0.211094
8548 1 8.586887 -21.754154 4.635258 0 1.000000 1.000000 1.000000 0.359143 -0.912580 0.195486
8549 1 9.172752 -21.443481 4.951241 0 1.000000 1.000000 1.000000 0.385308 -0.899362 0.206604
8550 1 9.702085 -21.301745 4.538780 0 1.000000 1.000000 1.000000 0.405823 -0.893615 0.191731
8551 1 10.253911 -20.974134 4.842813 0 1.000000 1.000000 1.000000 0.430684 -0.879661 0.201761
8552 1 10.746050 -20.817685 4.435560 0 1.000000 1.000000 1.000000 0.449533 -0.873322 0.187692
8553 1 -11.161060 -20.803315 3.347518 0 1.000000 1.000000 1.000000 -0.466614 -0.872961 0.142164
8554 1 -10.696109 -20.980195 3.736332 0 1.000000 1.000000 1.000000 -0.449537 -0.879663 0.155276
8555 1 -10.156775 -21.298254 3.427263 0 1.000000 1.000000 1.000000 -0.424573 -0.893674 0.145205
8556 1 -9.654889 -21.463355 3.822458 0 1.000000 1.000000 1.000000 -0.405826 -0.899978 0.159199
8557 1 -9.082005 -21.765572 3.502565 0 1.000000 1.000000 1.000000 -0.379599 -0.913227 0.148055
8558 1 -8.543335 -21.914635 3.902904 0 1.000000 1.000000 1.000000 -0.359146 -0.918958 0.162884
8559 1 -7.938533 -22.196430 3.571998 0 1.000000 1.000000 1.000000 -0.331767 -0.931252 0.150664
8560 1 -7.364185 -22.324931 3.976048 0 1.000000 1.000000 1.000000 -0.309610 -0.936216 0.166253
8561 1 -6.730152 -22.581666 3.634085 0 1.000000 1.000000 1.000000 -0.281237 -0.947366 0.152979
8562 1 -6.122321 -22.685000 4.040241 0 1.000000 1.000000 1.000000 -0.257424 -0.951365 0.169224
8563 1 -5.462854 -22.912202 3.687361 0 1.000000 1.000000 1.000000 -0.228259 -0.961191 0.154954
8564 1 -4.824904 -22.985920 4.093890 0 1.000000 1.000000 1.000000 -0.202889 -0.964027 0.171718
8565 1 -4.144899 -23.179546 3.730455 0 1.000000 1.000000 1.000000 -0.173177 -0.972370 0.156543
8566 1 -3.481361 -23.219619 4.135556 0 1.000000 1.000000 1.000000 -0.146402 -0.973862 0.173662
8567 1 -2.786700 -23.376326 3.762176 0 1.000000 1.000000 1.000000 -0.116424 -0.980599 0.157708
8568 1 -2.103177 -23.379429 4.164049 0 1.000000 1.000000 1.000000 -0.088449 -0.980588 0.174994
8569 1 -1.400525 -23.496823 3.781600 0 1.000000 1.000000 1.000000 -0.058510 -0.985637 0.158419
8570 1 -0.703490 -23.460578 4.178518 0 1.000000 1.000000 1.000000 -0.029586 -0.984004 0.175672
8571 1 0.000000 -23.537403 3.788142 0 1.000000 1.000000 1.000000 0.000000 -0.987334 0.158658
8572 1 0.703490 -23.460578 4.178518 0 1.000000 1.000000 1.000000 0.029586 -0.984004 0.175672
8573 1 1.400525 -23.496823 3.781600 0 1.000000 1.000000 1.000000 0.058510 -0.985637 0.158419
8574 1 2.103177 -23.379429 4.164049 0 1.000000 1.000000 1.000000 0.088449 -0.980588 0.174994
8575 1 2.786700 -23.376326 3.762176 0 1.000000 1.000000 1.000000 0.116424 -0.980599 0.157708
8576 1 3.481361 -23.219619 4.135556 0 1.000000 1.000000 1.000000 0.146402 -0.973862 0.173662
8577 1 4.144899 -23.179546 3.730455 0 1.000000 1.000000 1.000000 0.173177 -0.972370 0.156543
8578 1 4.824904 -22.985920 4.093890 0 1.000000 1.000000 1.000000 0.202889 -0.964027 0.171718
8579 1 5.462854 -22.912202 3.687361 0 1.000000 1.000000 1.000000 0.228259 -0.961191 0.154954
8580 1 6.122321 -22.685000 4.040241 0 1.000000 1.000000 1.000000 0.257424 -0.951365 0.169224
8581 1 6.730152 -22.581666 3.634085 0 1.000000 1.000000 1.000000 0.281237 -0.947366 0.152979
8582 1 7.364185 -22.324931 3.976048 0 1.000000 1.000000 1.000000 0.309610 -0.936216 0.166253
8583 1 7.938533 -22.196430 3.571998 0 1.000000 1.000000 1.000000 0.331767 -0.931252 0.150664
8584 1 8.543335 -21.914635 3.902904 0 1.000000 1.000000 1.000000 0.359146 -0.918958 0.162884
8585 1 9.082005 -21.765572 3.502565 0 1.000000 1.000000 1.000000 0.379599 -0.913227 0.148055
8586 1 9.654889 -21.463355 3.822458 0 1.000000 1.000000 1.000000 0.405826 -0.899978 0.159199
8587 1 10.156775 -21.298254 3.427263 0 1.000000 1.000000 1.000000 0.424573 -0.893674 0.145205
8588 1 10.696109 -20.980195 3.736332 0 1.000000 1.000000 1.000000 0.449537 -0.879663 0.155276
8589 1 11.161060 -20.803315 3.347518 0 1.000000 1.000000 1.000000 0.466614 -0.872961 0.142164
8590 1 -11.534594 -20.742830 2.295057 0 1.000000 1.000000 1.000000 -0.481969 -0.870679 0.098100
8591 1 -11.096291 -20.936619 2.663188 0 1.000000 1.000000 1.000000 -0.466618 -0.877565 0.110217
8592 1 -10.569586 -21.244008 2.350628 0 1.000000 1.000000 1.000000 -0.441578 -0.891620 0.100116
8593 1 -10.095020 -21.428764 2.725888 0 1.000000 1.000000 1.000000 -0.424577 -0.898291 0.113171
8594 1 -9.535486 -21.721354 2.403564 0 1.000000 1.000000 1.000000 -0.398314 -0.911559 0.102013
8595 1 -9.024357 -21.893061 2.785046 0 1.000000 1.000000 1.000000 -0.379603 -0.917851 0.115981
8596 1 -8.433300 -22.166494 2.452937 0 1.000000 1.000000 1.000000 -0.352223 -0.930147 0.103760
8597 1 -7.886146 -22.320800 2.839550 0 1.000000 1.000000 1.000000 -0.331770 -0.935877 0.118590
8598 1 -7.265844 -22.570603 2.497766 0 1.000000 1.000000 1.000000 -0.303423 -0.947017 0.105329
8599 1 -6.684198 -22.702969 2.888252 0 1.000000 1.000000 1.000000 -0.281240 -0.951986 0.120938
8600 1 -6.037976 -22.924761 2.537059 0 1.000000 1.000000 1.000000 -0.252117 -0.961798 0.106689
8601 1 -5.424463 -23.030661 2.930014 0 1.000000 1.000000 1.000000 -0.228261 -0.965804 0.122964
8602 1 -4.756707 -23.220391 2.569863 0 1.000000 1.000000 1.000000 -0.198597 -0.974133 0.107814
8603 1 -4.115093 -23.295558 2.963775 0 1.000000 1.000000 1.000000 -0.173179 -0.976976 0.124611
8604 1 -3.431177 -23.449761 2.595317 0 1.000000 1.000000 1.000000 -0.143244 -0.983702 0.108680
8605 1 -2.766323 -23.490455 2.988616 0 1.000000 1.000000 1.000000 -0.116425 -0.985197 0.125827
8606 1 -2.072453 -23.606497 2.612712 0 1.000000 1.000000 1.000000 -0.086515 -0.990240 0.109268
8607 1 -1.390179 -23.609762 3.003823 0 1.000000 1.000000 1.000000 -0.058510 -0.990230 0.126574
8608 1 -0.693144 -23.686051 2.621541 0 1.000000 1.000000 1.000000 -0.028935 -0.993558 0.109566
8609 1 0.000000 -23.649936 3.008943 0 1.000000 1.000000 1.000000 0.000000 -0.991925 0.126826
8610 1 0.693144 -23.686051 2.621541 0 1.000000 1.000000 1.000000 0.028935 -0.993558 0.109566
8611 1 1.390179 -23.609762 3.003823 0 1.000000 1.000000 1.000000 0.058510 -0.990230 0.126574
8612 1 2.072453 -23.606497 2.612712 0 1.000000 1.000000 1.000000 0.086515 -0.990240 0.109268
8613 1 2.766323 -23.490455 2.988616 0 1.000000 1.000000 1.000000 0.116425 -0.985197 0.125827
8614 1 3.431177 -23.449761 2.595317 0 1.000000 1.000000 1.000000 0.143244 -0.983702 0.108680
8615 1 4.115093 -23.295558 2.963775 0 1.000000 1.000000 1.000000 0.173179 -0.976976 0.124611
8616 1 4.756707 -23.220391 2.569863 0 1.000000 1.000000 1.000000 0.198597 -0.974133 0.107814
8617 1 5.424463 -23.030661 2.930014 0 1.000000 1.000000 1.000000 0.228261 -0.965804 0.122964
8618 1 6.037976 -22.924761 2.537059 0 1.000000 1.000000 1.000000 0.252117 -0.961798 0.106689
8619 1 6.684198 -22.702969 2.888252 0 1.000000 1.000000 1.000000 0.281240 -0.951986 0.120938
8620 1 7.265844 -22.570603 2.497766 0 1.000000 1.000000 1.000000 0.303423 -0.947017 0.105329
8621 1 7.886146 -22.320800 2.839550 0 1.000000 1.000000 1.000000 0.331770 -0.935877 0.118590
8622 1 8.433300 -22.166494 2.452937 0 1.000000 1.000000 1.000000 0.352223 -0.930147 0.103760
8623 1 9.024357 -21.893061 2.785046 0 1.000000 1.000000 1.000000 0.379603 -0.917851 0.115981
8624 1 9.535486 -21.721354 2.403564 0 1.000000 1.000000 1.000000 0.398314 -0.911559 0.102013
8625 1 10.095020 -21.428764 2.725888 0 1.000000 1.000000 1.000000 0.424577 -0.898291 0.113171
8626 1 10.569586 -21.244008 2.350628 0 1.000000 1.000000 1.000000 0.441578 -0.891620 0.100116
8627 1 11.096291 -20.936619 2.663188 0 1.000000 1.000000 1.000000 0.466618 -0.877565 0.110217
8628 1 11.534594 -20.742830 2.295057 0 1.000000 1.000000 1.000000 0.481969 -0.870679 0.098100
8629 1 -11.868331 -20.642231 1.283091 0 1.000000 1.000000 1.000000 -0.495677 -0.866719 0.055708
8630 1 -11.455743 -20.849498 1.629039 0 1.000000 1.000000 1.000000 -0.481974 -0.873634 0.066818
8631 1 -10.941688 -21.145427 1.314499 0 1.000000 1.000000 1.000000 -0.456893 -0.887713 0.056701
8632 1 -10.493834 -21.346147 1.667957 0 1.000000 1.000000 1.000000 -0.441582 -0.894580 0.068786
8633 1 -9.947855 -21.628259 1.344646 0 1.000000 1.000000 1.000000 -0.415319 -0.907849 0.057629
8634 1 -9.464072 -21.818711 1.704993 0 1.000000 1.000000 1.000000 -0.398319 -0.914520 0.070684
8635 1 -8.887196 -22.082897 1.373041 0 1.000000 1.000000 1.000000 -0.370973 -0.926800 0.058479
8636 1 -8.367553 -22.258973 1.739504 0 1.000000 1.000000 1.000000 -0.352227 -0.933104 0.072474
8637 1 -7.761693 -22.500973 1.399161 0 1.000000 1.000000 1.000000 -0.323940 -0.944221 0.059242
8638 1 -7.207138 -22.658297 1.770810 0 1.000000 1.000000 1.000000 -0.303426 -0.949968 0.074116
8639 1 -6.575180 -22.873879 1.422465 0 1.000000 1.000000 1.000000 -0.274380 -0.959754 0.059905
8640 1 -5.987665 -23.007977 1.798228 0 1.000000 1.000000 1.000000 -0.252120 -0.964741 0.075570
8641 1 -5.333499 -23.193149 1.442422 0 1.000000 1.000000 1.000000 -0.222537 -0.973048 0.060461
8642 1 -4.716055 -23.299663 1.821102 0 1.000000 1.000000 1.000000 -0.198600 -0.977068 0.076793
8643 1 -4.044540 -23.450911 1.458538 0 1.000000 1.000000 1.000000 -0.168738 -0.983778 0.060901
8644 1 -3.401278 -23.525842 1.838841 0 1.000000 1.000000 1.000000 -0.143246 -0.986629 0.077748
8645 1 -2.718124 -23.640370 1.470385 0 1.000000 1.000000 1.000000 -0.113392 -0.991662 0.061220
8646 1 -2.054154 -23.680331 1.850958 0 1.000000 1.000000 1.000000 -0.086517 -0.993160 0.078405
8647 1 -1.365719 -23.756269 1.477634 0 1.000000 1.000000 1.000000 -0.056971 -0.996485 0.061413
8648 1 -0.686982 -23.758723 1.857106 0 1.000000 1.000000 1.000000 -0.028935 -0.996475 0.078739
8649 1 0.000000 -23.795282 1.480074 0 1.000000 1.000000 1.000000 0.000000 -0.998108 0.061477
8650 1 0.686982 -23.758723 1.857106 0 1.000000 1.000000 1.000000 0.028935 -0.996475 0.078739
8651 1 1.365719 -23.756269 1.477634 0 1.000000 1.000000 1.000000 0.056971 -0.996485 0.061413
8652 1 2.054154 -23.680331 1.850958 0 1.000000 1.000000 1.000000 0.086517 -0.993160 0.078405
8653 1 2.718124 -23.640370 1.470385 0 1.000000 1.000000 1.000000 0.113392 -0.991662 0.061220
8654 1 3.401278 -23.525842 1.838841 0 1.000000 1.000000 1.000000 0.143246 -0.986629 0.077748
8655 1 4.044540 -23.450911 1.458538 0 1.000000 1.000000 1.000000 0.168738 -0.983778 0.060901
8656 1 4.716055 -23.299663 1.821102 0 1.000000 1.000000 1.000000 0.198600 -0.977068 0.076793
8657 1 5.333499 -23.193149 1.442422 0 1.000000 1.000000 1.000000 0.222537 -0.973048 0.060461
8658 1 5.987665 -23.007977 1.798228 0 1.000000 1.000000 1.000000 0.252120 -0.964741 0.075570
8659 1 6.575180 -22.873879 1.422465 0 1.000000 1.000000 1.000000 0.274380 -0.959754 0.059905
8660 1 7.207138 -22.658297 1.770810 0 1.000000 1.000000 1.000000 0.303426 -0.949968 0.074116
8661 1 7.761693 -22.500973 1.399161 0 1.000000 1.000000 1.000000 0.323940 -0.944221 0.059242
8662 1 8.367553 -22.258973 1.739504 0 1.000000 1.000000 1.000000 0.352227 -0.933104 0.072474
8663 1 8.887196 -22.082897 1.373041 0 1.000000 1.000000 1.000000 0.370973 -0.926800 0.058479
8664 1 9.464072 -21.818711 1.704993 0 1.000000 1.000000 1.000000 0.398319 -0.914520 0.070684
8665 1 9.947855 -21.628259 1.344646 0 1.000000 1.000000 1.000000 0.415319 -0.907849 0.057629
8666 1 10.493834 -21.346147 1.667957 0 1.000000 1.000000 1.000000 0.441582 -0.894580 0.068786
8667 1 10.941688 -21.145427 1.314499 0 1.000000 1.000000 1.000000 0.456893 -0.887713 0.056701
8668 1 11.455743 -20.849498 1.629039 0 1.000000 1.000000 1.000000 0.481974 -0.873634 0.066818
8669 1 11.868331 -20.642231 1.283091 0 1.000000 1.000000 1.000000 0.495677 -0.866719 0.055708
8670 1 -12.164492 -20.507486 0.315093 0 1.000000 1.000000 1.000000 -0.507833 -0.861323 0.015138
8671 1 -11.776400 -20.724999 0.638030 0 1.000000 1.000000 1.000000 -0.495682 -0.868137 0.025251
8672 1 -11.274924 -21.008977 0.322937 0 1.000000 1.000000 1.000000 -0.470600 -0.882217 0.015134
8673 1 -10.852800 -21.222137 0.653457 0 1.000000 1.000000 1.000000 -0.456898 -0.889132 0.026244
8674 1 -10.320443 -21.493216 0.330521 0 1.000000 1.000000 1.000000 -0.430675 -0.902381 0.015104
8675 1 -9.863352 -21.698618 0.668251 0 1.000000 1.000000 1.000000 -0.415324 -0.909266 0.027222
8676 1 -9.300909 -21.952952 0.337731 0 1.000000 1.000000 1.000000 -0.388054 -0.921514 0.015051
8677 1 -8.808535 -22.146780 0.682173 0 1.000000 1.000000 1.000000 -0.370978 -0.928214 0.028165
8678 1 -8.217600 -22.380353 0.344442 0 1.000000 1.000000 1.000000 -0.342792 -0.939292 0.014981
8679 1 -7.690401 -22.558470 0.694967 0 1.000000 1.000000 1.000000 -0.323944 -0.945630 0.029053
8680 1 -7.073459 -22.767241 0.350525 0 1.000000 1.000000 1.000000 -0.295015 -0.955376 0.014899
8681 1 -6.512793 -22.925325 0.706373 0 1.000000 1.000000 1.000000 -0.274384 -0.961157 0.029861
8682 1 -5.873269 -23.105422 0.355848 0 1.000000 1.000000 1.000000 -0.244921 -0.969430 0.014814
8683 1 -5.281490 -23.239146 0.716133 0 1.000000 1.000000 1.000000 -0.222540 -0.974444 0.030565
8684 1 -4.623735 -23.387074 0.360285 0 1.000000 1.000000 1.000000 -0.192790 -0.981129 0.014732
8685 1 -4.004230 -23.492325 0.724010 0 1.000000 1.000000 1.000000 -0.168741 -0.985168 0.031141
8686 1 -3.333444 -23.605194 0.363724 0 1.000000 1.000000 1.000000 -0.138976 -0.990187 0.014662
8687 1 -2.690600 -23.678308 0.729797 0 1.000000 1.000000 1.000000 -0.113393 -0.993049 0.031570
8688 1 -2.012667 -23.754038 0.366073 0 1.000000 1.000000 1.000000 -0.083905 -0.996367 0.014611
8689 1 -1.351755 -23.792037 0.733337 0 1.000000 1.000000 1.000000 -0.056972 -0.997868 0.031834
8690 1 -0.673019 -23.829522 0.367264 0 1.000000 1.000000 1.000000 -0.028056 -0.999500 0.014584
8691 1 0.000000 -23.830312 0.734528 0 1.000000 1.000000 1.000000 0.000000 -0.999490 0.031923
8692 1 0.673019 -23.829522 0.367264 0 1.000000 1.000000 1.000000 0.028056 -0.999500 0.014584
8693 1 1.351755 -23.792037 0.733337 0 1.000000 1.000000 1.000000 0.056972 -0.997868 0.031834
8694 1 2.012667 -23.754038 0.366073 0 1.000000 1.000000 1.000000 0.083905 -0.996367 0.014611
8695 1 2.690600 -23.678308 0.729797 0 1.000000 1.000000 1.000000 0.113393 -0.993049 0.031570
8696 1 3.333444 -23.605194 0.363724 0 1.000000 1.000000 1.000000 0.138976 -0.990187 0.014662
8697 1 4.004230 -23.492325 0.724010 0 1.000000 1.000000 1.000000 0.168741 -0.985168 0.031141
8698 1 4.623735 -23.387074 0.360285 0 1.000000 1.000000 1.000000 0.192790 -0.981129 0.014732
8699 1 5.281490 -23.239146 0.716133 0 1.000000 1.000000 1.000000 0.222540 -0.974444 0.030565
8700 1 5.873269 -23.105422 0.355848 0 1.000000 1.000000 1.000000 0.244921 -0.969430 0.014814
8701 1 6.512793 -22.925325 0.706373 0 1.000000 1.000000 1.000000 0.274384 -0.961157 0.029861
8702 1 7.073459 -22.767241 0.350525 0 1.000000 1.000000 1.000000 0.295015 -0.955376 0.014899
8703 1 7.690401 -22.558470 0.694967 0 1.000000 1.000000 1.000000 0.323944 -0.945630 0.029053
8704 1 8.217600 -22.380353 0.344442 0 1.000000 1.000000 1.000000 0.342792 -0.939292 0.014981
8705 1 8.808535 -22.146780 0.682173 0 1.000000 1.000000 1.000000 0.370978 -0.928214 0.028165
8706 1 9.300909 -21.952952 0.337731 0 1.000000 1.000000 1.000000 0.388054 -0.921514 0.015051
8707 1 9.863352 -21.698618 0.668251 0 1.000000 1.000000 1.000000 0.415324 -0.909266 0.027222
8708 1 10.320443 -21.493216 0.330521 0 1.000000 1.000000 1.000000 0.430675 -0.902381 0.015104
8709 1 10.852800 -21.222137 0.653457 0 1.000000 1.000000 1.000000 0.456898 -0.889132 0.026244
8710 1 11.274924 -21.008977 0.322937 0 1.000000 1.000000 1.000000 0.470600 -0.882217 0.015134
8711 1 11.776400 -20.724999 0.638030 0 1.000000 1.000000 1.000000 0.495682 -0.868137 0.025251
8712 1 12.164492 -20.507486 0.315093 0 1.000000 1.000000 1.000000 0.507833 -0.861323 0.015138
8713 1 -20.507486 -0.315093 12.164492 0 1.000000 1.000000 1.000000 -0.861323 -0.015138 0.507833
8714 1 -21.008977 -0.322937 11.274924 0 1.000000 1.000000 1.000000 -0.882217 -0.015134 0.470600
8715 1 -20.724999 -0.638030 11.776400 0 1.000000 1.000000 1.000000 -0.868137 -0.025251 0.495682
8716 1 -20.642231 -1.283091 11.868331 0 1.000000 1.000000 1.000000 -0.866719 -0.055708 0.495677
8717 1 -21.493216 -0.330521 10.320443 0 1.000000 1.000000 1.000000 -0.902381 -0.015104 0.430675
8718 1 -21.222137 -0.653457 10.852800 0 1.000000 1.000000 1.000000 -0.889132 -0.026244 0.456898
8719 1 -21.145427 -1.314499 10.941688 0 1.000000 1.000000 1.000000 -0.887713 -0.056701 0.456893
8720 1 -20.849498 -1.629039 11.455743 0 1.000000 1.000000 1.000000 -0.873634 -0.066818 0.481974
8721 1 -20.742830 -2.295057 11.534594 0 1.000000 1.000000 1.000000 -0.870679 -0.098100 0.481969
8722 1 -21.952952 -0.337731 9.300909 0 1.000000 1.000000 1.000000 -0.921514 -0.015051 0.388054
8723 1 -21.698618 -0.668251 9.863352 0 1.000000 1.000000 1.000000 -0.909266 -0.027222 0.415324
8724 1 -21.628259 -1.344646 9.947855 0 1.000000 1.000000 1.000000 -0.907849 -0.057629 0.415319
8725 1 -21.346147 -1.667957 10.493834 0 1.000000 1.000000 1.000000 -0.894580 -0.068786 0.441582
8726 1 -21.244008 -2.350628 10.569586 0 1.000000 1.000000 1.000000 -0.891620 -0.100116 0.441578
8727 1 -20.936619 -2.663188 11.096291 0 1.000000 1.000000 1.000000 -0.877565 -0.110217 0.466618
8728 1 -20.803315 -3.347518 11.161060 0 1.000000 1.000000 1.000000 -0.872961 -0.142164 0.466614
8729 1 -22.380353 -0.344442 8.217600 0 1.000000 1.000000 1.000000 -0.939292 -0.014981 0.342792
8730 1 -22.146780 -0.682173 8.808535 0 1.000000 1.000000 1.000000 -0.928214 -0.028165 0.370978
8731 1 -22.082897 -1.373041 8.887196 0 1.000000 1.000000 1.000000 -0.926800 -0.058479 0.370973
8732 1 -21.818711 -1.704993 9.464072 0 1.000000 1.000000 1.000000 -0.914520 -0.070684 0.398319
8733 1 -21.721354 -2.403564 9.535486 0 1.000000 1.000000 1.000000 -0.911559 -0.102013 0.398314
8734 1 -21.428764 -2.725888 10.095020 0 1.000000 1.000000 1.000000 -0.898291 -0.113171 0.424577
8735 1 -21.298254 -3.427263 10.156775 0 1.000000 1.000000 1.000000 -0.893674 -0.145205 0.424573
8736 1 -20.980195 -3.736332 10.696109 0 1.000000 1.000000 1.000000 -0.879663 -0.155276 0.449537
8737 1 -20.817685 -4.435560 10.746050 0 1.000000 1.000000 1.000000 -0.873322 -0.187692 0.449533
8738 1 -22.767241 -0.350525 7.073459 0 1.000000 1.000000 1.000000 -0.955376 -0.014899 0.295015
8739 1 -22.558470 -0.694967 7.690401 0 1.000000 1.000000 1.000000 -0.945630 -0.029053 0.323944
8740 1 -22.500973 -1.399161 7.761693 0 1.000000 1.000000 1.000000 -0.944221 -0.059242 0.323940
8741 1 -22.258973 -1.739504 8.367553 0 1.000000 1.000000 1.000000 -0.933104 -0.072474 0.352227
8742 1 -22.166494 -2.452937 8.433300 0 1.000000 1.000000 1.000000 -0.930147 -0.103760 0.352223
8743 1 -21.893061 -2.785046 9.024357 0 1.000000 1.000000 1.000000 -0.917851 -0.115981 0.379603
8744 1 -21.765572 -3.502565 9.082005 0 1.000000 1.000000 1.000000 -0.913227 -0.148055 0.379599
8745 1 -21.463355 -3.822458 9.654889 0 1.000000 1.000000 1.000000 -0.899978 -0.159199 0.405826
8746 1 -21.301745 -4.538780 9.702085 0 1.000000 1.000000 1.000000 -0.893615 -0.191731 0.405823
8747 1 -20.974134 -4.842813 10.253911 0 1.000000 1.000000 1.000000 -0.879661 -0.201761 0.430684
8748 1 -20.780167 -5.552754 10.288613 0 1.000000 1.000000 1.000000 -0.871530 -0.234412 0.430681
8749 1 -23.105422 -0.355848 5.873269 0 1.000000 1.000000 1.000000 -0.969430 -0.014814 0.244921
8750 1 -22.925325 -0.706373 6.512793 0 1.000000 1.000000 1.000000 -0.961157 -0.029861 0.274384
8751 1 -22.873879 -1.422465 6.575180 0 1.000000 1.000000 1.000000 -0.959754 -0.059905 0.274380
8752 1 -22.658297 -1.770810 7.207138 0 1.000000 1.000000 1.000000 -0.949968 -0.074116 0.303426
8753 1 -22.570603 -2.497766 7.265844 0 1.000000 1.000000 1.000000 -0.947017 -0.105329 0.303423
8754 1 -22.320800 -2.839550 7.886146 0 1.000000 1.000000 1.000000 -0.935877 -0.118590 0.331770
8755 1 -22.196430 -3.571998 7.938533 0 1.000000 1.000000 1.000000 -0.931252 -0.150664 0.331767
8756 1 -21.914635 -3.902904 8.543335 0 1.000000 1.000000 1.000000 -0.918958 -0.162884 0.359146
8757 1 -21.754154 -4.635258 8.586887 0 1.000000 1.000000 1.000000 -0.912580 -0.195486 0.359143
8758 1 -21.443481 -4.951241 9.172752 0 1.000000 1.000000 1.000000 -0.899362 -0.206604 0.385308
8759 1 -21.248431 -5.677941 9.205209 0 1.000000 1.000000 1.000000 -0.891198 -0.239387 0.385306
8760 1 -20.912728 -5.975421 9.769244 0 1.000000 1.000000 1.000000 -0.877312 -0.249370 0.410048
8761 1 -20.685542 -6.691173 9.788715 0 1.000000 1.000000 1.000000 -0.867377 -0.281992 0.410046
8762 1 -23.387074 -0.360285 4.623735 0 1.000000 1.000000 1.000000 -0.981129 -0.014732 0.192790
8763 1 -23.239146 -0.716133 5.281490 0 1.000000 1.000000 1.000000 -0.974444 -0.030565 0.222540
8764 1 -23.193149 -1.442422 5.333499 0 1.000000 1.000000 1.000000 -0.973048 -0.060461 0.222537
8765 1 -23.007977 -1.798228 5.987665 0 1.000000 1.000000 1.000000 -0.964741 -0.075570 0.252120
8766 1 -22.924761 -2.537059 6.037976 0 1.000000 1.000000 1.000000 -0.961798 -0.106689 0.252117
8767 1 -22.702969 -2.888252 6.684198 0 1.000000 1.000000 1.000000 -0.951986 -0.120938 0.281240
8768 1 -22.581666 -3.634085 6.730152 0 1.000000 1.000000 1.000000 -0.947366 -0.152979 0.281237
8769 1 -22.324931 -3.976048 7.364185 0 1.000000 1.000000 1.000000 -0.936216 -0.166253 0.309610
8770 1 -22.165726 -4.723032 7.403158 0 1.000000 1.000000 1.000000 -0.929832 -0.198885 0.309608
8771 1 -21.876744 -5.051336 8.021057 0 1.000000 1.000000 1.000000 -0.917550 -0.211094 0.336959
8772 1 -21.680889 -5.793561 8.050605 0 1.000000 1.000000 1.000000 -0.909363 -0.243964 0.336957
8773 1 -21.363249 -6.104183 8.648891 0 1.000000 1.000000 1.000000 -0.896186 -0.255049 0.363044
8774 1 -21.133004 -6.835950 8.666883 0 1.000000 1.000000 1.000000 -0.886210 -0.287804 0.363043
8775 1 -20.791001 -7.125461 9.242672 0 1.000000 1.000000 1.000000 -0.872393 -0.297739 0.387663
8776 1 -20.529495 -7.841522 9.247394 0 1.000000 1.000000 1.000000 -0.860692 -0.330042 0.387662
8777 1 -23.605194 -0.363724 3.333444 0 1.000000 1.000000 1.000000 -0.990187 -0.014662 0.138976
8778 1 -23.492325 -0.724010 4.004230 0 1.000000 1.000000 1.000000 -0.985168 -0.031141 0.168741
8779 1 -23.450911 -1.458538 4.044540 0 1.000000 1.000000 1.000000 -0.983778 -0.060901 0.168738
8780 1 -23.299663 -1.821102 4.716055 0 1.000000 1.000000 1.000000 -0.977068 -0.076793 0.198600
8781 1 -23.220391 -2.569863 4.756707 0 1.000000 1.000000 1.000000 -0.974133 -0.107814 0.198597
8782 1 -23.030661 -2.930014 5.424463 0 1.000000 1.000000 1.000000 -0.965804 -0.122964 0.228261
8783 1 -22.912202 -3.687361 5.462854 0 1.000000 1.000000 1.000000 -0.961191 -0.154954 0.228259
8784 1 -22.685000 -4.040241 6.122321 0 1.000000 1.000000 1.000000 -0.951365 -0.169224 0.257424
8785 1 -22.527112 -4.800107 6.155784 0 1.000000 1.000000 1.000000 -0.944981 -0.201855 0.257422
8786 1 -22.264572 -5.140936 6.802588 0 1.000000 1.000000 1.000000 -0.933831 -0.215129 0.285795
8787 1 -22.068156 -5.897102 6.828549 0 1.000000 1.000000 1.000000 -0.925632 -0.248047 0.285793
8788 1 -21.773454 -6.221423 7.458666 0 1.000000 1.000000 1.000000 -0.913370 -0.260237 0.313100
8789 1 -21.540526 -6.967807 7.474786 0 1.000000 1.000000 1.000000 -0.903367 -0.293082 0.313099
8790 1 -21.217715 -7.271712 8.084716 0 1.000000 1.000000 1.000000 -0.890231 -0.304133 0.339103
8791 1 -20.951286 -8.002641 8.089018 0 1.000000 1.000000 1.000000 -0.878486 -0.336557 0.339103
8792 1 -20.605070 -8.282941 8.675906 0 1.000000 1.000000 1.000000 -0.864732 -0.346447 0.363610
8793 1 -20.308956 -8.993387 8.666869 0 1.000000 1.000000 1.000000 -0.851355 -0.378129 0.363611
8794 1 -23.754038 -0.366073 2.012667 0 1.000000 1.000000 1.000000 -0.996367 -0.014611 0.083905
8795 1 -23.678308 -0.729797 2.690600 0 1.000000 1.000000 1.000000 -0.993049 -0.031570 0.113393
8796 1 -23.640370 -1.470385 2.718124 0 1.000000 1.000000 1.000000 -0.991662 -0.061220 0.113392
8797 1 -23.525842 -1.838841 3.401278 0 1.000000 1.000000 1.000000 -0.986629 -0.077748 0.143246
8798 1 -23.449761 -2.595317 3.431177 0 1.000000 1.000000 1.000000 -0.983702 -0.108680 0.143244
8799 1 -23.295558 -2.963775 4.115093 0 1.000000 1.000000 1.000000 -0.976976 -0.124611 0.173179
8800 1 -23.179546 -3.730455 4.144899 0 1.000000 1.000000 1.000000 -0.972370 -0.156543 0.173177
8801 1 -22.985920 -4.093890 4.824904 0 1.000000 1.000000 1.000000 -0.964027 -0.171718 0.202889
8802 1 -22.829277 -4.864555 4.851987 0 1.000000 1.000000 1.000000 -0.957646 -0.204329 0.202887
8803 1 -22.597672 -5.217893 5.523401 0 1.000000 1.000000 1.000000 -0.947816 -0.218607 0.232069
8804 1 -22.400898 -5.986068 5.545120 0 1.000000 1.000000 1.000000 -0.939612 -0.251543 0.232067
8805 1 -22.133922 -6.324449 6.203465 0 1.000000 1.000000 1.000000 -0.928470 -0.264809 0.260422
8806 1 -21.898718 -7.083705 6.217322 0 1.000000 1.000000 1.000000 -0.918450 -0.297708 0.260421
8807 1 -21.600024 -7.402742 6.858525 0 1.000000 1.000000 1.000000 -0.906210 -0.309877 0.287679
8808 1 -21.329206 -8.147002 6.862308 0 1.000000 1.000000 1.000000 -0.894436 -0.342381 0.287679
8809 1 -21.003279 -8.442996 7.482870 0 1.000000 1.000000 1.000000 -0.881339 -0.353401 0.313608
8810 1 -20.700600 -9.166803 7.474771 0 1.000000 1.000000 1.000000 -0.867922 -0.385178 0.313609
8811 1 -20.352494 -9.436893 8.071881 0 1.000000 1.000000 1.000000 -0.854218 -0.395032 0.338025
8812 1 -20.022405 -10.135615 8.050576 0 1.000000 1.000000 1.000000 -0.839311 -0.425787 0.338026
8813 1 -23.829522 -0.367264 0.673019 0 1.000000 1.000000 1.000000 -0.999500 -0.014584 0.028056
8814 1 -23.792037 -0.733337 1.351755 0 1.000000 1.000000 1.000000 -0.997868 -0.031834 0.056972
8815 1 -23.756269 -1.477634 1.365719 0 1.000000 1.000000 1.000000 -0.996485 -0.061413 0.056971
8816 1 -23.680331 -1.850958 2.054154 0 1.000000 1.000000 1.000000 -0.993160 -0.078405 0.086517
8817 1 -23.606497 -2.612712 2.072453 0 1.000000 1.000000 1.000000 -0.990240 -0.109268 0.086515
8818 1 -23.490455 -2.988616 2.766323 0 1.000000 1.000000 1.000000 -0.985197 -0.125827 0.116425
8819 1 -23.376326 -3.762176 2.786700 0 1.000000 1.000000 1.000000 -0.980599 -0.157708 0.116424
8820 1 -23.219619 -4.135556 3.481361 0 1.000000 1.000000 1.000000 -0.973862 -0.173662 0.146402
8821 1 -23.064037 -4.914629 3.501306 0 1.000000 1.000000 1.000000 -0.967487 -0.206244 0.146401
8822 1 -22.867321 -5.280192 4.191927 0 1.000000 1.000000 1.000000 -0.959137 -0.221431 0.176136
8823 1 -22.670341 -6.058112 4.208810 0 1.000000 1.000000 1.000000 -0.950933 -0.254367 0.176135
8824 1 -22.435524 -6.410651 4.890589 0 1.000000 1.000000 1.000000 -0.941103 -0.268645 0.205316
8825 1 -22.198475 -7.180698 4.901814 0 1.000000 1.000000 1.000000 -0.931075 -0.301570 0.205315
8826 1 -21.928644 -7.515372 5.570202 0 1.000000 1.000000 1.000000 -0.919943 -0.314825 0.233646
8827 1 -21.654071 -8.271099 5.573368 0 1.000000 1.000000 1.000000 -0.908152 -0.347376 0.233645
8828 1 -21.353326 -8.583692 6.224270 0 1.000000 1.000000 1.000000 -0.895932 -0.359526 0.260859
8829 1 -21.044836 -9.319226 6.217307 0 1.000000 1.000000 1.000000 -0.882490 -0.391362 0.260859
8830 1 -20.718038 -9.606343 6.847246 0 1.000000 1.000000 1.000000 -0.869421 -0.402359 0.286731
8831 1 -20.380072 -10.316631 6.828519 0 1.000000 1.000000 1.000000 -0.854485 -0.433175 0.286732
8832 1 -20.032546 -10.575812 7.434739 0 1.000000 1.000000 1.000000 -0.840815 -0.443006 0.311090
8833 1 -19.670094 -11.256786 7.403114 0 1.000000 1.000000 1.000000 -0.824574 -0.472545 0.311092
8834 1 -23.829522 -0.367264 -0.673019 0 1.000000 1.000000 1.000000 -0.999500 -0.014584 -0.028056
8835 1 -23.830312 -0.734528 0.000000 0 1.000000 1.000000 1.000000 -0.999490 -0.031923 0.000000
8836 1 -23.795282 -1.480074 0.000000 0 1.000000 1.000000 1.000000 -0.998108 -0.061477 -0.000000
8837 1 -23.758723 -1.857106 0.686982 0 1.000000 1.000000 1.000000 -0.996475 -0.078739 0.028935
8838 1 -23.686051 -2.621541 0.693144 0 1.000000 1.000000 1.000000 -0.993558 -0.109566 0.028935
8839 1 -23.609762 -3.003823 1.390179 0 1.000000 1.000000 1.000000 -0.990230 -0.126574 0.058510
8840 1 -23.496823 -3.781600 1.400525 0 1.000000 1.000000 1.000000 -0.985637 -0.158419 0.058510
8841 1 -23.379429 -4.164049 2.103177 0 1.000000 1.000000 1.000000 -0.980588 -0.174994 0.088449
8842 1 -23.224618 -4.948881 2.115395 0 1.000000 1.000000 1.000000 -0.974217 -0.207551 0.088448
8843 1 -23.065933 -5.326080 2.818863 0 1.000000 1.000000 1.000000 -0.967476 -0.223516 0.118448
8844 1 -22.868851 -6.111191 2.830415 0 1.000000 1.000000 1.000000 -0.959275 -0.256442 0.118447
8845 1 -22.669976 -6.477661 3.529741 0 1.000000 1.000000 1.000000 -0.950923 -0.271634 0.148190
8846 1 -22.431532 -7.256110 3.538014 0 1.000000 1.000000 1.000000 -0.940893 -0.304567 0.148189
8847 1 -22.194848 -7.606609 4.228308 0 1.000000 1.000000 1.000000 -0.931065 -0.318841 0.177362
8848 1 -21.917244 -8.371630 4.230770 0 1.000000 1.000000 1.000000 -0.919266 -0.351416 0.177362
8849 1 -21.646297 -8.701446 4.907443 0 1.000000 1.000000 1.000000 -0.908142 -0.364661 0.205670
8850 1 -21.332915 -9.446784 4.901801 0 1.000000 1.000000 1.000000 -0.894687 -0.396529 0.205670
8851 1 -21.032199 -9.751971 5.560764 0 1.000000 1.000000 1.000000 -0.882481 -0.408666 0.232852
8852 1 -20.687381 -10.472160 5.545093 0 1.000000 1.000000 1.000000 -0.867530 -0.439513 0.232853
8853 1 -20.362053 -10.749704 6.182910 0 1.000000 1.000000 1.000000 -0.854476 -0.450497 0.258695
8854 1 -19.990824 -11.440273 6.155742 0 1.000000 1.000000 1.000000 -0.838225 -0.480057 0.258696
8855 1 -19.646391 -11.688174 6.769726 0 1.000000 1.000000 1.000000 -0.824566 -0.489880 0.283033
8856 1 -19.254146 -12.345754 6.730095 0 1.000000 1.000000 1.000000 -0.807235 -0.517941 0.283036
8857 1 -23.754038 -0.366073 -2.012667 0 1.000000 1.000000 1.000000 -0.996367 -0.014611 -0.083905
8858 1 -23.792037 -0.733337 -1.351755 0 1.000000 1.000000 1.000000 -0.997868 -0.031834 -0.056972
8859 1 -23.756269 -1.477634 -1.365719 0 1.000000 1.000000 1.000000 -0.996485 -0.061413 -0.056971
8860 1 -23.758723 -1.857106 -0.686982 0 1.000000 1.000000 1.000000 -0.996475 -0.078739 -0.028935
8861 1 -23.686051 -2.621541 -0.693144 0 1.000000 1.000000 1.000000 -0.993558 -0.109566 -0.028935
8862 1 -23.649936 -3.008943 0.000000 0 1.000000 1.000000 1.000000 -0.991925 -0.126826 0.000000
8863 1 -23.537403 -3.788142 0.000000 0 1.000000 1.000000 1.000000 -0.987334 -0.158658 0.000000
8864 1 -23.460578 -4.178518 0.703490 0 1.000000 1.000000 1.000000 -0.984004 -0.175672 0.029586
8865 1 -23.306174 -4.966278 0.707605 0 1.000000 1.000000 1.000000 -0.977636 -0.208213 0.029586
8866 1 -23.187607 -5.354192 1.416858 0 1.000000 1.000000 1.000000 -0.972585 -0.224796 0.059538
8867 1 -22.990484 -6.143715 1.422726 0 1.000000 1.000000 1.000000 -0.964386 -0.257712 0.059537
8868 1 -22.830414 -6.523516 2.132815 0 1.000000 1.000000 1.000000 -0.957643 -0.273682 0.089545
8869 1 -22.591034 -7.307721 2.137885 0 1.000000 1.000000 1.000000 -0.947612 -0.306614 0.089544
8870 1 -22.391027 -7.673846 2.843758 0 1.000000 1.000000 1.000000 -0.939261 -0.321806 0.119287
8871 1 -22.111197 -8.445720 2.845444 0 1.000000 1.000000 1.000000 -0.927458 -0.354389 0.119287
8872 1 -21.874097 -8.793005 3.542161 0 1.000000 1.000000 1.000000 -0.917634 -0.368660 0.148451
8873 1 -21.556891 -9.545958 3.538003 0 1.000000 1.000000 1.000000 -0.904173 -0.400541 0.148451
8874 1 -21.286656 -9.869921 4.220970 0 1.000000 1.000000 1.000000 -0.893055 -0.413781 0.176745
8875 1 -20.936230 -10.598101 4.208786 0 1.000000 1.000000 1.000000 -0.878099 -0.444639 0.176746
8876 1 -20.637672 -10.895153 4.873946 0 1.000000 1.000000 1.000000 -0.865897 -0.456771 0.203917
8877 1 -20.258995 -11.593689 4.851949 0 1.000000 1.000000 1.000000 -0.849647 -0.486330 0.203919
8878 1 -19.937475 -11.861265 5.495927 0 1.000000 1.000000 1.000000 -0.836593 -0.497315 0.229759
8879 1 -19.536012 -12.526410 5.462801 0 1.000000 1.000000 1.000000 -0.819275 -0.525355 0.229762
8880 1 -19.197115 -12.762998 6.082984 0 1.000000 1.000000 1.000000 -0.805604 -0.535188 0.254118
8881 1 -18.778508 -13.392178 6.037909 0 1.000000 1.000000 1.000000 -0.787455 -0.561549 0.254121
8882 1 -23.605194 -0.363724 -3.333444 0 1.000000 1.000000 1.000000 -0.990187 -0.014662 -0.138976
8883 1 -23.678308 -0.729797 -2.690600 0 1.000000 1.000000 1.000000 -0.993049 -0.031570 -0.113393
8884 1 -23.640370 -1.470385 -2.718124 0 1.000000 1.000000 1.000000 -0.991662 -0.061220 -0.113392
8885 1 -23.680331 -1.850958 -2.054154 0 1.000000 1.000000 1.000000 -0.993160 -0.078405 -0.086517
8886 1 -23.606497 -2.612712 -2.072453 0 1.000000 1.000000 1.000000 -0.990240 -0.109268 -0.086515
8887 1 -23.609762 -3.003823 -1.390179 0 1.000000 1.000000 1.000000 -0.990230 -0.126574 -0.058510
8888 1 -23.496823 -3.781600 -1.400525 0 1.000000 1.000000 1.000000 -0.985637 -0.158419 -0.058510
8889 1 -23.460578 -4.178518 -0.703490 0 1.000000 1.000000 1.000000 -0.984004 -0.175672 -0.029586
8890 1 -23.306174 -4.966278 -0.707605 0 1.000000 1.000000 1.000000 -0.977636 -0.208213 -0.029586
8891 1 -23.228594 -5.363662 0.000000 0 1.000000 1.000000 1.000000 -0.974306 -0.225227 0.000000
8892 1 -23.031461 -6.154672 0.000000 0 1.000000 1.000000 1.000000 -0.966108 -0.258140 -0.000000
8893 1 -22.911918 -6.546811 0.713473 0 1.000000 1.000000 1.000000 -0.961057 -0.274724 0.029955
8894 1 -22.672068 -7.333943 0.715182 0 1.000000 1.000000 1.000000 -0.951027 -0.307654 0.029955
8895 1 -22.511255 -7.715052 1.429505 0 1.000000 1.000000 1.000000 -0.944284 -0.323625 0.059964
8896 1 -22.230063 -8.491127 1.430361 0 1.000000 1.000000 1.000000 -0.932480 -0.356209 0.059964
8897 1 -22.030012 -8.855671 2.140427 0 1.000000 1.000000 1.000000 -0.924129 -0.371400 0.089704
8898 1 -21.710179 -9.613832 2.137879 0 1.000000 1.000000 1.000000 -0.910667 -0.403284 0.089704
8899 1 -21.474158 -9.956834 2.838737 0 1.000000 1.000000 1.000000 -0.900844 -0.417554 0.118865
8900 1 -21.119568 -10.690887 2.830398 0 1.000000 1.000000 1.000000 -0.885888 -0.448412 0.118865
8901 1 -20.851875 -11.008191 3.517480 0 1.000000 1.000000 1.000000 -0.874770 -0.461652 0.147159
8902 1 -20.467343 -11.712881 3.501276 0 1.000000 1.000000 1.000000 -0.858526 -0.491200 0.147160
8903 1 -20.173021 -12.001327 4.170585 0 1.000000 1.000000 1.000000 -0.846319 -0.503337 0.174342
8904 1 -19.763990 -12.672526 4.144854 0 1.000000 1.000000 1.000000 -0.829020 -0.531347 0.174344
8905 1 -19.448501 -12.930034 4.793091 0 1.000000 1.000000 1.000000 -0.815951 -0.542345 0.200215
8906 1 -19.020707 -13.564819 4.756647 0 1.000000 1.000000 1.000000 -0.797842 -0.568649 0.200217
8907 1 -18.689611 -13.790375 5.381281 0 1.000000 1.000000 1.000000 -0.784138 -0.578506 0.224632
8908 1 -18.248774 -14.387012 5.333425 0 1.000000 1.000000 1.000000 -0.765463 -0.602997 0.224635
8909 1 -23.387074 -0.360285 -4.623735 0 1.000000 1.000000 1.000000 -0.981129 -0.014732 -0.192790
8910 1 -23.492325 -0.724010 -4.004230 0 1.000000 1.000000 1.000000 -0.985168 -0.031141 -0.168741
8911 1 -23.450911 -1.458538 -4.044540 0 1.000000 1.000000 1.000000 -0.983778 -0.060901 -0.168738
8912 1 -23.525842 -1.838841 -3.401278 0 1.000000 1.000000 1.000000 -0.986629 -0.077748 -0.143246
8913 1 -23.449761 -2.595317 -3.431177 0 1.000000 1.000000 1.000000 -0.983702 -0.108680 -0.143244
8914 1 -23.490455 -2.988616 -2.766323 0 1.000000 1.000000 1.000000 -0.985197 -0.125827 -0.116425
8915 1 -23.376326 -3.762176 -2.786700 0 1.000000 1.000000 1.000000 -0.980599 -0.157708 -0.116424
8916 1 -23.379429 -4.164049 -2.103177 0 1.000000 1.000000 1.000000 -0.980588 -0.174994 -0.088449
8917 1 -23.224618 -4.948881 -2.115395 0 1.000000 1.000000 1.000000 -0.974217 -0.207551 -0.088448
8918 1 -23.187607 -5.354192 -1.416858 0 1.000000 1.000000 1.000000 -0.972585 -0.224796 -0.059538
8919 1 -22.990484 -6.143715 -1.422726 0 1.000000 1.000000 1.000000 -0.964386 -0.257712 -0.059537
8920 1 -22.911918 -6.546811 -0.713473 0 1.000000 1.000000 1.000000 -0.961057 -0.274724 -0.029955
8921 1 -22.672068 -7.333943 -0.715182 0 1.000000 1.000000 1.000000 -0.951027 -0.307654 -0.029955
8922 1 -22.551762 -7.728935 0.000000 0 1.000000 1.000000 1.000000 -0.945976 -0.324238 0.000000
8923 1 -22.270112 -8.506426 0.000000 0 1.000000 1.000000 1.000000 -0.934172 -0.356822 -0.000000
8924 1 -22.109227 -8.887509 0.716038 0 1.000000 1.000000 1.000000 -0.927429 -0.372793 0.030009
8925 1 -21.788057 -9.648315 0.715179 0 1.000000 1.000000 1.000000 -0.913967 -0.404677 0.030009
8926 1 -21.589061 -10.010095 1.426954 0 1.000000 1.000000 1.000000 -0.905616 -0.419868 0.059749
8927 1 -21.231903 -10.747740 1.422717 0 1.000000 1.000000 1.000000 -0.890662 -0.450722 0.059750
8928 1 -20.998431 -11.085529 2.125303 0 1.000000 1.000000 1.000000 -0.880838 -0.464994 0.088913
8929 1 -20.609858 -11.794411 2.115375 0 1.000000 1.000000 1.000000 -0.864602 -0.494528 0.088914
8930 1 -20.346462 -12.104458 2.804266 0 1.000000 1.000000 1.000000 -0.853478 -0.507775 0.117220
8931 1 -19.931795 -12.780075 2.786668 0 1.000000 1.000000 1.000000 -0.836198 -0.535754 0.117222
8932 1 -19.643644 -13.059697 3.457948 0 1.000000 1.000000 1.000000 -0.823977 -0.547905 0.144433
8933 1 -19.208621 -13.698764 3.431130 0 1.000000 1.000000 1.000000 -0.805907 -0.574154 0.144435
8934 1 -18.901173 -13.946379 4.081593 0 1.000000 1.000000 1.000000 -0.792808 -0.585177 0.170362
8935 1 -18.451623 -14.546844 4.044478 0 1.000000 1.000000 1.000000 -0.774200 -0.609582 0.170365
8936 1 -18.130320 -14.761921 4.671676 0 1.000000 1.000000 1.000000 -0.760445 -0.619475 0.194870
8937 1 -17.671870 -15.322883 4.623659 0 1.000000 1.000000 1.000000 -0.741541 -0.641983 0.194872
8938 1 -23.105422 -0.355848 -5.873269 0 1.000000 1.000000 1.000000 -0.969430 -0.014814 -0.244921
8939 1 -23.239146 -0.716133 -5.281490 0 1.000000 1.000000 1.000000 -0.974444 -0.030565 -0.222540
8940 1 -23.193149 -1.442422 -5.333499 0 1.000000 1.000000 1.000000 -0.973048 -0.060461 -0.222537
8941 1 -23.299663 -1.821102 -4.716055 0 1.000000 1.000000 1.000000 -0.977068 -0.076793 -0.198600
8942 1 -23.220391 -2.569863 -4.756707 0 1.000000 1.000000 1.000000 -0.974133 -0.107814 -0.198597
8943 1 -23.295558 -2.963775 -4.115093 0 1.000000 1.000000 1.000000 -0.976976 -0.124611 -0.173179
8944 1 -23.179546 -3.730455 -4.144899 0 1.000000 1.000000 1.000000 -0.972370 -0.156543 -0.173177
8945 1 -23.219619 -4.135556 -3.481361 0 1.000000 1.000000 1.000000 -0.973862 -0.173662 -0.146402
8946 1 -23.064037 -4.914629 -3.501306 0 1.000000 1.000000 1.000000 -0.967487 -0.206244 -0.146401
8947 1 -23.065933 -5.326080 -2.818863 0 1.000000 1.000000 1.000000 -0.967476 -0.223516 -0.118448
8948 1 -22.868851 -6.111191 -2.830415 0 1.000000 1.000000 1.000000 -0.959275 -0.256442 -0.118447
8949 1 -22.830414 -6.523516 -2.132815 0 1.000000 1.000000 1.000000 -0.957643 -0.273682 -0.089545
8950 1 -22.591034 -7.307721 -2.137885 0 1.000000 1.000000 1.000000 -0.947612 -0.306614 -0.089544
8951 1 -22.511255 -7.715052 -1.429505 0 1.000000 1.000000 1.000000 -0.944284 -0.323625 -0.059964
8952 1 -22.230063 -8.491127 -1.430361 0 1.000000 1.000000 1.000000 -0.932480 -0.356209 -0.059964
8953 1 -22.109227 -8.887509 -0.716038 0 1.000000 1.000000 1.000000 -0.927429 -0.372793 -0.030009
8954 1 -21.788057 -9.648315 -0.715179 0 1.000000 1.000000 1.000000 -0.913967 -0.404677 -0.030009
8955 1 -21.627773 -10.028039 -0.000000 0 1.000000 1.000000 1.000000 -0.907224 -0.420648 0.000000
8956 1 -21.269748 -10.766892 -0.000000 0 1.000000 1.000000 1.000000 -0.892271 -0.451500 0.000000
8957 1 -21.072875 -11.124813 0.710943 0 1.000000 1.000000 1.000000 -0.883920 -0.466692 0.029742
8958 1 -20.682239 -11.835818 0.707598 0 1.000000 1.000000 1.000000 -0.867688 -0.496218 0.029742
8959 1 -20.452695 -12.167625 1.409444 0 1.000000 1.000000 1.000000 -0.857861 -0.510494 0.058914
8960 1 -20.034549 -12.845931 1.400508 0 1.000000 1.000000 1.000000 -0.840595 -0.538451 0.058915
8961 1 -19.777045 -13.148333 2.088841 0 1.000000 1.000000 1.000000 -0.829461 -0.551708 0.087244
8962 1 -19.337029 -13.790292 2.072423 0 1.000000 1.000000 1.000000 -0.811421 -0.577913 0.087245
8963 1 -19.056757 -14.061102 2.743433 0 1.000000 1.000000 1.000000 -0.799180 -0.590085 0.114501
8964 1 -18.600719 -14.664321 2.718079 0 1.000000 1.000000 1.000000 -0.780627 -0.614419 0.114502
8965 1 -18.303033 -14.902448 3.368662 0 1.000000 1.000000 1.000000 -0.767490 -0.625474 0.140504
8966 1 -17.836721 -15.465733 3.333384 0 1.000000 1.000000 1.000000 -0.748675 -0.647876 0.140506
8967 1 -17.526861 -15.671091 3.961182 0 1.000000 1.000000 1.000000 -0.734856 -0.657816 0.165123
8968 1 -17.055663 -16.194322 3.915447 0 1.000000 1.000000 1.000000 -0.716007 -0.678283 0.165125
8969 1 -22.767241 -0.350525 -7.073459 0 1.000000 1.000000 1.000000 -0.955376 -0.014899 -0.295015
8970 1 -22.925325 -0.706373 -6.512793 0 1.000000 1.000000 1.000000 -0.961157 -0.029861 -0.274384
8971 1 -22.873879 -1.422465 -6.575180 0 1.000000 1.000000 1.000000 -0.959754 -0.059905 -0.274380
8972 1 -23.007977 -1.798228 -5.987665 0 1.000000 1.000000 1.000000 -0.964741 -0.075570 -0.252120
8973 1 -22.924761 -2.537059 -6.037976 0 1.000000 1.000000 1.000000 -0.961798 -0.106689 -0.252117
8974 1 -23.030661 -2.930014 -5.424463 0 1.000000 1.000000 1.000000 -0.965804 -0.122964 -0.228261
8975 1 -22.912202 -3.687361 -5.462854 0 1.000000 1.000000 1.000000 -0.961191 -0.154954 -0.228259
8976 1 -22.985920 -4.093890 -4.824904 0 1.000000 1.000000 1.000000 -0.964027 -0.171718 -0.202889
8977 1 -22.829277 -4.864555 -4.851987 0 1.000000 1.000000 1.000000 -0.957646 -0.204329 -0.202887
8978 1 -22.867321 -5.280192 -4.191927 0 1.000000 1.000000 1.000000 -0.959137 -0.221431 -0.176136
8979 1 -22.670341 -6.058112 -4.208810 0 1.000000 1.000000 1.000000 -0.950933 -0.254367 -0.176135
8980 1 -22.669976 -6.477661 -3.529741 0 1.000000 1.000000 1.000000 -0.950923 -0.271634 -0.148190
8981 1 -22.431532 -7.256110 -3.538014 0 1.000000 1.000000 1.000000 -0.940893 -0.304567 -0.148189
8982 1 -22.391027 -7.673846 -2.843758 0 1.000000 1.000000 1.000000 -0.939261 -0.321806 -0.119287
8983 1 -22.111197 -8.445720 -2.845444 0 1.000000 1.000000 1.000000 -0.927458 -0.354389 -0.119287
8984 1 -22.030012 -8.855671 -2.140427 0 1.000000 1.000000 1.000000 -0.924129 -0.371400 -0.089704
8985 1 -21.710179 -9.613832 -2.137879 0 1.000000 1.000000 1.000000 -0.910667 -0.403284 -0.089704
8986 1 -21.589061 -10.010095 -1.426954 0 1.000000 1.000000 1.000000 -0.905616 -0.419868 -0.059749
8987 1 -21.231903 -10.747740 -1.422717 0 1.000000 1.000000 1.000000 -0.890662 -0.450722 -0.059750
8988 1 -21.072875 -11.124813 -0.710943 0 1.000000 1.000000 1.000000 -0.883920 -0.466692 -0.029742
8989 1 -20.682239 -11.835818 -0.707598 0 1.000000 1.000000 1.000000 -0.867688 -0.496218 -0.029742
8990 1 -20.488476 -12.188901 -0.000000 0 1.000000 1.000000 1.000000 -0.859337 -0.511410 0.000000
8991 1 -20.069154 -12.868110 -0.000000 0 1.000000 1.000000 1.000000 -0.842076 -0.539359 0.000000
8992 1 -19.844770 -13.193332 0.698662 0 1.000000 1.000000 1.000000 -0.832245 -0.553640 0.029180
8993 1 -19.402205 -13.836749 0.693133 0 1.000000 1.000000 1.000000 -0.814221 -0.579821 0.029180
8994 1 -19.151968 -14.131307 1.378561 0 1.000000 1.000000 1.000000 -0.803078 -0.593090 0.057533
8995 1 -18.691927 -14.736186 1.365695 0 1.000000 1.000000 1.000000 -0.784561 -0.617377 0.057534
8996 1 -18.420952 -14.998389 2.034203 0 1.000000 1.000000 1.000000 -0.772297 -0.629571 0.084839
8997 1 -17.949214 -15.563212 2.012628 0 1.000000 1.000000 1.000000 -0.753547 -0.651897 0.084841
8998 1 -17.662669 -15.792428 2.661226 0 1.000000 1.000000 1.000000 -0.740367 -0.662987 0.110924
8999 1 -17.184746 -16.316806 2.630029 0 1.000000 1.000000 1.000000 -0.721622 -0.683343 0.110926
9000 1 -16.887601 -16.513342 3.256451 0 1.000000 1.000000 1.000000 -0.707733 -0.693332 0.135664
9001 1 -16.408528 -16.997851 3.215154 0 1.000000 1.000000 1.000000 -0.689201 -0.711756 0.135666
9002 1 -22.380353 -0.344442 -8.217600 0 1.000000 1.000000 1.000000 -0.939292 -0.014981 -0.342792
9003 1 -22.558470 -0.694967 -7.690401 0 1.000000 1.000000 1.000000 -0.945630 -0.029053 -0.323944
9004 1 -22.500973 -1.399161 -7.761693 0 1.000000 1.000000 1.000000 -0.944221 -0.059242 -0.323940
9005 1 -22.658297 -1.770810 -7.207138 0 1.000000 1.000000 1.000000 -0.949968 -0.074116 -0.303426
9006 1 -22.570603 -2.497766 -7.265844 0 1.000000 1.000000 1.000000 -0.947017 -0.105329 -0.303423
9007 1 -22.702969 -2.888252 -6.684198 0 1.000000 1.000000 1.000000 -0.951986 -0.120938 -0.281240
9008 1 -22.581666 -3.634085 -6.730152 0 1.000000 1.000000 1.000000 -0.947366 -0.152979 -0.281237
9009 1 -22.685000 -4.040241 -6.122321 0 1.000000 1.000000 1.000000 -0.951365 -0.169224 -0.257424
9010 1 -22.527112 -4.800107 -6.155784 0 1.000000 1.000000 1.000000 -0.944981 -0.201855 -0.257422
9011 1 -22.597672 -5.217893 -5.523401 0 1.000000 1.000000 1.000000 -0.947816 -0.218607 -0.232069
9012 1 -22.400898 -5.986068 -5.545120 0 1.000000 1.000000 1.000000 -0.939612 -0.251543 -0.232067
9013 1 -22.435524 -6.410651 -4.890589 0 1.000000 1.000000 1.000000 -0.941103 -0.268645 -0.205316
9014 1 -22.198475 -7.180698 -4.901814 0 1.000000 1.000000 1.000000 -0.931075 -0.301570 -0.205315
9015 1 -22.194848 -7.606609 -4.228308 0 1.000000 1.000000 1.000000 -0.931065 -0.318841 -0.177362
9016 1 -21.917244 -8.371630 -4.230770 0 1.000000 1.000000 1.000000 -0.919266 -0.351416 -0.177362
9017 1 -21.874097 -8.793005 -3.542161 0 1.000000 1.000000 1.000000 -0.917634 -0.368660 -0.148451
9018 1 -21.556891 -9.545958 -3.538003 0 1.000000 1.000000 1.000000 -0.904173 -0.400541 -0.148451
9019 1 -21.474158 -9.956834 -2.838737 0 1.000000 1.000000 1.000000 -0.900844 -0.417554 -0.118865
9020 1 -21.119568 -10.690887 -2.830398 0 1.000000 1.000000 1.000000 -0.885888 -0.448412 -0.118865
9021 1 -20.998431 -11.085529 -2.125303 0 1.000000 1.000000 1.000000 -0.880838 -0.464994 -0.088913
9022 1 -20.609858 -11.794411 -2.115375 0 1.000000 1.000000 1.000000 -0.864602 -0.494528 -0.088914
9023 1 -20.452695 -12.167625 -1.409444 0 1.000000 1.000000 1.000000 -0.857861 -0.510494 -0.058914
9024 1 -20.034549 -12.845931 -1.400508 0 1.000000 1.000000 1.000000 -0.840595 -0.538451 -0.058915
9025 1 -19.844770 -13.193332 -0.698662 0 1.000000 1.000000 1.000000 -0.832245 -0.553640 -0.029180
9026 1 -19.402205 -13.836749 -0.693133 0 1.000000 1.000000 1.000000 -0.814221 -0.579821 -0.029180
9027 1 -19.184022 -14.154943 -0.000000 0 1.000000 1.000000 1.000000 -0.804390 -0.594102 0.000000
9028 1 -18.722628 -14.760376 -0.000000 0 1.000000 1.000000 1.000000 -0.785885 -0.618372 0.000000
9029 1 -18.480770 -15.047059 0.680267 0 1.000000 1.000000 1.000000 -0.774734 -0.631650 0.028371
9030 1 -18.006263 -15.612646 0.673006 0 1.000000 1.000000 1.000000 -0.756018 -0.653935 0.028371
9031 1 -17.745682 -15.866595 1.336859 0 1.000000 1.000000 1.000000 -0.743734 -0.666149 0.055719
9032 1 -17.263615 -16.391641 1.321042 0 1.000000 1.000000 1.000000 -0.725054 -0.686434 0.055720
9033 1 -16.989224 -16.612635 1.965614 0 1.000000 1.000000 1.000000 -0.711835 -0.697558 0.081882
9034 1 -16.504755 -17.097464 1.940392 0 1.000000 1.000000 1.000000 -0.693409 -0.715877 0.081883
9035 1 -16.221205 -17.286143 2.563510 0 1.000000 1.000000 1.000000 -0.679453 -0.725914 0.106739
9036 1 -15.738929 -17.731916 2.528450 0 1.000000 1.000000 1.000000 -0.661465 -0.742341 0.106741
9037 1 -21.952952 -0.337731 -9.300909 0 1.000000 1.000000 1.000000 -0.921514 -0.015051 -0.388054
9038 1 -22.146780 -0.682173 -8.808535 0 1.000000 1.000000 1.000000 -0.928214 -0.028165 -0.370978
9039 1 -22.082897 -1.373041 -8.887196 0 1.000000 1.000000 1.000000 -0.926800 -0.058479 -0.370973
9040 1 -22.258973 -1.739504 -8.367553 0 1.000000 1.000000 1.000000 -0.933104 -0.072474 -0.352227
9041 1 -22.166494 -2.452937 -8.433300 0 1.000000 1.000000 1.000000 -0.930147 -0.103760 -0.352223
9042 1 -22.320800 -2.839550 -7.886146 0 1.000000 1.000000 1.000000 -0.935877 -0.118590 -0.331770
9043 1 -22.196430 -3.571998 -7.938533 0 1.000000 1.000000 1.000000 -0.931252 -0.150664 -0.331767
9044 1 -22.324931 -3.976048 -7.364185 0 1.000000 1.000000 1.000000 -0.936216 -0.166253 -0.309610
9045 1 -22.165726 -4.723032 -7.403158 0 1.000000 1.000000 1.000000 -0.929832 -0.198885 -0.309608
9046 1 -22.264572 -5.140936 -6.802588 0 1.000000 1.000000 1.000000 -0.933831 -0.215129 -0.285795
9047 1 -22.068156 -5.897102 -6.828549 0 1.000000 1.000000 1.000000 -0.925632 -0.248047 -0.285793
9048 1 -22.133922 -6.324449 -6.203465 0 1.000000 1.000000 1.000000 -0.928470 -0.264809 -0.260422
9049 1 -21.898718 -7.083705 -6.217322 0 1.000000 1.000000 1.000000 -0.918450 -0.297708 -0.260421
9050 1 -21.928644 -7.515372 -5.570202 0 1.000000 1.000000 1.000000 -0.919943 -0.314825 -0.233646
9051 1 -21.654071 -8.271099 -5.573368 0 1.000000 1.000000 1.000000 -0.908152 -0.347376 -0.233645
9052 1 -21.646297 -8.701446 -4.907443 0 1.000000 1.000000 1.000000 -0.908142 -0.364661 -0.205670
9053 1 -21.332915 -9.446784 -4.901801 0 1.000000 1.000000 1.000000 -0.894687 -0.396529 -0.205670
9054 1 -21.286656 -9.869921 -4.220970 0 1.000000 1.000000 1.000000 -0.893055 -0.413781 -0.176745
9055 1 -20.936230 -10.598101 -4.208786 0 1.000000 1.000000 1.000000 -0.878099 -0.444639 -0.176746
9056 1 -20.851875 -11.008191 -3.517480 0 1.000000 1.000000 1.000000 -0.874770 -0.461652 -0.147159
9057 1 -20.467343 -11.712881 -3.501276 0 1.000000 1.000000 1.000000 -0.858526 -0.491200 -0.147160
9058 1 -20.346462 -12.104458 -2.804266 0 1.000000 1.000000 1.000000 -0.853478 -0.507775 -0.117220
9059 1 -19.931795 -12.780075 -2.786668 0 1.000000 1.000000 1.000000 -0.836198 -0.535754 -0.117222
9060 1 -19.777045 -13.148333 -2.088841 0 1.000000 1.000000 1.000000 -0.829461 -0.551708 -0.087244
9061 1 -19.337029 -13.790292 -2.072423 0 1.000000 1.000000 1.000000 -0.811421 -0.577913 -0.087245
9062 1 -19.151968 -14.131307 -1.378561 0 1.000000 1.000000 1.000000 -0.803078 -0.593090 -0.057533
9063 1 -18.691927 -14.736186 -1.365695 0 1.000000 1.000000 1.000000 -0.784561 -0.617377 -0.057534
9064 1 -18.480770 -15.047059 -0.680267 0 1.000000 1.000000 1.000000 -0.774734 -0.631650 -0.028371
9065 1 -18.006263 -15.612646 -0.673006 0 1.000000 1.000000 1.000000 -0.756018 -0.653935 -0.028371
9066 1 -17.773614 -15.891550 -0.000000 0 1.000000 1.000000 1.000000 -0.744867 -0.667213 0.000000
9067 1 -17.290147 -16.416815 -0.000000 0 1.000000 1.000000 1.000000 -0.726209 -0.687474 0.000000
9068 1 -17.040728 -16.662957 0.657189 0 1.000000 1.000000 1.000000 -0.713912 -0.699700 0.027375
9069 1 -16.553506 -17.147930 0.648705 0 1.000000 1.000000 1.000000 -0.695542 -0.717964 0.027376
9070 1 -16.291923 -17.361443 1.287336 0 1.000000 1.000000 1.000000 -0.682290 -0.729114 0.053599
9071 1 -15.805665 -17.807048 1.269579 0 1.000000 1.000000 1.000000 -0.664400 -0.745453 0.053600
9072 1 -15.536221 -17.988842 1.887574 0 1.000000 1.000000 1.000000 -0.650386 -0.755531 0.078559
9073 1 -15.055038 -18.396705 1.860151 0 1.000000 1.000000 1.000000 -0.633131 -0.770048 0.078560
9074 1 -21.493216 -0.330521 -10.320443 0 1.000000 1.000000 1.000000 -0.902381 -0.015104 -0.430675
9075 1 -21.698618 -0.668251 -9.863352 0 1.000000 1.000000 1.000000 -0.909266 -0.027222 -0.415324
9076 1 -21.628259 -1.344646 -9.947855 0 1.000000 1.000000 1.000000 -0.907849 -0.057629 -0.415319
9077 1 -21.818711 -1.704993 -9.464072 0 1.000000 1.000000 1.000000 -0.914520 -0.070684 -0.398319
9078 1 -21.721354 -2.403564 -9.535486 0 1.000000 1.000000 1.000000 -0.911559 -0.102013 -0.398314
9079 1 -21.893061 -2.785046 -9.024357 0 1.000000 1.000000 1.000000 -0.917851 -0.115981 -0.379603
9080 1 -21.765572 -3.502565 -9.082005 0 1.000000 1.000000 1.000000 -0.913227 -0.148055 -0.379599
9081 1 -21.914635 -3.902904 -8.543335 0 1.000000 1.000000 1.000000 -0.918958 -0.162884 -0.359146
9082 1 -21.754154 -4.635258 -8.586887 0 1.000000 1.000000 1.000000 -0.912580 -0.195486 -0.359143
9083 1 -21.876744 -5.051336 -8.021057 0 1.000000 1.000000 1.000000 -0.917550 -0.211094 -0.336959
9084 1 -21.680889 -5.793561 -8.050605 0 1.000000 1.000000 1.000000 -0.909363 -0.243964 -0.336957
9085 1 -21.773454 -6.221423 -7.458666 0 1.000000 1.000000 1.000000 -0.913370 -0.260237 -0.313100
9086 1 -21.540526 -6.967807 -7.474786 0 1.000000 1.000000 1.000000 -0.903367 -0.293082 -0.313099
9087 1 -21.600024 -7.402742 -6.858525 0 1.000000 1.000000 1.000000 -0.906210 -0.309877 -0.287679
9088 1 -21.329206 -8.147002 -6.862308 0 1.000000 1.000000 1.000000 -0.894436 -0.342381 -0.287679
9089 1 -21.353326 -8.583692 -6.224270 0 1.000000 1.000000 1.000000 -0.895932 -0.359526 -0.260859
9090 1 -21.044836 -9.319226 -6.217307 0 1.000000 1.000000 1.000000 -0.882490 -0.391362 -0.260859
9091 1 -21.032199 -9.751971 -5.560764 0 1.000000 1.000000 1.000000 -0.882481 -0.408666 -0.232852
9092 1 -20.687381 -10.472160 -5.545093 0 1.000000 1.000000 1.000000 -0.867530 -0.439513 -0.232853
9093 1 -20.637672 -10.895153 -4.873946 0 1.000000 1.000000 1.000000 -0.865897 -0.456771 -0.203917
9094 1 -20.258995 -11.593689 -4.851949 0 1.000000 1.000000 1.000000 -0.849647 -0.486330 -0.203919
9095 1 -20.173021 -12.001327 -4.170585 0 1.000000 1.000000 1.000000 -0.846319 -0.503337 -0.174342
9096 1 -19.763990 -12.672526 -4.144854 0 1.000000 1.000000 1.000000 -0.829020 -0.531347 -0.174344
9097 1 -19.643644 -13.059697 -3.457948 0 1.000000 1.000000 1.000000 -0.823977 -0.547905 -0.144433
9098 1 -19.208621 -13.698764 -3.431130 0 1.000000 1.000000 1.000000 -0.805907 -0.574154 -0.144435
9099 1 -19.056757 -14.061102 -2.743433 0 1.000000 1.000000 1.000000 -0.799180 -0.590085 -0.114501
9100 1 -18.600719 -14.664321 -2.718079 0 1.000000 1.000000 1.000000 -0.780627 -0.614419 -0.114502
9101 1 -18.420952 -14.998389 -2.034203 0 1.000000 1.000000 1.000000 -0.772297 -0.629571 -0.084839
9102 1 -17.949214 -15.563212 -2.012628 0 1.000000 1.000000 1.000000 -0.753547 -0.651897 -0.084841
9103 1 -17.745682 -15.866595 -1.336859 0 1.000000 1.000000 1.000000 -0.743734 -0.666149 -0.055719
9104 1 -17.263615 -16.391641 -1.321042 0 1.000000 1.000000 1.000000 -0.725054 -0.686434 -0.055720
9105 1 -17.040728 -16.662957 -0.657189 0 1.000000 1.000000 1.000000 -0.713912 -0.699700 -0.027375
9106 1 -16.553506 -17.147930 -0.648705 0 1.000000 1.000000 1.000000 -0.695542 -0.717964 -0.027376
9107 1 -16.315702 -17.386762 -0.000000 0 1.000000 1.000000 1.000000 -0.683244 -0.730190 0.000000
9108 1 -15.828099 -17.832305 -0.000000 0 1.000000 1.000000 1.000000 -0.665387 -0.746499 -0.000000
9109 1 -15.579645 -18.039079 0.630948 0 1.000000 1.000000 1.000000 -0.652117 -0.757664 0.026258
9110 1 -15.095896 -18.446595 0.621731 0 1.000000 1.000000 1.000000 -0.634939 -0.772116 0.026259
9111 1 -14.840733 -18.622427 1.232939 0 1.000000 1.000000 1.000000 -0.620881 -0.782225 0.051294
9112 1 -14.364445 -18.993885 1.214150 0 1.000000 1.000000 1.000000 -0.604507 -0.794946 0.051294
9113 1 -21.008977 -0.322937 -11.274924 0 1.000000 1.000000 1.000000 -0.882217 -0.015134 -0.470600
9114 1 -21.222137 -0.653457 -10.852800 0 1.000000 1.000000 1.000000 -0.889132 -0.026244 -0.456898
9115 1 -21.145427 -1.314499 -10.941688 0 1.000000 1.000000 1.000000 -0.887713 -0.056701 -0.456893
9116 1 -21.346147 -1.667957 -10.493834 0 1.000000 1.000000 1.000000 -0.894580 -0.068786 -0.441582
9117 1 -21.244008 -2.350628 -10.569586 0 1.000000 1.000000 1.000000 -0.891620 -0.100116 -0.441578
9118 1 -21.428764 -2.725888 -10.095020 0 1.000000 1.000000 1.000000 -0.898291 -0.113171 -0.424577
9119 1 -21.298254 -3.427263 -10.156775 0 1.000000 1.000000 1.000000 -0.893674 -0.145205 -0.424573
9120 1 -21.463355 -3.822458 -9.654889 0 1.000000 1.000000 1.000000 -0.899978 -0.159199 -0.405826
9121 1 -21.301745 -4.538780 -9.702085 0 1.000000 1.000000 1.000000 -0.893615 -0.191731 -0.405823
9122 1 -21.443481 -4.951241 -9.172752 0 1.000000 1.000000 1.000000 -0.899362 -0.206604 -0.385308
9123 1 -21.248431 -5.677941 -9.205209 0 1.000000 1.000000 1.000000 -0.891198 -0.239387 -0.385306
9124 1 -21.363249 -6.104183 -8.648891 0 1.000000 1.000000 1.000000 -0.896186 -0.255049 -0.363044
9125 1 -21.133004 -6.835950 -8.666883 0 1.000000 1.000000 1.000000 -0.886210 -0.287804 -0.363043
9126 1 -21.217715 -7.271712 -8.084716 0 1.000000 1.000000 1.000000 -0.890231 -0.304133 -0.339103
9127 1 -20.951286 -8.002641 -8.089018 0 1.000000 1.000000 1.000000 -0.878486 -0.336557 -0.339103
9128 1 -21.003279 -8.442996 -7.482870 0 1.000000 1.000000 1.000000 -0.881339 -0.353401 -0.313608
9129 1 -20.700600 -9.166803 -7.474771 0 1.000000 1.000000 1.000000 -0.867922 -0.385178 -0.313609
9130 1 -20.718038 -9.606343 -6.847246 0 1.000000 1.000000 1.000000 -0.869421 -0.402359 -0.286731
9131 1 -20.380072 -10.316631 -6.828519 0 1.000000 1.000000 1.000000 -0.854485 -0.433175 -0.286732
9132 1 -20.362053 -10.749704 -6.182910 0 1.000000 1.000000 1.000000 -0.854476 -0.450497 -0.258695
9133 1 -19.990824 -11.440273 -6.155742 0 1.000000 1.000000 1.000000 -0.838225 -0.480057 -0.258696
9134 1 -19.937475 -11.861265 -5.495927 0 1.000000 1.000000 1.000000 -0.836593 -0.497315 -0.229759
9135 1 -19.536012 -12.526410 -5.462801 0 1.000000 1.000000 1.000000 -0.819275 -0.525355 -0.229762
9136 1 -19.448501 -12.930034 -4.793091 0 1.000000 1.000000 1.000000 -0.815951 -0.542345 -0.200215
9137 1 -19.020707 -13.564819 -4.756647 0 1.000000 1.000000 1.000000 -0.797842 -0.568649 -0.200217
9138 1 -18.901173 -13.946379 -4.081593 0 1.000000 1.000000 1.000000 -0.792808 -0.585177 -0.170362
9139 1 -18.451623 -14.546844 -4.044478 0 1.000000 1.000000 1.000000 -0.774200 -0.609582 -0.170365
9140 1 -18.303033 -14.902448 -3.368662 0 1.000000 1.000000 1.000000 -0.767490 -0.625474 -0.140504
9141 1 -17.836721 -15.465733 -3.333384 0 1.000000 1.000000 1.000000 -0.748675 -0.647876 -0.140506
9142 1 -17.662669 -15.792428 -2.661226 0 1.000000 1.000000 1.000000 -0.740367 -0.662987 -0.110924
9143 1 -17.184746 -16.316806 -2.630029 0 1.000000 1.000000 1.000000 -0.721622 -0.683343 -0.110926
9144 1 -16.989224 -16.612635 -1.965614 0 1.000000 1.000000 1.000000 -0.711835 -0.697558 -0.081882
9145 1 -16.504755 -17.097464 -1.940392 0 1.000000 1.000000 1.000000 -0.693409 -0.715877 -0.081883
9146 1 -16.291923 -17.361443 -1.287336 0 1.000000 1.000000 1.000000 -0.682290 -0.729114 -0.053599
9147 1 -15.805665 -17.807048 -1.269579 0 1.000000 1.000000 1.000000 -0.664400 -0.745453 -0.053600
9148 1 -15.579645 -18.039079 -0.630948 0 1.000000 1.000000 1.000000 -0.652117 -0.757664 -0.026258
9149 1 -15.095896 -18.446595 -0.621731 0 1.000000 1.000000 1.000000 -0.634939 -0.772116 -0.026259
9150 1 -14.860601 -18.647337 -0.000000 0 1.000000 1.000000 1.000000 -0.621667 -0.783281 -0.000000
9151 1 -14.383091 -19.018523 -0.000000 0 1.000000 1.000000 1.000000 -0.605338 -0.795969 -0.000000
9152 1 -14.142099 -19.189239 0.602943 0 1.000000 1.000000 1.000000 -0.591256 -0.806094 0.025076
9153 1 -13.673945 -19.526300 0.593408 0 1.000000 1.000000 1.000000 -0.575872 -0.817155 0.025077
9154 1 -20.507486 -0.315093 -12.164492 0 1.000000 1.000000 1.000000 -0.861323 -0.015138 -0.507833
9155 1 -20.724999 -0.638030 -11.776400 0 1.000000 1.000000 1.000000 -0.868137 -0.025251 -0.495682
9156 1 -20.642231 -1.283091 -11.868331 0 1.000000 1.000000 1.000000 -0.866719 -0.055708 -0.495677
9157 1 -20.849498 -1.629039 -11.455743 0 1.000000 1.000000 1.000000 -0.873634 -0.066818 -0.481974
9158 1 -20.742830 -2.295057 -11.534594 0 1.000000 1.000000 1.000000 -0.870679 -0.098100 -0.481969
9159 1 -20.936619 -2.663188 -11.096291 0 1.000000 1.000000 1.000000 -0.877565 -0.110217 -0.466618
9160 1 -20.803315 -3.347518 -11.161060 0 1.000000 1.000000 1.000000 -0.872961 -0.142164 -0.466614
9161 1 -20.980195 -3.736332 -10.696109 0 1.000000 1.000000 1.000000 -0.879663 -0.155276 -0.449537
9162 1 -20.817685 -4.435560 -10.746050 0 1.000000 1.000000 1.000000 -0.873322 -0.187692 -0.449533
9163 1 -20.974134 -4.842813 -10.253911 0 1.000000 1.000000 1.000000 -0.879661 -0.201761 -0.430684
9164 1 -20.780167 -5.552754 -10.288613 0 1.000000 1.000000 1.000000 -0.871530 -0.234412 -0.430681
9165 1 -20.912728 -5.975421 -9.769244 0 1.000000 1.000000 1.000000 -0.877312 -0.249370 -0.410048
9166 1 -20.685542 -6.691173 -9.788715 0 1.000000 1.000000 1.000000 -0.867377 -0.281992 -0.410046
9167 1 -20.791001 -7.125461 -9.242672 0 1.000000 1.000000 1.000000 -0.872393 -0.297739 -0.387663
9168 1 -20.529495 -7.841522 -9.247394 0 1.000000 1.000000 1.000000 -0.860692 -0.330042 -0.387662
9169 1 -20.605070 -8.282941 -8.675906 0 1.000000 1.000000 1.000000 -0.864732 -0.346447 -0.363610
9170 1 -20.308956 -8.993387 -8.666869 0 1.000000 1.000000 1.000000 -0.851355 -0.378129 -0.363611
9171 1 -20.352494 -9.436893 -8.071881 0 1.000000 1.000000 1.000000 -0.854218 -0.395032 -0.338025
9172 1 -20.022405 -10.135615 -8.050576 0 1.000000 1.000000 1.000000 -0.839311 -0.425787 -0.338026
9173 1 -20.032546 -10.575812 -7.434739 0 1.000000 1.000000 1.000000 -0.840815 -0.443006 -0.311090
9174 1 -19.670094 -11.256786 -7.403114 0 1.000000 1.000000 1.000000 -0.824574 -0.472545 -0.311092
9175 1 -19.646391 -11.688174 -6.769726 0 1.000000 1.000000 1.000000 -0.824566 -0.489880 -0.283033
9176 1 -19.254146 -12.345754 -6.730095 0 1.000000 1.000000 1.000000 -0.807235 -0.517941 -0.283036
9177 1 -19.197115 -12.762998 -6.082984 0 1.000000 1.000000 1.000000 -0.805604 -0.535188 -0.254118
9178 1 -18.778508 -13.392178 -6.037909 0 1.000000 1.000000 1.000000 -0.787455 -0.561549 -0.254121
9179 1 -18.689611 -13.790375 -5.381281 0 1.000000 1.000000 1.000000 -0.784138 -0.578506 -0.224632
9180 1 -18.248774 -14.387012 -5.333425 0 1.000000 1.000000 1.000000 -0.765463 -0.602997 -0.224635
9181 1 -18.130320 -14.761921 -4.671676 0 1.000000 1.000000 1.000000 -0.760445 -0.619475 -0.194870
9182 1 -17.671870 -15.322883 -4.623659 0 1.000000 1.000000 1.000000 -0.741541 -0.641983 -0.194872
9183 1 -17.526861 -15.671091 -3.961182 0 1.000000 1.000000 1.000000 -0.734856 -0.657816 -0.165123
9184 1 -17.055663 -16.194322 -3.915447 0 1.000000 1.000000 1.000000 -0.716007 -0.678283 -0.165125
9185 1 -16.887601 -16.513342 -3.256451 0 1.000000 1.000000 1.000000 -0.707733 -0.693332 -0.135664
9186 1 -16.408528 -16.997851 -3.215154 0 1.000000 1.000000 1.000000 -0.689201 -0.711756 -0.135666
9187 1 -16.221205 -17.286143 -2.563510 0 1.000000 1.000000 1.000000 -0.679453 -0.725914 -0.106739
9188 1 -15.738929 -17.731916 -2.528450 0 1.000000 1.000000 1.000000 -0.661465 -0.742341 -0.106741
9189 1 -15.536221 -17.988842 -1.887574 0 1.000000 1.000000 1.000000 -0.650386 -0.755531 -0.078559
9190 1 -15.055038 -18.396705 -1.860151 0 1.000000 1.000000 1.000000 -0.633131 -0.770048 -0.078560
9191 1 -14.840733 -18.622427 -1.232939 0 1.000000 1.000000 1.000000 -0.620881 -0.782225 -0.051294
9192 1 -14.364445 -18.993885 -1.214150 0 1.000000 1.000000 1.000000 -0.604507 -0.794946 -0.051294
9193 1 -14.142099 -19.189239 -0.602943 0 1.000000 1.000000 1.000000 -0.591256 -0.806094 -0.025076
9194 1 -13.673945 -19.526300 -0.593408 0 1.000000 1.000000 1.000000 -0.575872 -0.817155 -0.025077
9195 1 -13.446784 -19.692645 -0.000000 0 1.000000 1.000000 1.000000 -0.561789 -0.827281 0.000000
9196 1 -12.989417 -19.997655 0.000000 0 1.000000 1.000000 1.000000 -0.547465 -0.836829 -0.000000
9197 1 -12.674323 20.192393 -0.509831 0 1.000000 1.000000 1.000000 -0.532327 0.846185 -0.024494
9198 1 -12.390854 20.319294 -1.482677 0 1.000000 1.000000 1.000000 -0.520164 0.851585 -0.065062
9199 1 -12.808754 20.086969 -1.032354 0 1.000000 1.000000 1.000000 -0.536538 0.842886 -0.040856
9200 1 -13.351008 19.725886 -1.115930 0 1.000000 1.000000 1.000000 -0.560738 0.826508 -0.049563
9201 1 -12.069387 20.412309 -2.499330 0 1.000000 1.000000 1.000000 -0.506408 0.855575 -0.107435
9202 1 -12.513059 20.196041 -2.032898 0 1.000000 1.000000 1.000000 -0.524438 0.847390 -0.083038
9203 1 -13.068592 19.830928 -2.126904 0 1.000000 1.000000 1.000000 -0.548637 0.831012 -0.091744
9204 1 -13.488641 19.593098 -1.660259 0 1.000000 1.000000 1.000000 -0.565012 0.822314 -0.067540
9205 1 -14.033924 19.198158 -1.748944 0 1.000000 1.000000 1.000000 -0.589404 0.804281 -0.075733
9206 1 -11.707519 20.465585 -3.556247 0 1.000000 1.000000 1.000000 -0.490967 0.857910 -0.151466
9207 1 -12.177544 20.268368 -3.076190 0 1.000000 1.000000 1.000000 -0.510664 0.850343 -0.127041
9208 1 -12.745268 19.899363 -3.181665 0 1.000000 1.000000 1.000000 -0.534823 0.833991 -0.135732
9209 1 -13.192644 19.678191 -2.698810 0 1.000000 1.000000 1.000000 -0.552881 0.825794 -0.111299
9210 1 -13.751250 19.277632 -2.797414 0 1.000000 1.000000 1.000000 -0.577310 0.807733 -0.119504
9211 1 -14.172481 19.035429 -2.314192 0 1.000000 1.000000 1.000000 -0.593659 0.799049 -0.095340
9212 1 -14.717307 18.605434 -2.406611 0 1.000000 1.000000 1.000000 -0.618080 0.779350 -0.102913
9213 1 -11.303369 20.473242 -4.648437 0 1.000000 1.000000 1.000000 -0.473773 0.858341 -0.196950
9214 1 -11.799888 20.298022 -4.157938 0 1.000000 1.000000 1.000000 -0.495109 0.851497 -0.172683
9215 1 -12.378402 19.925213 -4.275849 0 1.000000 1.000000 1.000000 -0.519194 0.835195 -0.181348
9216 1 -12.853757 19.723771 -3.779632 0 1.000000 1.000000 1.000000 -0.538946 0.827607 -0.156856
9217 1 -13.424535 19.317790 -3.889049 0 1.000000 1.000000 1.000000 -0.563374 0.809546 -0.165060
9218 1 -13.874652 19.092823 -3.389685 0 1.000000 1.000000 1.000000 -0.581433 0.801349 -0.140627
9219 1 -14.432624 18.655634 -3.491206 0 1.000000 1.000000 1.000000 -0.605921 0.781595 -0.148221
9220 1 -14.854048 18.410448 -2.991353 0 1.000000 1.000000 1.000000 -0.622220 0.772938 -0.124131
9221 1 -15.394486 17.944793 -3.085769 0 1.000000 1.000000 1.000000 -0.646484 0.751600 -0.130981
9222 1 -10.855775 20.429642 -5.769390 0 1.000000 1.000000 1.000000 -0.454789 0.856631 -0.243620
9223 1 -11.378391 20.279167 -5.272327 0 1.000000 1.000000 1.000000 -0.477692 0.850609 -0.219716
9224 1 -11.965974 19.902584 -5.403509 0 1.000000 1.000000 1.000000 -0.501678 0.834373 -0.228344
9225 1 -12.469465 19.723851 -4.897530 0 1.000000 1.000000 1.000000 -0.523091 0.827504 -0.203990
9226 1 -13.050941 19.312634 -5.018563 0 1.000000 1.000000 1.000000 -0.547486 0.809467 -0.212183
9227 1 -13.530656 19.108015 -4.506299 0 1.000000 1.000000 1.000000 -0.567263 0.801870 -0.187661
9228 1 -14.100568 18.663929 -4.617641 0 1.000000 1.000000 1.000000 -0.591781 0.782091 -0.195263
9229 1 -14.552419 18.436515 -4.101912 0 1.000000 1.000000 1.000000 -0.609816 0.773906 -0.170864
9230 1 -15.105594 17.962192 -4.204281 0 1.000000 1.000000 1.000000 -0.634167 0.752490 -0.177738
9231 1 -15.526237 17.715657 -3.687990 0 1.000000 1.000000 1.000000 -0.650400 0.743869 -0.153748
9232 1 -16.058003 17.214487 -3.782316 0 1.000000 1.000000 1.000000 -0.674301 0.720965 -0.159774
9233 1 -10.364489 20.329695 -6.911100 0 1.000000 1.000000 1.000000 -0.434015 0.852563 -0.291147
9234 1 -10.912179 20.206355 -6.411984 0 1.000000 1.000000 1.000000 -0.458363 0.847451 -0.267825
9235 1 -11.506805 19.825966 -6.557073 0 1.000000 1.000000 1.000000 -0.482235 0.831292 -0.276411
9236 1 -12.037983 19.672670 -6.045662 0 1.000000 1.000000 1.000000 -0.505231 0.825246 -0.252410
9237 1 -12.628357 19.256388 -6.178962 0 1.000000 1.000000 1.000000 -0.529568 0.807251 -0.260583
9238 1 -13.137824 19.075084 -5.657843 0 1.000000 1.000000 1.000000 -0.551028 0.800368 -0.236177
9239 1 -13.718148 18.624432 -5.779615 0 1.000000 1.000000 1.000000 -0.575546 0.780589 -0.243779
9240 1 -14.201178 18.417896 -5.251678 0 1.000000 1.000000 1.000000 -0.595322 0.772992 -0.219258
9241 1 -14.765849 17.935345 -5.362513 0 1.000000 1.000000 1.000000 -0.619726 0.751531 -0.226146
9242 1 -15.218414 17.707056 -4.830845 0 1.000000 1.000000 1.000000 -0.637718 0.743364 -0.201804
9243 1 -15.762282 17.195937 -4.931625 0 1.000000 1.000000 1.000000 -0.661716 0.720367 -0.207855
9244 1 -16.181228 16.949904 -4.399386 0 1.000000 1.000000 1.000000 -0.677872 0.711787 -0.183980
9245 1 -16.699815 16.414248 -4.491220 0 1.000000 1.000000 1.000000 -0.701194 0.687438 -0.189094
9246 1 -9.830348 20.169210 -8.064191 0 1.000000 1.000000 1.000000 -0.411499 0.845960 -0.339147
9247 1 -10.401400 20.074868 -7.568055 0 1.000000 1.000000 1.000000 -0.437117 0.841828 -0.316628
9248 1 -11.000770 19.690582 -7.727416 0 1.000000 1.000000 1.000000 -0.460871 0.825749 -0.325171
9249 1 -11.558486 19.565021 -7.215549 0 1.000000 1.000000 1.000000 -0.485318 0.820616 -0.301753
9250 1 -12.155653 19.143829 -7.361550 0 1.000000 1.000000 1.000000 -0.509583 0.802675 -0.309901
9251 1 -12.694347 18.988492 -6.836373 0 1.000000 1.000000 1.000000 -0.532641 0.796612 -0.285837
9252 1 -13.283231 18.531640 -6.969020 0 1.000000 1.000000 1.000000 -0.557134 0.776853 -0.293431
9253 1 -13.797566 18.348883 -6.433381 0 1.000000 1.000000 1.000000 -0.578614 0.769963 -0.269003
9254 1 -14.372178 17.858634 -6.553080 0 1.000000 1.000000 1.000000 -0.603039 0.748482 -0.275897
9255 1 -14.857431 17.651633 -6.010149 0 1.000000 1.000000 1.000000 -0.622796 0.740893 -0.251401
9256 1 -15.412155 17.131201 -6.117677 0 1.000000 1.000000 1.000000 -0.646858 0.717834 -0.257466
9257 1 -15.864440 16.903794 -5.570821 0 1.000000 1.000000 1.000000 -0.664797 0.709692 -0.233199
9258 1 -16.394299 16.357199 -5.667271 0 1.000000 1.000000 1.000000 -0.688214 0.685243 -0.238334
9259 1 -16.810727 16.113685 -5.119910 0 1.000000 1.000000 1.000000 -0.704291 0.676706 -0.214577
9260 1 -17.311585 15.545551 -5.206613 0 1.000000 1.000000 1.000000 -0.726809 0.651087 -0.218709
9261 1 -9.255387 19.945231 -9.218181 0 1.000000 1.000000 1.000000 -0.387335 0.836693 -0.387190
9262 1 -9.847379 19.881060 -8.730403 0 1.000000 1.000000 1.000000 -0.413998 0.833591 -0.365693
9263 1 -10.448982 19.492748 -8.904067 0 1.000000 1.000000 1.000000 -0.437643 0.817585 -0.374196
9264 1 -11.031322 19.396613 -8.397215 0 1.000000 1.000000 1.000000 -0.463357 0.813438 -0.351594
9265 1 -11.632912 18.970663 -8.556070 0 1.000000 1.000000 1.000000 -0.487545 0.795553 -0.359714
9266 1 -12.199528 18.843440 -8.032271 0 1.000000 1.000000 1.000000 -0.512060 0.790406 -0.336233
9267 1 -12.794825 18.380795 -8.176017 0 1.000000 1.000000 1.000000 -0.536514 0.770678 -0.343814
9268 1 -13.339834 18.224332 -7.637942 0 1.000000 1.000000 1.000000 -0.559606 0.764607 -0.319715
9269 1 -13.922521 17.727005 -7.766737 0 1.000000 1.000000 1.000000 -0.584030 0.743126 -0.326608
9270 1 -14.440529 17.544065 -7.217514 0 1.000000 1.000000 1.000000 -0.605510 0.736236 -0.302181
9271 1 -15.004566 17.015100 -7.331971 0 1.000000 1.000000 1.000000 -0.629607 0.713144 -0.308255
9272 1 -15.490938 16.809237 -6.775065 0 1.000000 1.000000 1.000000 -0.649333 0.705567 -0.283799
9273 1 -16.030856 16.252584 -6.876205 0 1.000000 1.000000 1.000000 -0.672814 0.681051 -0.288948
9274 1 -16.481931 16.027951 -6.315267 0 1.000000 1.000000 1.000000 -0.690697 0.672935 -0.264757
9275 1 -16.993085 15.448270 -6.404442 0 1.000000 1.000000 1.000000 -0.713299 0.647221 -0.268905
9276 1 -17.406310 15.209384 -5.843149 0 1.000000 1.000000 1.000000 -0.729304 0.638722 -0.245257
9277 1 -17.885050 14.611806 -5.921943 0 1.000000 1.000000 1.000000 -0.750801 0.612059 -0.248358
9278 1 -8.642894 19.656332 -10.361860 0 1.000000 1.000000 1.000000 -0.361667 0.824700 -0.434817
9279 1 -9.252718 19.622696 -9.887933 0 1.000000 1.000000 1.000000 -0.389106 0.822649 -0.414543
9280 1 -9.853905 19.230215 -10.075551 0 1.000000 1.000000 1.000000 -0.412664 0.806702 -0.423013
9281 1 -10.458177 19.164438 -9.579462 0 1.000000 1.000000 1.000000 -0.439408 0.803590 -0.401452
9282 1 -11.061619 18.733889 -9.750997 0 1.000000 1.000000 1.000000 -0.463526 0.785757 -0.409548
9283 1 -11.654014 18.636249 -9.234456 0 1.000000 1.000000 1.000000 -0.489304 0.781600 -0.386890
9284 1 -12.253324 18.168263 -9.389253 0 1.000000 1.000000 1.000000 -0.513713 0.761907 -0.394457
9285 1 -12.827518 18.040032 -8.854612 0 1.000000 1.000000 1.000000 -0.538268 0.756752 -0.370937
9286 1 -13.416136 17.536342 -8.992529 0 1.000000 1.000000 1.000000 -0.562678 0.735284 -0.377825
9287 1 -13.966129 17.379779 -8.442728 0 1.000000 1.000000 1.000000 -0.585782 0.729209 -0.353714
9288 1 -14.537649 16.843209 -8.564149 0 1.000000 1.000000 1.000000 -0.609893 0.706103 -0.359791
9289 1 -15.058077 16.661471 -8.002615 0 1.000000 1.000000 1.000000 -0.631359 0.699218 -0.335379
9290 1 -15.606575 16.095840 -8.108425 0 1.000000 1.000000 1.000000 -0.654878 0.674662 -0.340537
9291 1 -16.092982 15.892816 -7.538921 0 1.000000 1.000000 1.000000 -0.674569 0.667099 -0.316125
9292 1 -16.613304 15.302758 -7.630441 0 1.000000 1.000000 1.000000 -0.697227 0.641321 -0.320283
9293 1 -17.062333 15.082845 -7.056899 0 1.000000 1.000000 1.000000 -0.715060 0.633228 -0.296162
9294 1 -17.550322 14.473567 -7.135781 0 1.000000 1.000000 1.000000 -0.736622 0.606485 -0.299273
9295 1 -17.959814 14.241415 -6.562118 0 1.000000 1.000000 1.000000 -0.752568 0.598017 -0.275713
9296 1 -18.412436 13.618423 -6.630227 0 1.000000 1.000000 1.000000 -0.772844 0.570579 -0.277762
9297 1 -7.997359 19.302830 -11.483768 0 1.000000 1.000000 1.000000 -0.334689 0.809990 -0.481559
9298 1 -8.621303 19.299209 -11.029039 0 1.000000 1.000000 1.000000 -0.362598 0.808980 -0.462680
9299 1 -9.219381 18.902439 -11.229859 0 1.000000 1.000000 1.000000 -0.386100 0.793072 -0.471130
9300 1 -9.842158 18.867080 -10.750297 0 1.000000 1.000000 1.000000 -0.413592 0.791016 -0.450815
9301 1 -10.444764 18.432125 -10.933971 0 1.000000 1.000000 1.000000 -0.437658 0.773222 -0.458893
9302 1 -11.059952 18.364710 -10.430758 0 1.000000 1.000000 1.000000 -0.464452 0.770105 -0.437291
9303 1 -11.660696 17.891895 -10.596251 0 1.000000 1.000000 1.000000 -0.488822 0.750444 -0.444845
9304 1 -12.261673 17.793088 -10.071286 0 1.000000 1.000000 1.000000 -0.514636 0.746281 -0.422154
9305 1 -12.853851 17.283846 -10.218106 0 1.000000 1.000000 1.000000 -0.539025 0.724831 -0.429036
9306 1 -13.434120 17.155332 -9.673989 0 1.000000 1.000000 1.000000 -0.563599 0.719672 -0.405497
9307 1 -14.011041 16.612229 -9.802232 0 1.000000 1.000000 1.000000 -0.587709 0.696566 -0.411574
9308 1 -14.564578 16.456670 -9.242192 0 1.000000 1.000000 1.000000 -0.610814 0.690492 -0.387463
9309 1 -15.119920 15.883338 -9.352544 0 1.000000 1.000000 1.000000 -0.634351 0.665917 -0.392624
9310 1 -15.641489 15.704247 -8.780312 0 1.000000 1.000000 1.000000 -0.655800 0.659037 -0.368234
9311 1 -16.169620 15.105227 -8.873996 0 1.000000 1.000000 1.000000 -0.678490 0.633222 -0.372398
9312 1 -16.655029 14.906763 -8.293629 0 1.000000 1.000000 1.000000 -0.698150 0.625671 -0.348027
9313 1 -17.151278 14.287271 -8.372310 0 1.000000 1.000000 1.000000 -0.719752 0.598878 -0.351143
9314 1 -17.597543 14.073988 -7.788004 0 1.000000 1.000000 1.000000 -0.737546 0.590802 -0.327076
9315 1 -18.058378 13.439638 -7.853662 0 1.000000 1.000000 1.000000 -0.757862 0.563310 -0.329129
9316 1 -18.463779 13.216225 -7.269548 0 1.000000 1.000000 1.000000 -0.773770 0.554862 -0.305627
9317 1 -18.886882 12.572735 -7.324341 0 1.000000 1.000000 1.000000 -0.792651 0.526955 -0.306633
9318 1 -7.324341 18.886882 -12.572735 0 1.000000 1.000000 1.000000 -0.306633 0.792651 -0.526955
9319 1 -7.958217 18.911863 -12.142138 0 1.000000 1.000000 1.000000 -0.334686 0.792643 -0.509610
9320 1 -8.550551 18.510750 -12.355009 0 1.000000 1.000000 1.000000 -0.358168 0.776748 -0.518052
9321 1 -9.187771 18.504947 -11.897459 0 1.000000 1.000000 1.000000 -0.386096 0.775738 -0.499160
9322 1 -9.786835 18.065840 -12.092361 0 1.000000 1.000000 1.000000 -0.410134 0.757964 -0.507228
9323 1 -10.421051 18.028376 -11.608435 0 1.000000 1.000000 1.000000 -0.437654 0.755906 -0.486893
9324 1 -11.020559 17.551315 -11.783942 0 1.000000 1.000000 1.000000 -0.461997 0.736268 -0.494437
9325 1 -11.645016 17.482248 -11.274970 0 1.000000 1.000000 1.000000 -0.488817 0.733148 -0.472814
9326 1 -12.238228 16.968363 -11.430207 0 1.000000 1.000000 1.000000 -0.513186 0.711715 -0.479689
9327 1 -12.846086 16.868768 -10.898307 0 1.000000 1.000000 1.000000 -0.539019 0.707549 -0.456982
9328 1 -13.426129 16.320340 -11.033034 0 1.000000 1.000000 1.000000 -0.563122 0.684450 -0.463057
9329 1 -14.010816 16.192316 -10.481075 0 1.000000 1.000000 1.000000 -0.587703 0.679289 -0.439513
9330 1 -14.571047 15.612742 -10.595714 0 1.000000 1.000000 1.000000 -0.611246 0.654708 -0.444675
9331 1 -15.126615 15.459324 -10.027223 0 1.000000 1.000000 1.000000 -0.634344 0.648635 -0.420571
9332 1 -15.660977 14.852988 -10.122833 0 1.000000 1.000000 1.000000 -0.657051 0.622801 -0.424738
9333 1 -16.182413 14.677983 -9.541839 0 1.000000 1.000000 1.000000 -0.678483 0.615927 -0.400367
9334 1 -16.685743 14.050039 -9.620034 0 1.000000 1.000000 1.000000 -0.700107 0.589108 -0.403487
9335 1 -17.169199 13.857792 -9.030872 0 1.000000 1.000000 1.000000 -0.719745 0.581564 -0.379144
9336 1 -17.637454 13.213891 -9.093692 0 1.000000 1.000000 1.000000 -0.740081 0.554046 -0.381199
9337 1 -18.080369 13.009020 -8.500789 0 1.000000 1.000000 1.000000 -0.757855 0.545978 -0.357161
9338 1 -18.510750 12.355009 -8.550551 0 1.000000 1.000000 1.000000 -0.776748 0.518052 -0.358168
9339 1 -18.911863 12.142138 -7.958217 0 1.000000 1.000000 1.000000 -0.792643 0.509610 -0.334686
9340 1 -19.302830 11.483768 -7.997359 0 1.000000 1.000000 1.000000 -0.809990 0.481559 -0.334689
9341 1 -6.630227 18.412436 -13.618423 0 1.000000 1.000000 1.000000 -0.277762 0.772844 -0.570579
9342 1 -7.269548 18.463779 -13.216225 0 1.000000 1.000000 1.000000 -0.305627 0.773770 -0.554862
9343 1 -7.853662 18.058378 -13.439638 0 1.000000 1.000000 1.000000 -0.329129 0.757862 -0.563310
9344 1 -8.500789 18.080369 -13.009020 0 1.000000 1.000000 1.000000 -0.357161 0.757855 -0.545978
9345 1 -9.093692 17.637454 -13.213891 0 1.000000 1.000000 1.000000 -0.381199 0.740081 -0.554046
9346 1 -9.742518 17.628729 -12.754783 0 1.000000 1.000000 1.000000 -0.409126 0.739071 -0.535154
9347 1 -10.338129 17.148088 -12.939302 0 1.000000 1.000000 1.000000 -0.433460 0.719441 -0.542695
9348 1 -10.981954 17.108138 -12.452387 0 1.000000 1.000000 1.000000 -0.460989 0.717382 -0.522352
9349 1 -11.573609 16.590614 -12.615287 0 1.000000 1.000000 1.000000 -0.485347 0.695960 -0.529224
9350 1 -12.205426 16.519905 -12.102078 0 1.000000 1.000000 1.000000 -0.512178 0.692838 -0.507591
9351 1 -12.786183 15.967482 -12.242745 0 1.000000 1.000000 1.000000 -0.536274 0.669746 -0.513664
9352 1 -13.399029 15.867511 -11.705600 0 1.000000 1.000000 1.000000 -0.562114 0.665579 -0.490951
9353 1 -13.962027 15.283313 -11.824141 0 1.000000 1.000000 1.000000 -0.585657 0.640998 -0.496112
9354 1 -14.549359 15.156568 -11.266214 0 1.000000 1.000000 1.000000 -0.610238 0.635837 -0.472569
9355 1 -15.088188 14.544764 -11.363457 0 1.000000 1.000000 1.000000 -0.632950 0.609997 -0.476736
9356 1 -15.644239 14.394602 -10.788568 0 1.000000 1.000000 1.000000 -0.656042 0.603925 -0.452640
9357 1 -16.153290 13.760216 -10.866004 0 1.000000 1.000000 1.000000 -0.677675 0.577095 -0.455761
9358 1 -16.673357 13.590657 -10.278465 0 1.000000 1.000000 1.000000 -0.699097 0.570223 -0.431403
9359 1 -17.148088 12.939302 -10.338129 0 1.000000 1.000000 1.000000 -0.719441 0.542695 -0.433460
9360 1 -17.628729 12.754783 -9.742518 0 1.000000 1.000000 1.000000 -0.739071 0.535154 -0.409126
9361 1 -18.065840 12.092361 -9.786835 0 1.000000 1.000000 1.000000 -0.757964 0.507228 -0.410134
9362 1 -18.504947 11.897459 -9.187771 0 1.000000 1.000000 1.000000 -0.775738 0.499160 -0.386096
9363 1 -18.902439 11.229859 -9.219381 0 1.000000 1.000000 1.000000 -0.793072 0.471130 -0.386100
9364 1 -19.299209 11.029039 -8.621303 0 1.000000 1.000000 1.000000 -0.808980 0.462680 -0.362598
9365 1 -19.656332 10.361860 -8.642894 0 1.000000 1.000000 1.000000 -0.824700 0.434817 -0.361667
9366 1 -5.921943 17.885050 -14.611806 0 1.000000 1.000000 1.000000 -0.248358 0.750801 -0.612059
9367 1 -6.562118 17.959814 -14.241415 0 1.000000 1.000000 1.000000 -0.275713 0.752568 -0.598017
9368 1 -7.135781 17.550322 -14.473567 0 1.000000 1.000000 1.000000 -0.299273 0.736622 -0.606485
9369 1 -7.788004 17.597543 -14.073988 0 1.000000 1.000000 1.000000 -0.327076 0.737546 -0.590802
9370 1 -8.372310 17.151278 -14.287271 0 1.000000 1.000000 1.000000 -0.351143 0.719752 -0.598878
9371 1 -9.030872 17.169199 -13.857792 0 1.000000 1.000000 1.000000 -0.379144 0.719745 -0.581564
9372 1 -9.620034 16.685743 -14.050039 0 1.000000 1.000000 1.000000 -0.403487 0.700107 -0.589108
9373 1 -10.278465 16.673357 -13.590657 0 1.000000 1.000000 1.000000 -0.431403 0.699097 -0.570223
9374 1 -10.866004 16.153290 -13.760216 0 1.000000 1.000000 1.000000 -0.455761 0.677675 -0.577095
9375 1 -11.517324 16.110497 -13.271760 0 1.000000 1.000000 1.000000 -0.483290 0.675617 -0.556752
9376 1 -12.096347 15.555507 -13.417629 0 1.000000 1.000000 1.000000 -0.507383 0.652528 -0.562823
9377 1 -12.733390 15.483201 -12.901823 0 1.000000 1.000000 1.000000 -0.534216 0.649406 -0.541188
9378 1 -13.296929 14.896121 -13.023753 0 1.000000 1.000000 1.000000 -0.557758 0.624826 -0.546350
9379 1 -13.912721 14.796203 -12.483216 0 1.000000 1.000000 1.000000 -0.583599 0.620659 -0.523636
9380 1 -14.454114 14.180941 -12.581748 0 1.000000 1.000000 1.000000 -0.606313 0.594818 -0.527803
9381 1 -15.042250 14.056247 -12.019917 0 1.000000 1.000000 1.000000 -0.630893 0.589657 -0.504261
9382 1 -15.555507 13.417629 -12.096347 0 1.000000 1.000000 1.000000 -0.652528 0.562823 -0.507383
9383 1 -16.110497 13.271760 -11.517324 0 1.000000 1.000000 1.000000 -0.675617 0.556752 -0.483290
9384 1 -16.590614 12.615287 -11.573609 0 1.000000 1.000000 1.000000 -0.695960 0.529224 -0.485347
9385 1 -17.108138 12.452387 -10.981954 0 1.000000 1.000000 1.000000 -0.717382 0.522352 -0.460989
9386 1 -17.551315 11.783942 -11.020559 0 1.000000 1.000000 1.000000 -0.736268 0.494437 -0.461997
9387 1 -18.028376 11.608435 -10.421051 0 1.000000 1.000000 1.000000 -0.755906 0.486893 -0.437654
9388 1 -18.432125 10.933971 -10.444764 0 1.000000 1.000000 1.000000 -0.773222 0.458893 -0.437658
9389 1 -18.867080 10.750297 -9.842158 0 1.000000 1.000000 1.000000 -0.791016 0.450815 -0.413592
9390 1 -19.230215 10.075551 -9.853905 0 1.000000 1.000000 1.000000 -0.806702 0.423013 -0.412664
9391 1 -19.622696 9.887933 -9.252718 0 1.000000 1.000000 1.000000 -0.822649 0.414543 -0.389106
9392 1 -19.945231 9.218181 -9.255387 0 1.000000 1.000000 1.000000 -0.836693 0.387190 -0.387335
9393 1 -5.206613 17.311585 -15.545551 0 1.000000 1.000000 1.000000 -0.218709 0.726809 -0.651087
9394 1 -5.843149 17.406310 -15.209384 0 1.000000 1.000000 1.000000 -0.245257 0.729304 -0.638722
9395 1 -6.404442 16.993085 -15.448270 0 1.000000 1.000000 1.000000 -0.268905 0.713299 -0.647221
9396 1 -7.056899 17.062333 -15.082845 0 1.000000 1.000000 1.000000 -0.296162 0.715060 -0.633228
9397 1 -7.630441 16.613304 -15.302758 0 1.000000 1.000000 1.000000 -0.320283 0.697227 -0.641321
9398 1 -8.293629 16.655029 -14.906763 0 1.000000 1.000000 1.000000 -0.348027 0.698150 -0.625671
9399 1 -8.873996 16.169620 -15.105227 0 1.000000 1.000000 1.000000 -0.372398 0.678490 -0.633222
9400 1 -9.541839 16.182413 -14.677983 0 1.000000 1.000000 1.000000 -0.400367 0.678483 -0.615927
9401 1 -10.122833 15.660977 -14.852988 0 1.000000 1.000000 1.000000 -0.424738 0.657051 -0.622801
9402 1 -10.788568 15.644239 -14.394602 0 1.000000 1.000000 1.000000 -0.452640 0.656042 -0.603925
9403 1 -11.363457 15.088188 -14.544764 0 1.000000 1.000000 1.000000 -0.476736 0.632950 -0.609997
9404 1 -12.019917 15.042250 -14.056247 0 1.000000 1.000000 1.000000 -0.504261 0.630893 -0.589657
9405 1 -12.581748 14.454114 -14.180941 0 1.000000 1.000000 1.000000 -0.527803 0.606313 -0.594818
9406 1 -13.221718 14.380292 -13.664254 0 1.000000 1.000000 1.000000 -0.554636 0.603192 -0.573183
9407 1 -13.763686 13.763686 -13.763686 0 1.000000 1.000000 1.000000 -0.577350 0.577350 -0.577350
9408 1 -14.380292 13.664254 -13.221718 0 1.000000 1.000000 1.000000 -0.603192 0.573183 -0.554636
9409 1 -14.896121 13.023753 -13.296929 0 1.000000 1.000000 1.000000 -0.624826 0.546350 -0.557758
9410 1 -15.483201 12.901823 -12.733390 0 1.000000 1.000000 1.000000 -0.649406 0.541188 -0.534216
9411 1 -15.967482 12.242745 -12.786183 0 1.000000 1.000000 1.000000 -0.669746 0.513664 -0.536274
9412 1 -16.519905 12.102078 -12.205426 0 1.000000 1.000000 1.000000 -0.692838 0.507591 -0.512178
9413 1 -16.968363 11.430207 -12.238228 0 1.000000 1.000000 1.000000 -0.711715 0.479689 -0.513186
9414 1 -17.482248 11.274970 -11.645016 0 1.000000 1.000000 1.000000 -0.733148 0.472814 -0.488817
9415 1 -17.891895 10.596251 -11.660696 0 1.000000 1.000000 1.000000 -0.750444 0.444845 -0.488822
9416 1 -18.364710 10.430758 -11.059952 0 1.000000 1.000000 1.000000 -0.770105 0.437291 -0.464452
9417 1 -18.733889 9.750997 -11.061619 0 1.000000 1.000000 1.000000 -0.785757 0.409548 -0.463526
9418 1 -19.164438 9.579462 -10.458177 0 1.000000 1.000000 1.000000 -0.803590 0.401452 -0.439408
9419 1 -19.492748 8.904067 -10.448982 0 1.000000 1.000000 1.000000 -0.817585 0.374196 -0.437643
9420 1 -19.881060 8.730403 -9.847379 0 1.000000 1.000000 1.000000 -0.833591 0.365693 -0.413998
9421 1 -20.169210 8.064191 -9.830348 0 1.000000 1.000000 1.000000 -0.845960 0.339147 -0.411499
9422 1 -4.491220 16.699815 -16.414248 0 1.000000 1.000000 1.000000 -0.189094 0.701194 -0.687438
9423 1 -5.119910 16.810727 -16.113685 0 1.000000 1.000000 1.000000 -0.214577 0.704291 -0.676706
9424 1 -5.667271 16.394299 -16.357199 0 1.000000 1.000000 1.000000 -0.238334 0.688214 -0.685243
9425 1 -6.315267 16.481931 -16.027951 0 1.000000 1.000000 1.000000 -0.264757 0.690697 -0.672935
9426 1 -6.876205 16.030856 -16.252584 0 1.000000 1.000000 1.000000 -0.288948 0.672814 -0.681051
9427 1 -7.538921 16.092982 -15.892816 0 1.000000 1.000000 1.000000 -0.316125 0.674569 -0.667099
9428 1 -8.108425 15.606575 -16.095840 0 1.000000 1.000000 1.000000 -0.340537 0.654878 -0.674662
9429 1 -8.780312 15.641489 -15.704247 0 1.000000 1.000000 1.000000 -0.368234 0.655800 -0.659037
9430 1 -9.352544 15.119920 -15.883338 0 1.000000 1.000000 1.000000 -0.392624 0.634351 -0.665917
9431 1 -10.027223 15.126615 -15.459324 0 1.000000 1.000000 1.000000 -0.420571 0.634344 -0.648635
9432 1 -10.595714 14.571047 -15.612742 0 1.000000 1.000000 1.000000 -0.444675 0.611246 -0.654708
9433 1 -11.266214 14.549359 -15.156568 0 1.000000 1.000000 1.000000 -0.472569 0.610238 -0.635837
9434 1 -11.824141 13.962027 -15.283313 0 1.000000 1.000000 1.000000 -0.496112 0.585657 -0.640998
9435 1 -12.483216 13.912721 -14.796203 0 1.000000 1.000000 1.000000 -0.523636 0.583599 -0.620659
9436 1 -13.023753 13.296929 -14.896121 0 1.000000 1.000000 1.000000 -0.546350 0.557758 -0.624826
9437 1 -13.664254 13.221718 -14.380292 0 1.000000 1.000000 1.000000 -0.573183 0.554636 -0.603192
9438 1 -14.180941 12.581748 -14.454114 0 1.000000 1.000000 1.000000 -0.594818 0.527803 -0.606313
9439 1 -14.796203 12.483216 -13.912721 0 1.000000 1.000000 1.000000 -0.620659 0.523636 -0.583599
9440 1 -15.283313 11.824141 -13.962027 0 1.000000 1.000000 1.000000 -0.640998 0.496112 -0.585657
9441 1 -15.867511 11.705600 -13.399029 0 1.000000 1.000000 1.000000 -0.665579 0.490951 -0.562114
9442 1 -16.320340 11.033034 -13.426129 0 1.000000 1.000000 1.000000 -0.684450 0.463057 -0.563122
9443 1 -16.868768 10.898307 -12.846086 0 1.000000 1.000000 1.000000 -0.707549 0.456982 -0.539019
9444 1 -17.283846 10.218106 -12.853851 0 1.000000 1.000000 1.000000 -0.724831 0.429036 -0.539025
9445 1 -17.793088 10.071286 -12.261673 0 1.000000 1.000000 1.000000 -0.746281 0.422154 -0.514636
9446 1 -18.168263 9.389253 -12.253324 0 1.000000 1.000000 1.000000 -0.761907 0.394457 -0.513713
9447 1 -18.636249 9.234456 -11.654014 0 1.000000 1.000000 1.000000 -0.781600 0.386890 -0.489304
9448 1 -18.970663 8.556070 -11.632912 0 1.000000 1.000000 1.000000 -0.795553 0.359714 -0.487545
9449 1 -19.396613 8.397215 -11.031322 0 1.000000 1.000000 1.000000 -0.813438 0.351594 -0.463357
9450 1 -19.690582 7.727416 -11.000770 0 1.000000 1.000000 1.000000 -0.825749 0.325171 -0.460871
9451 1 -20.074868 7.568055 -10.401400 0 1.000000 1.000000 1.000000 -0.841828 0.316628 -0.437117
9452 1 -20.329695 6.911100 -10.364489 0 1.000000 1.000000 1.000000 -0.852563 0.291147 -0.434015
9453 1 -3.782316 16.058003 -17.214487 0 1.000000 1.000000 1.000000 -0.159774 0.674301 -0.720965
9454 1 -4.399386 16.181228 -16.949904 0 1.000000 1.000000 1.000000 -0.183980 0.677872 -0.711787
9455 1 -4.931625 15.762282 -17.195937 0 1.000000 1.000000 1.000000 -0.207855 0.661716 -0.720367
9456 1 -5.570821 15.864440 -16.903794 0 1.000000 1.000000 1.000000 -0.233199 0.664797 -0.709692
9457 1 -6.117677 15.412155 -17.131201 0 1.000000 1.000000 1.000000 -0.257466 0.646858 -0.717834
9458 1 -6.775065 15.490938 -16.809237 0 1.000000 1.000000 1.000000 -0.283799 0.649333 -0.705567
9459 1 -7.331971 15.004566 -17.015100 0 1.000000 1.000000 1.000000 -0.308255 0.629607 -0.713144
9460 1 -8.002615 15.058077 -16.661471 0 1.000000 1.000000 1.000000 -0.335379 0.631359 -0.699218
9461 1 -8.564149 14.537649 -16.843209 0 1.000000 1.000000 1.000000 -0.359791 0.609893 -0.706103
9462 1 -9.242192 14.564578 -16.456670 0 1.000000 1.000000 1.000000 -0.387463 0.610814 -0.690492
9463 1 -9.802232 14.011041 -16.612229 0 1.000000 1.000000 1.000000 -0.411574 0.587709 -0.696566
9464 1 -10.481075 14.010816 -16.192316 0 1.000000 1.000000 1.000000 -0.439513 0.587703 -0.679289
9465 1 -11.033034 13.426129 -16.320340 0 1.000000 1.000000 1.000000 -0.463057 0.563122 -0.684450
9466 1 -11.705600 13.399029 -15.867511 0 1.000000 1.000000 1.000000 -0.490951 0.562114 -0.665579
9467 1 -12.242745 12.786183 -15.967482 0 1.000000 1.000000 1.000000 -0.513664 0.536274 -0.669746
9468 1 -12.901823 12.733390 -15.483201 0 1.000000 1.000000 1.000000 -0.541188 0.534216 -0.649406
9469 1 -13.417629 12.096347 -15.555507 0 1.000000 1.000000 1.000000 -0.562823 0.507383 -0.652528
9470 1 -14.056247 12.019917 -15.042250 0 1.000000 1.000000 1.000000 -0.589657 0.504261 -0.630893
9471 1 -14.544764 11.363457 -15.088188 0 1.000000 1.000000 1.000000 -0.609997 0.476736 -0.632950
9472 1 -15.156568 11.266214 -14.549359 0 1.000000 1.000000 1.000000 -0.635837 0.472569 -0.610238
9473 1 -15.612742 10.595714 -14.571047 0 1.000000 1.000000 1.000000 -0.654708 0.444675 -0.611246
9474 1 -16.192316 10.481075 -14.010816 0 1.000000 1.000000 1.000000 -0.679289 0.439513 -0.587703
9475 1 -16.612229 9.802232 -14.011041 0 1.000000 1.000000 1.000000 -0.696566 0.411574 -0.587709
9476 1 -17.155332 9.673989 -13.434120 0 1.000000 1.000000 1.000000 -0.719672 0.405497 -0.563599
9477 1 -17.536342 8.992529 -13.416136 0 1.000000 1.000000 1.000000 -0.735284 0.377825 -0.562678
9478 1 -18.040032 8.854612 -12.827518 0 1.000000 1.000000 1.000000 -0.756752 0.370937 -0.538268
9479 1 -18.380795 8.176017 -12.794825 0 1.000000 1.000000 1.000000 -0.770678 0.343814 -0.536514
9480 1 -18.843440 8.032271 -12.199528 0 1.000000 1.000000 1.000000 -0.790406 0.336233 -0.512060
9481 1 -19.143829 7.361550 -12.155653 0 1.000000 1.000000 1.000000 -0.802675 0.309901 -0.509583
9482 1 -19.565021 7.215549 -11.558486 0 1.000000 1.000000 1.000000 -0.820616 0.301753 -0.485318
9483 1 -19.825966 6.557073 -11.506805 0 1.000000 1.000000 1.000000 -0.831292 0.276411 -0.482235
9484 1 -20.206355 6.411984 -10.912179 0 1.000000 1.000000 1.000000 -0.847451 0.267825 -0.458363
9485 1 -20.429642 5.769390 -10.855775 0 1.000000 1.000000 1.000000 -0.856631 0.243620 -0.454789
9486 1 -3.085769 15.394486 -17.944793 0 1.000000 1.000000 1.000000 -0.130981 0.646484 -0.751600
9487 1 -3.687990 15.526237 -17.715657 0 1.000000 1.000000 1.000000 -0.153748 0.650400 -0.743869
9488 1 -4.204281 15.105594 -17.962192 0 1.000000 1.000000 1.000000 -0.177738 0.634167 -0.752490
9489 1 -4.830845 15.218414 -17.707056 0 1.000000 1.000000 1.000000 -0.201804 0.637718 -0.743364
9490 1 -5.362513 14.765849 -17.935345 0 1.000000 1.000000 1.000000 -0.226146 0.619726 -0.751531
9491 1 -6.010149 14.857431 -17.651633 0 1.000000 1.000000 1.000000 -0.251401 0.622796 -0.740893
9492 1 -6.553080 14.372178 -17.858634 0 1.000000 1.000000 1.000000 -0.275897 0.603039 -0.748482
9493 1 -7.217514 14.440529 -17.544065 0 1.000000 1.000000 1.000000 -0.302181 0.605510 -0.736236
9494 1 -7.766737 13.922521 -17.727005 0 1.000000 1.000000 1.000000 -0.326608 0.584030 -0.743126
9495 1 -8.442728 13.966129 -17.379779 0 1.000000 1.000000 1.000000 -0.353714 0.585782 -0.729209
9496 1 -8.992529 13.416136 -17.536342 0 1.000000 1.000000 1.000000 -0.377825 0.562678 -0.735284
9497 1 -9.673989 13.434120 -17.155332 0 1.000000 1.000000 1.000000 -0.405497 0.563599 -0.719672
9498 1 -10.218106 12.853851 -17.283846 0 1.000000 1.000000 1.000000 -0.429036 0.539025 -0.724831
9499 1 -10.898307 12.846086 -16.868768 0 1.000000 1.000000 1.000000 -0.456982 0.539019 -0.707549
9500 1 -11.430207 12.238228 -16.968363 0 1.000000 1.000000 1.000000 -0.479689 0.513186 -0.711715
9501 1 -12.102078 12.205426 -16.519905 0 1.000000 1.000000 1.000000 -0.507591 0.512178 -0.692838
9502 1 -12.615287 11.573609 -16.590614 0 1.000000 1.000000 1.000000 -0.529224 0.485347 -0.695960
9503 1 -13.271760 11.517324 -16.110497 0 1.000000 1.000000 1.000000 -0.556752 0.483290 -0.675617
9504 1 -13.760216 10.866004 -16.153290 0 1.000000 1.000000 1.000000 -0.577095 0.455761 -0.677675
9505 1 -14.394602 10.788568 -15.644239 0 1.000000 1.000000 1.000000 -0.603925 0.452640 -0.656042
9506 1 -14.852988 10.122833 -15.660977 0 1.000000 1.000000 1.000000 -0.622801 0.424738 -0.657051
9507 1 -15.459324 10.027223 -15.126615 0 1.000000 1.000000 1.000000 -0.648635 0.420571 -0.634344
9508 1 -15.883338 9.352544 -15.119920 0 1.000000 1.000000 1.000000 -0.665917 0.392624 -0.634351
9509 1 -16.456670 9.242192 -14.564578 0 1.000000 1.000000 1.000000 -0.690492 0.387463 -0.610814
9510 1 -16.843209 8.564149 -14.537649 0 1.000000 1.000000 1.000000 -0.706103 0.359791 -0.609893
9511 1 -17.379779 8.442728 -13.966129 0 1.000000 1.000000 1.000000 -0.729209 0.353714 -0.585782
9512 1 -17.727005 7.766737 -13.922521 0 1.000000 1.000000 1.000000 -0.743126 0.326608 -0.584030
9513 1 -18.224332 7.637942 -13.339834 0 1.000000 1.000000 1.000000 -0.764607 0.319715 -0.559606
9514 1 -18.531640 6.969020 -13.283231 0 1.000000 1.000000 1.000000 -0.776853 0.293431 -0.557134
9515 1 -18.988492 6.836373 -12.694347 0 1.000000 1.000000 1.000000 -0.796612 0.285837 -0.532641
9516 1 -19.256388 6.178962 -12.628357 0 1.000000 1.000000 1.000000 -0.807251 0.260583 -0.529568
9517 1 -19.672670 6.045662 -12.037983 0 1.000000 1.000000 1.000000 -0.825246 0.252410 -0.505231
9518 1 -19.902584 5.403509 -11.965974 0 1.000000 1.000000 1.000000 -0.834373 0.228344 -0.501678
9519 1 -20.279167 5.272327 -11.378391 0 1.000000 1.000000 1.000000 -0.850609 0.219716 -0.477692
9520 1 -20.473242 4.648437 -11.303369 0 1.000000 1.000000 1.000000 -0.858341 0.196950 -0.473773
9521 1 -2.406611 14.717307 -18.605434 0 1.000000 1.000000 1.000000 -0.102913 0.618080 -0.779350
9522 1 -2.991353 14.854048 -18.410448 0 1.000000 1.000000 1.000000 -0.124131 0.622220 -0.772938
9523 1 -3.491206 14.432624 -18.655634 0 1.000000 1.000000 1.000000 -0.148221 0.605921 -0.781595
9524 1 -4.101912 14.552419 -18.436515 0 1.000000 1.000000 1.000000 -0.170864 0.609816 -0.773906
9525 1 -4.617641 14.100568 -18.663929 0 1.000000 1.000000 1.000000 -0.195263 0.591781 -0.782091
9526 1 -5.251678 14.201178 -18.417896 0 1.000000 1.000000 1.000000 -0.219258 0.595322 -0.772992
9527 1 -5.779615 13.718148 -18.624432 0 1.000000 1.000000 1.000000 -0.243779 0.575546 -0.780589
9528 1 -6.433381 13.797566 -18.348883 0 1.000000 1.000000 1.000000 -0.269003 0.578614 -0.769963
9529 1 -6.969020 13.283231 -18.531640 0 1.000000 1.000000 1.000000 -0.293431 0.557134 -0.776853
9530 1 -7.637942 13.339834 -18.224332 0 1.000000 1.000000 1.000000 -0.319715 0.559606 -0.764607
9531 1 -8.176017 12.794825 -18.380795 0 1.000000 1.000000 1.000000 -0.343814 0.536514 -0.770678
9532 1 -8.854612 12.827518 -18.040032 0 1.000000 1.000000 1.000000 -0.370937 0.538268 -0.756752
9533 1 -9.389253 12.253324 -18.168263 0 1.000000 1.000000 1.000000 -0.394457 0.513713 -0.761907
9534 1 -10.071286 12.261673 -17.793088 0 1.000000 1.000000 1.000000 -0.422154 0.514636 -0.746281
9535 1 -10.596251 11.660696 -17.891895 0 1.000000 1.000000 1.000000 -0.444845 0.488822 -0.750444
9536 1 -11.274970 11.645016 -17.482248 0 1.000000 1.000000 1.000000 -0.472814 0.488817 -0.733148
9537 1 -11.783942 11.020559 -17.551315 0 1.000000 1.000000 1.000000 -0.494437 0.461997 -0.736268
9538 1 -12.452387 10.981954 -17.108138 0 1.000000 1.000000 1.000000 -0.522352 0.460989 -0.717382
9539 1 -12.939302 10.338129 -17.148088 0 1.000000 1.000000 1.000000 -0.542695 0.433460 -0.719441
9540 1 -13.590657 10.278465 -16.673357 0 1.000000 1.000000 1.000000 -0.570223 0.431403 -0.699097
9541 1 -14.050039 9.620034 -16.685743 0 1.000000 1.000000 1.000000 -0.589108 0.403487 -0.700107
9542 1 -14.677983 9.541839 -16.182413 0 1.000000 1.000000 1.000000 -0.615927 0.400367 -0.678483
9543 1 -15.105227 8.873996 -16.169620 0 1.000000 1.000000 1.000000 -0.633222 0.372398 -0.678490
9544 1 -15.704247 8.780312 -15.641489 0 1.000000 1.000000 1.000000 -0.659037 0.368234 -0.655800
9545 1 -16.095840 8.108425 -15.606575 0 1.000000 1.000000 1.000000 -0.674662 0.340537 -0.654878
9546 1 -16.661471 8.002615 -15.058077 0 1.000000 1.000000 1.000000 -0.699218 0.335379 -0.631359
9547 1 -17.015100 7.331971 -15.004566 0 1.000000 1.000000 1.000000 -0.713144 0.308255 -0.629607
9548 1 -17.544065 7.217514 -14.440529 0 1.000000 1.000000 1.000000 -0.736236 0.302181 -0.605510
9549 1 -17.858634 6.553080 -14.372178 0 1.000000 1.000000 1.000000 -0.748482 0.275897 -0.603039
9550 1 -18.348883 6.433381 -13.797566 0 1.000000 1.000000 1.000000 -0.769963 0.269003 -0.578614
9551 1 -18.624432 5.779615 -13.718148 0 1.000000 1.000000 1.000000 -0.780589 0.243779 -0.575546
9552 1 -19.075084 5.657843 -13.137824 0 1.000000 1.000000 1.000000 -0.800368 0.236177 -0.551028
9553 1 -19.312634 5.018563 -13.050941 0 1.000000 1.000000 1.000000 -0.809467 0.212183 -0.547486
9554 1 -19.723851 4.897530 -12.469465 0 1.000000 1.000000 1.000000 -0.827504 0.203990 -0.523091
9555 1 -19.925213 4.275849 -12.378402 0 1.000000 1.000000 1.000000 -0.835195 0.181348 -0.519194
9556 1 -20.298022 4.157938 -11.799888 0 1.000000 1.000000 1.000000 -0.851497 0.172683 -0.495109
9557 1 -20.465585 3.556247 -11.707519 0 1.000000 1.000000 1.000000 -0.857910 0.151466 -0.490967
9558 1 -1.748944 14.033924 -19.198158 0 1.000000 1.000000 1.000000 -0.075733 0.589404 -0.804281
9559 1 -2.314192 14.172481 -19.035429 0 1.000000 1.000000 1.000000 -0.095340 0.593659 -0.799049
9560 1 -2.797414 13.751250 -19.277632 0 1.000000 1.000000 1.000000 -0.119504 0.577310 -0.807733
9561 1 -3.389685 13.874652 -19.092823 0 1.000000 1.000000 1.000000 -0.140627 0.581433 -0.801349
9562 1 -3.889049 13.424535 -19.317790 0 1.000000 1.000000 1.000000 -0.165060 0.563374 -0.809546
9563 1 -4.506299 13.530656 -19.108015 0 1.000000 1.000000 1.000000 -0.187661 0.567263 -0.801870
9564 1 -5.018563 13.050941 -19.312634 0 1.000000 1.000000 1.000000 -0.212183 0.547486 -0.809467
9565 1 -5.657843 13.137824 -19.075084 0 1.000000 1.000000 1.000000 -0.236177 0.551028 -0.800368
9566 1 -6.178962 12.628357 -19.256388 0 1.000000 1.000000 1.000000 -0.260583 0.529568 -0.807251
9567 1 -6.836373 12.694347 -18.988492 0 1.000000 1.000000 1.000000 -0.285837 0.532641 -0.796612
9568 1 -7.361550 12.155653 -19.143829 0 1.000000 1.000000 1.000000 -0.309901 0.509583 -0.802675
9569 1 -8.032271 12.199528 -18.843440 0 1.000000 1.000000 1.000000 -0.336233 0.512060 -0.790406
9570 1 -8.556070 11.632912 -18.970663 0 1.000000 1.000000 1.000000 -0.359714 0.487545 -0.795553
9571 1 -9.234456 11.654014 -18.636249 0 1.000000 1.000000 1.000000 -0.386890 0.489304 -0.781600
9572 1 -9.750997 11.061619 -18.733889 0 1.000000 1.000000 1.000000 -0.409548 0.463526 -0.785757
9573 1 -10.430758 11.059952 -18.364710 0 1.000000 1.000000 1.000000 -0.437291 0.464452 -0.770105
9574 1 -10.933971 10.444764 -18.432125 0 1.000000 1.000000 1.000000 -0.458893 0.437658 -0.773222
9575 1 -11.608435 10.421051 -18.028376 0 1.000000 1.000000 1.000000 -0.486893 0.437654 -0.755906
9576 1 -12.092361 9.786835 -18.065840 0 1.000000 1.000000 1.000000 -0.507228 0.410134 -0.757964
9577 1 -12.754783 9.742518 -17.628729 0 1.000000 1.000000 1.000000 -0.535154 0.409126 -0.739071
9578 1 -13.213891 9.093692 -17.637454 0 1.000000 1.000000 1.000000 -0.554046 0.381199 -0.740081
9579 1 -13.857792 9.030872 -17.169199 0 1.000000 1.000000 1.000000 -0.581564 0.379144 -0.719745
9580 1 -14.287271 8.372310 -17.151278 0 1.000000 1.000000 1.000000 -0.598878 0.351143 -0.719752
9581 1 -14.906763 8.293629 -16.655029 0 1.000000 1.000000 1.000000 -0.625671 0.348027 -0.698150
9582 1 -15.302758 7.630441 -16.613304 0 1.000000 1.000000 1.000000 -0.641321 0.320283 -0.697227
9583 1 -15.892816 7.538921 -16.092982 0 1.000000 1.000000 1.000000 -0.667099 0.316125 -0.674569
9584 1 -16.252584 6.876205 -16.030856 0 1.000000 1.000000 1.000000 -0.681051 0.288948 -0.672814
9585 1 -16.809237 6.775065 -15.490938 0 1.000000 1.000000 1.000000 -0.705567 0.283799 -0.649333
9586 1 -17.131201 6.117677 -15.412155 0 1.000000 1.000000 1.000000 -0.717834 0.257466 -0.646858
9587 1 -17.651633 6.010149 -14.857431 0 1.000000 1.000000 1.000000 -0.740893 0.251401 -0.622796
9588 1 -17.935345 5.362513 -14.765849 0 1.000000 1.000000 1.000000 -0.751531 0.226146 -0.619726
9589 1 -18.417896 5.251678 -14.201178 0 1.000000 1.000000 1.000000 -0.772992 0.219258 -0.595322
9590 1 -18.663929 4.617641 -14.100568 0 1.000000 1.000000 1.000000 -0.782091 0.195263 -0.591781
9591 1 -19.108015 4.506299 -13.530656 0 1.000000 1.000000 1.000000 -0.801870 0.187661 -0.567263
9592 1 -19.317790 3.889049 -13.424535 0 1.000000 1.000000 1.000000 -0.809546 0.165060 -0.563374
9593 1 -19.723771 3.779632 -12.853757 0 1.000000 1.000000 1.000000 -0.827607 0.156856 -0.538946
9594 1 -19.899363 3.181665 -12.745268 0 1.000000 1.000000 1.000000 -0.833991 0.135732 -0.534823
9595 1 -20.268368 3.076190 -12.177544 0 1.000000 1.000000 1.000000 -0.850343 0.127041 -0.510664
9596 1 -20.412309 2.499330 -12.069387 0 1.000000 1.000000 1.000000 -0.855575 0.107435 -0.506408
9597 1 -1.115930 13.351008 -19.725886 0 1.000000 1.000000 1.000000 -0.049563 0.560738 -0.826508
9598 1 -1.660259 13.488641 -19.593098 0 1.000000 1.000000 1.000000 -0.067540 0.565012 -0.822314
9599 1 -2.126904 13.068592 -19.830928 0 1.000000 1.000000 1.000000 -0.091744 0.548637 -0.831012
9600 1 -2.698810 13.192644 -19.678191 0 1.000000 1.000000 1.000000 -0.111299 0.552881 -0.825794
9601 1 -3.181665 12.745268 -19.899363 0 1.000000 1.000000 1.000000 -0.135732 0.534823 -0.833991
9602 1 -3.779632 12.853757 -19.723771 0 1.000000 1.000000 1.000000 -0.156856 0.538946 -0.827607
9603 1 -4.275849 12.378402 -19.925213 0 1.000000 1.000000 1.000000 -0.181348 0.519194 -0.835195
9604 1 -4.897530 12.469465 -19.723851 0 1.000000 1.000000 1.000000 -0.203990 0.523091 -0.827504
9605 1 -5.403509 11.965974 -19.902584 0 1.000000 1.000000 1.000000 -0.228344 0.501678 -0.834373
9606 1 -6.045662 12.037983 -19.672670 0 1.000000 1.000000 1.000000 -0.252410 0.505231 -0.825246
9607 1 -6.557073 11.506805 -19.825966 0 1.000000 1.000000 1.000000 -0.276411 0.482235 -0.831292
9608 1 -7.215549 11.558486 -19.565021 0 1.000000 1.000000 1.000000 -0.301753 0.485318 -0.820616
9609 1 -7.727416 11.000770 -19.690582 0 1.000000 1.000000 1.000000 -0.325171 0.460871 -0.825749
9610 1 -8.397215 11.031322 -19.396613 0 1.000000 1.000000 1.000000 -0.351594 0.463357 -0.813438
9611 1 -8.904067 10.448982 -19.492748 0 1.000000 1.000000 1.000000 -0.374196 0.437643 -0.817585
9612 1 -9.579462 10.458177 -19.164438 0 1.000000 1.000000 1.000000 -0.401452 0.439408 -0.803590
9613 1 -10.075551 9.853905 -19.230215 0 1.000000 1.000000 1.000000 -0.423013 0.412664 -0.806702
9614 1 -10.750297 9.842158 -18.867080 0 1.000000 1.000000 1.000000 -0.450815 0.413592 -0.791016
9615 1 -11.229859 9.219381 -18.902439 0 1.000000 1.000000 1.000000 -0.471130 0.386100 -0.793072
9616 1 -11.897459 9.187771 -18.504947 0 1.000000 1.000000 1.000000 -0.499160 0.386096 -0.775738
9617 1 -12.355009 8.550551 -18.510750 0 1.000000 1.000000 1.000000 -0.518052 0.358168 -0.776748
9618 1 -13.009020 8.500789 -18.080369 0 1.000000 1.000000 1.000000 -0.545978 0.357161 -0.757855
9619 1 -13.439638 7.853662 -18.058378 0 1.000000 1.000000 1.000000 -0.563310 0.329129 -0.757862
9620 1 -14.073988 7.788004 -17.597543 0 1.000000 1.000000 1.000000 -0.590802 0.327076 -0.737546
9621 1 -14.473567 7.135781 -17.550322 0 1.000000 1.000000 1.000000 -0.606485 0.299273 -0.736622
9622 1 -15.082845 7.056899 -17.062333 0 1.000000 1.000000 1.000000 -0.633228 0.296162 -0.715060
9623 1 -15.448270 6.404442 -16.993085 0 1.000000 1.000000 1.000000 -0.647221 0.268905 -0.713299
9624 1 -16.027951 6.315267 -16.481931 0 1.000000 1.000000 1.000000 -0.672935 0.264757 -0.690697
9625 1 -16.357199 5.667271 -16.394299 0 1.000000 1.000000 1.000000 -0.685243 0.238334 -0.688214
9626 1 -16.903794 5.570821 -15.864440 0 1.000000 1.000000 1.000000 -0.709692 0.233199 -0.664797
9627 1 -17.195937 4.931625 -15.762282 0 1.000000 1.000000 1.000000 -0.720367 0.207855 -0.661716
9628 1 -17.707056 4.830845 -15.218414 0 1.000000 1.000000 1.000000 -0.743364 0.201804 -0.637718
9629 1 -17.962192 4.204281 -15.105594 0 1.000000 1.000000 1.000000 -0.752490 0.177738 -0.634167
9630 1 -18.436515 4.101912 -14.552419 0 1.000000 1.000000 1.000000 -0.773906 0.170864 -0.609816
9631 1 -18.655634 3.491206 -14.432624 0 1.000000 1.000000 1.000000 -0.781595 0.148221 -0.605921
9632 1 -19.092823 3.389685 -13.874652 0 1.000000 1.000000 1.000000 -0.801349 0.140627 -0.581433
9633 1 -19.277632 2.797414 -13.751250 0 1.000000 1.000000 1.000000 -0.807733 0.119504 -0.577310
9634 1 -19.678191 2.698810 -13.192644 0 1.000000 1.000000 1.000000 -0.825794 0.111299 -0.552881
9635 1 -19.830928 2.126904 -13.068592 0 1.000000 1.000000 1.000000 -0.831012 0.091744 -0.548637
9636 1 -20.196041 2.032898 -12.513059 0 1.000000 1.000000 1.000000 -0.847390 0.083038 -0.524438
9637 1 -20.319294 1.482677 -12.390854 0 1.000000 1.000000 1.000000 -0.851585 0.065062 -0.520164
9638 1 -0.509831 12.674323 -20.192393 0 1.000000 1.000000 1.000000 -0.024494 0.532327 -0.846185
9639 1 -1.032354 12.808754 -20.086969 0 1.000000 1.000000 1.000000 -0.040856 0.536538 -0.842886
9640 1 -1.482677 12.390854 -20.319294 0 1.000000 1.000000 1.000000 -0.065062 0.520164 -0.851585
9641 1 -2.032898 12.513059 -20.196041 0 1.000000 1.000000 1.000000 -0.083038 0.524438 -0.847390
9642 1 -2.499330 12.069387 -20.412309 0 1.000000 1.000000 1.000000 -0.107435 0.506408 -0.855575
9643 1 -3.076190 12.177544 -20.268368 0 1.000000 1.000000 1.000000 -0.127041 0.510664 -0.850343
9644 1 -3.556247 11.707519 -20.465585 0 1.000000 1.000000 1.000000 -0.151466 0.490967 -0.857910
9645 1 -4.157938 11.799888 -20.298022 0 1.000000 1.000000 1.000000 -0.172683 0.495109 -0.851497
9646 1 -4.648437 11.303369 -20.473242 0 1.000000 1.000000 1.000000 -0.196950 0.473773 -0.858341
9647 1 -5.272327 11.378391 -20.279167 0 1.000000 1.000000 1.000000 -0.219716 0.477692 -0.850609
9648 1 -5.769390 10.855775 -20.429642 0 1.000000 1.000000 1.000000 -0.243620 0.454789 -0.856631
9649 1 -6.411984 10.912179 -20.206355 0 1.000000 1.000000 1.000000 -0.267825 0.458363 -0.847451
9650 1 -6.911100 10.364489 -20.329695 0 1.000000 1.000000 1.000000 -0.291147 0.434015 -0.852563
9651 1 -7.568055 10.401400 -20.074868 0 1.000000 1.000000 1.000000 -0.316628 0.437117 -0.841828
9652 1 -8.064191 9.830348 -20.169210 0 1.000000 1.000000 1.000000 -0.339147 0.411499 -0.845960
9653 1 -8.730403 9.847379 -19.881060 0 1.000000 1.000000 1.000000 -0.365693 0.413998 -0.833591
9654 1 -9.218181 9.255387 -19.945231 0 1.000000 1.000000 1.000000 -0.387190 0.387335 -0.836693
9655 1 -9.887933 9.252718 -19.622696 0 1.000000 1.000000 1.000000 -0.414543 0.389106 -0.822649
9656 1 -10.361860 8.642894 -19.656332 0 1.000000 1.000000 1.000000 -0.434817 0.361667 -0.824700
9657 1 -11.029039 8.621303 -19.299209 0 1.000000 1.000000 1.000000 -0.462680 0.362598 -0.808980
9658 1 -11.483768 7.997359 -19.302830 0 1.000000 1.000000 1.000000 -0.481559 0.334689 -0.809990
9659 1 -12.142138 7.958217 -18.911863 0 1.000000 1.000000 1.000000 -0.509610 0.334686 -0.792643
9660 1 -12.572735 7.324341 -18.886882 0 1.000000 1.000000 1.000000 -0.526955 0.306633 -0.792651
9661 1 -13.216225 7.269548 -18.463779 0 1.000000 1.000000 1.000000 -0.554862 0.305627 -0.773770
9662 1 -13.618423 6.630227 -18.412436 0 1.000000 1.000000 1.000000 -0.570579 0.277762 -0.772844
9663 1 -14.241415 6.562118 -17.959814 0 1.000000 1.000000 1.000000 -0.598017 0.275713 -0.752568
9664 1 -14.611806 5.921943 -17.885050 0 1.000000 1.000000 1.000000 -0.612059 0.248358 -0.750801
9665 1 -15.209384 5.843149 -17.406310 0 1.000000 1.000000 1.000000 -0.638722 0.245257 -0.729304
9666 1 -15.545551 5.206613 -17.311585 0 1.000000 1.000000 1.000000 -0.651087 0.218709 -0.726809
9667 1 -16.113685 5.119910 -16.810727 0 1.000000 1.000000 1.000000 -0.676706 0.214577 -0.704291
9668 1 -16.414248 4.491220 -16.699815 0 1.000000 1.000000 1.000000 -0.687438 0.189094 -0.701194
9669 1 -16.949904 4.399386 -16.181228 0 1.000000 1.000000 1.000000 -0.711787 0.183980 -0.677872
9670 1 -17.214487 3.782316 -16.058003 0 1.000000 1.000000 1.000000 -0.720965 0.159774 -0.674301
9671 1 -17.715657 3.687990 -15.526237 0 1.000000 1.000000 1.000000 -0.743869 0.153748 -0.650400
9672 1 -17.944793 3.085769 -15.394486 0 1.000000 1.000000 1.000000 -0.751600 0.130981 -0.646484
9673 1 -18.410448 2.991353 -14.854048 0 1.000000 1.000000 1.000000 -0.772938 0.124131 -0.622220
9674 1 -18.605434 2.406611 -14.717307 0 1.000000 1.000000 1.000000 -0.779350 0.102913 -0.618080
9675 1 -19.035429 2.314192 -14.172481 0 1.000000 1.000000 1.000000 -0.799049 0.095340 -0.593659
9676 1 -19.198158 1.748944 -14.033924 0 1.000000 1.000000 1.000000 -0.804281 0.075733 -0.589404
9677 1 -19.593098 1.660259 -13.488641 0 1.000000 1.000000 1.000000 -0.822314 0.067540 -0.565012
9678 1 -19.725886 1.115930 -13.351008 0 1.000000 1.000000 1.000000 -0.826508 0.049563 -0.560738
9679 1 -20.086969 1.032354 -12.808754 0 1.000000 1.000000 1.000000 -0.842886 0.040856 -0.536538
9680 1 -20.192393 0.509831 -12.674323 0 1.000000 1.000000 1.000000 -0.846185 0.024494 -0.532327
