LAMMPS data file for atom_style dipole_sphere_angle (vesicle radius 17.362)

5120 atoms
2 atom types

-20.834567 20.834567 xlo xhi
-20.834567 20.834567 ylo yhi
-20.834567 20.834567 zlo zhi

Atoms # hybrid angle sphere dipole

1 1 -0.318368 8.750622 14.992302 0 1.000000 1.000000 1.000000 -0.021003 0.500804 0.865306
2 1 -1.304308 8.437536 15.116699 0 1.000000 1.000000 1.000000 -0.077727 0.483290 0.872003
3 1 -0.647554 8.350933 15.207413 0 1.000000 1.000000 1.000000 -0.035421 0.483304 0.874736
4 1 -0.329186 7.834877 15.489163 0 1.000000 1.000000 1.000000 -0.020992 0.448226 0.893674
5 1 -2.348419 8.070991 15.189327 0 1.000000 1.000000 1.000000 -0.137738 0.462756 0.875720
6 1 -1.664727 8.003182 15.315439 0 1.000000 1.000000 1.000000 -0.094029 0.462767 0.881479
7 1 -1.347367 7.469232 15.612923 0 1.000000 1.000000 1.000000 -0.079599 0.427692 0.900413
8 1 -0.668580 7.387530 15.695933 0 1.000000 1.000000 1.000000 -0.037296 0.427704 0.903149
9 1 -0.339393 6.829344 15.956706 0 1.000000 1.000000 1.000000 -0.020919 0.390558 0.920341
10 1 -3.442092 7.647622 15.198772 0 1.000000 1.000000 1.000000 -0.200532 0.438989 0.875829
11 1 -2.737661 7.600075 15.365265 0 1.000000 1.000000 1.000000 -0.155910 0.438997 0.884858
12 1 -2.424053 7.048300 15.677193 0 1.000000 1.000000 1.000000 -0.141519 0.404021 0.903736
13 1 -1.717450 6.985265 15.798739 0 1.000000 1.000000 1.000000 -0.097698 0.404031 0.909513
14 1 -1.387329 6.407569 16.073187 0 1.000000 1.000000 1.000000 -0.081277 0.366789 0.926747
15 1 -0.688059 6.333351 16.148144 0 1.000000 1.000000 1.000000 -0.039094 0.366801 0.929478
16 1 -0.348665 5.735779 16.380356 0 1.000000 1.000000 1.000000 -0.020798 0.327907 0.944481
17 1 -4.572807 7.165942 15.134200 0 1.000000 1.000000 1.000000 -0.265380 0.411874 0.871741
18 1 -3.855839 7.139241 15.345216 0 1.000000 1.000000 1.000000 -0.220466 0.411879 0.884167
19 1 -3.548845 6.570043 15.669469 0 1.000000 1.000000 1.000000 -0.206142 0.377073 0.902952
20 1 -2.821490 6.526649 15.834953 0 1.000000 1.000000 1.000000 -0.161332 0.377080 0.912021
21 1 -2.492977 5.930006 16.121649 0 1.000000 1.000000 1.000000 -0.144910 0.339841 0.929252
22 1 -1.765418 5.873961 16.238337 0 1.000000 1.000000 1.000000 -0.101092 0.339850 0.935031
23 1 -1.422804 5.256078 16.481544 0 1.000000 1.000000 1.000000 -0.082716 0.300791 0.950096
24 1 -0.705322 5.192114 16.548607 0 1.000000 1.000000 1.000000 -0.040739 0.300802 0.952816
25 1 -0.356656 4.560217 16.744626 0 1.000000 1.000000 1.000000 -0.020651 0.260623 0.965220
26 1 -5.724248 6.626979 14.986504 0 1.000000 1.000000 1.000000 -0.331343 0.381437 0.862970
27 1 -5.004708 6.620564 15.244736 0 1.000000 1.000000 1.000000 -0.286863 0.381439 0.878757
28 1 -4.707094 6.034779 15.578333 0 1.000000 1.000000 1.000000 -0.272619 0.346833 0.897433
29 1 -3.968200 6.010960 15.792049 0 1.000000 1.000000 1.000000 -0.227486 0.346838 0.909920
30 1 -3.643964 5.396435 16.088803 0 1.000000 1.000000 1.000000 -0.211094 0.309671 0.927116
31 1 -2.896095 5.358876 16.252919 0 1.000000 1.000000 1.000000 -0.166206 0.309677 0.936203
32 1 -2.552547 4.721902 16.505687 0 1.000000 1.000000 1.000000 -0.147798 0.270551 0.951293
33 1 -1.806815 4.675150 16.617625 0 1.000000 1.000000 1.000000 -0.104065 0.270559 0.957062
34 1 -1.452355 4.023240 16.821532 0 1.000000 1.000000 1.000000 -0.083879 0.230185 0.969525
35 1 -0.719680 3.972271 16.881471 0 1.000000 1.000000 1.000000 -0.042143 0.230194 0.972232
36 1 -0.363024 3.313560 17.034309 0 1.000000 1.000000 1.000000 -0.020505 0.189329 0.981700
37 1 -6.876987 6.034741 14.749554 0 1.000000 1.000000 1.000000 -0.397310 0.347871 0.849194
38 1 -6.166061 6.046757 15.055666 0 1.000000 1.000000 1.000000 -0.354049 0.347868 0.868123
39 1 -5.880241 5.445745 15.394839 0 1.000000 1.000000 1.000000 -0.339880 0.313451 0.886696
40 1 -5.140815 5.440182 15.659273 0 1.000000 1.000000 1.000000 -0.295200 0.313452 0.902555
41 1 -4.823451 4.809427 15.963131 0 1.000000 1.000000 1.000000 -0.278852 0.276391 0.919701
42 1 -4.065493 4.789499 16.178944 0 1.000000 1.000000 1.000000 -0.233607 0.276395 0.932220
43 1 -3.723457 4.135304 16.439198 0 1.000000 1.000000 1.000000 -0.215197 0.237272 0.947308
44 1 -2.958379 4.105265 16.601824 0 1.000000 1.000000 1.000000 -0.170313 0.237277 0.956396
45 1 -2.600129 3.435339 16.812365 0 1.000000 1.000000 1.000000 -0.150075 0.196803 0.968889
46 1 -1.839838 3.400066 16.920135 0 1.000000 1.000000 1.000000 -0.106467 0.196809 0.974644
47 1 -1.474625 2.722924 17.077635 0 1.000000 1.000000 1.000000 -0.084732 0.155761 0.984154
48 1 -0.730486 2.687387 17.131871 0 1.000000 1.000000 1.000000 -0.043223 0.155767 0.986848
49 1 -0.367463 2.011634 17.235970 0 1.000000 1.000000 1.000000 -0.020388 0.114920 0.993165
50 1 -8.009765 5.396359 14.421288 0 1.000000 1.000000 1.000000 -0.462071 0.311548 0.830318
51 1 -7.319033 5.423672 14.773512 0 1.000000 1.000000 1.000000 -0.420814 0.311543 0.851972
52 1 -7.046829 4.809389 15.113909 0 1.000000 1.000000 1.000000 -0.406696 0.277259 0.870474
53 1 -6.318963 4.819446 15.429124 0 1.000000 1.000000 1.000000 -0.363298 0.277257 0.889462
54 1 -6.010763 4.174759 15.736487 0 1.000000 1.000000 1.000000 -0.346992 0.240297 0.906562
55 1 -5.254677 4.170303 16.006060 0 1.000000 1.000000 1.000000 -0.302209 0.240298 0.922457
56 1 -4.916590 3.501451 16.271127 0 1.000000 1.000000 1.000000 -0.283815 0.201213 0.937530
57 1 -4.143327 3.486379 16.488452 0 1.000000 1.000000 1.000000 -0.238532 0.201216 0.950060
58 1 -3.783521 2.801175 16.703921 0 1.000000 1.000000 1.000000 -0.218276 0.160708 0.962563
59 1 -3.005400 2.780173 16.865207 0 1.000000 1.000000 1.000000 -0.173436 0.160712 0.971644
60 1 -2.633365 2.087412 17.026538 0 1.000000 1.000000 1.000000 -0.151650 0.119569 0.981176
61 1 -1.862881 2.065436 17.131196 0 1.000000 1.000000 1.000000 -0.108160 0.119573 0.986916
62 1 -1.488487 1.374145 17.237007 0 1.000000 1.000000 1.000000 -0.085254 0.078597 0.993254
63 1 -0.737207 1.355880 17.287546 0 1.000000 1.000000 1.000000 -0.043904 0.078600 0.995939
64 1 -0.369745 0.674566 17.339516 0 1.000000 1.000000 1.000000 -0.020323 0.038533 0.999051
65 1 -9.101236 4.721792 14.004383 0 1.000000 1.000000 1.000000 -0.524419 0.273015 0.806503
66 1 -8.441677 4.760214 14.398410 0 1.000000 1.000000 1.000000 -0.485874 0.273008 0.830297
67 1 -8.184141 4.135232 14.735413 0 1.000000 1.000000 1.000000 -0.471773 0.238774 0.848774
68 1 -7.480024 4.157093 15.098688 0 1.000000 1.000000 1.000000 -0.430469 0.238770 0.870452
69 1 -7.182772 3.501417 15.405541 0 1.000000 1.000000 1.000000 -0.414186 0.201870 0.887524
70 1 -6.441376 3.509026 15.728125 0 1.000000 1.000000 1.000000 -0.370729 0.201868 0.906537
71 1 -6.109478 2.828772 15.994873 0 1.000000 1.000000 1.000000 -0.352352 0.162824 0.921595
72 1 -5.340778 2.825652 16.268301 0 1.000000 1.000000 1.000000 -0.307529 0.162825 0.937504
73 1 -4.981754 2.128633 16.486602 0 1.000000 1.000000 1.000000 -0.287273 0.122319 0.950006
74 1 -4.197759 2.119228 16.704896 0 1.000000 1.000000 1.000000 -0.241992 0.122321 0.962537
75 1 -3.820979 1.414401 16.869001 0 1.000000 1.000000 1.000000 -0.220187 0.081142 0.972077
76 1 -3.034706 1.403588 17.029357 0 1.000000 1.000000 1.000000 -0.175392 0.081144 0.981149
77 1 -2.650466 0.700298 17.136728 0 1.000000 1.000000 1.000000 -0.152456 0.040111 0.987496
78 1 -1.874731 0.692831 17.239720 0 1.000000 1.000000 1.000000 -0.109035 0.040113 0.993228
79 1 -1.493196 -0.000000 17.291127 0 1.000000 1.000000 1.000000 -0.085429 0.000000 0.996344
80 1 -0.739489 -0.000000 17.340384 0 1.000000 1.000000 1.000000 -0.044137 0.000000 0.999025
81 1 -0.369745 -0.674566 17.339516 0 1.000000 1.000000 1.000000 -0.020323 -0.038533 0.999051
82 1 -10.131879 4.023107 13.506295 0 1.000000 1.000000 1.000000 -0.583255 0.232950 0.778170
83 1 -9.512893 4.067792 13.935532 0 1.000000 1.000000 1.000000 -0.547991 0.232943 0.803395
84 1 -9.270242 3.435244 14.264641 0 1.000000 1.000000 1.000000 -0.533869 0.198662 0.821899
85 1 -8.601048 3.464262 14.670495 0 1.000000 1.000000 1.000000 -0.495372 0.198657 0.845661
86 1 -8.315878 2.801119 14.972733 0 1.000000 1.000000 1.000000 -0.479087 0.161758 0.862734
87 1 -7.601718 2.816413 15.344505 0 1.000000 1.000000 1.000000 -0.437785 0.161755 0.884409
88 1 -7.277878 2.128610 15.609568 0 1.000000 1.000000 1.000000 -0.419414 0.122728 0.899461
89 1 -6.527033 2.133360 15.937352 0 1.000000 1.000000 1.000000 -0.375942 0.122727 0.918480
90 1 -6.171085 1.428613 16.156122 0 1.000000 1.000000 1.000000 -0.355689 0.082231 0.930980
91 1 -5.394506 1.427006 16.431944 0 1.000000 1.000000 1.000000 -0.310859 0.082232 0.946892
92 1 -5.015319 0.714311 16.597585 0 1.000000 1.000000 1.000000 -0.289050 0.041046 0.956434
93 1 -4.225788 0.711112 16.816349 0 1.000000 1.000000 1.000000 -0.243779 0.041047 0.968962
94 1 -3.833714 0.000000 16.925121 0 1.000000 1.000000 1.000000 -0.220835 -0.000000 0.975311
95 1 -3.044666 0.000000 17.085144 0 1.000000 1.000000 1.000000 -0.176059 -0.000000 0.984380
96 1 -2.650466 -0.700298 17.136728 0 1.000000 1.000000 1.000000 -0.152456 -0.040111 0.987496
97 1 -1.874731 -0.692831 17.239720 0 1.000000 1.000000 1.000000 -0.109035 -0.040113 0.993228
98 1 -1.488487 -1.374145 17.237007 0 1.000000 1.000000 1.000000 -0.085254 -0.078597 0.993254
99 1 -0.737207 -1.355880 17.287546 0 1.000000 1.000000 1.000000 -0.043904 -0.078600 0.995939
100 1 -0.367463 -2.011634 17.235970 0 1.000000 1.000000 1.000000 -0.020388 -0.114920 0.993165
101 1 -11.085700 3.313419 12.938611 0 1.000000 1.000000 1.000000 -0.637684 0.192109 0.745958
102 1 -10.514344 3.359370 13.394769 0 1.000000 1.000000 1.000000 -0.606085 0.192101 0.771853
103 1 -10.286025 2.722821 13.711979 0 1.000000 1.000000 1.000000 -0.591907 0.157690 0.790431
104 1 -9.660909 2.754010 14.152614 0 1.000000 1.000000 1.000000 -0.556772 0.157684 0.815562
105 1 -9.388266 2.087347 14.446395 0 1.000000 1.000000 1.000000 -0.540459 0.120728 0.832664
106 1 -8.712429 2.105438 14.860660 0 1.000000 1.000000 1.000000 -0.502022 0.120724 0.856388
107 1 -8.398028 1.414370 15.120724 0 1.000000 1.000000 1.000000 -0.483642 0.081682 0.871446
108 1 -7.677636 1.422248 15.497860 0 1.000000 1.000000 1.000000 -0.442356 0.081681 0.893112
109 1 -7.326863 0.714302 15.714654 0 1.000000 1.000000 1.000000 -0.422103 0.041185 0.905612
110 1 -6.571157 0.715918 16.045132 0 1.000000 1.000000 1.000000 -0.378631 0.041185 0.924631
111 1 -6.192036 -0.000000 16.210961 0 1.000000 1.000000 1.000000 -0.356822 0.000000 0.934172
112 1 -5.412777 0.000000 16.487593 0 1.000000 1.000000 1.000000 -0.311993 0.000000 0.950085
113 1 -5.015319 -0.714311 16.597585 0 1.000000 1.000000 1.000000 -0.289050 -0.041046 0.956434
114 1 -4.225788 -0.711112 16.816349 0 1.000000 1.000000 1.000000 -0.243779 -0.041047 0.968962
115 1 -3.820979 -1.414401 16.869001 0 1.000000 1.000000 1.000000 -0.220187 -0.081142 0.972077
116 1 -3.034706 -1.403588 17.029357 0 1.000000 1.000000 1.000000 -0.175392 -0.081144 0.981149
117 1 -2.633365 -2.087412 17.026538 0 1.000000 1.000000 1.000000 -0.151650 -0.119569 0.981176
118 1 -1.862881 -2.065436 17.131196 0 1.000000 1.000000 1.000000 -0.108160 -0.119573 0.986916
119 1 -1.474625 -2.722924 17.077635 0 1.000000 1.000000 1.000000 -0.084732 -0.155761 0.984154
120 1 -0.730486 -2.687387 17.131871 0 1.000000 1.000000 1.000000 -0.043223 -0.155767 0.986848
121 1 -0.363024 -3.313560 17.034309 0 1.000000 1.000000 1.000000 -0.020505 -0.189329 0.981700
122 1 -11.951393 2.605724 12.315831 0 1.000000 1.000000 1.000000 -0.687077 0.151251 0.710667
123 1 -11.431977 2.648293 12.789738 0 1.000000 1.000000 1.000000 -0.659324 0.151245 0.736490
124 1 -11.216833 2.011539 13.091834 0 1.000000 1.000000 1.000000 -0.645067 0.116648 0.755171
125 1 -10.642237 2.040116 13.557917 0 1.000000 1.000000 1.000000 -0.613643 0.116643 0.780920
126 1 -10.381946 1.374088 13.839975 0 1.000000 1.000000 1.000000 -0.597286 0.079589 0.798070
127 1 -9.753091 1.390130 14.287818 0 1.000000 1.000000 1.000000 -0.562246 0.079586 0.823132
128 1 -9.448987 0.700275 14.539905 0 1.000000 1.000000 1.000000 -0.543846 0.040505 0.838207
129 1 -8.769760 0.706425 14.958547 0 1.000000 1.000000 1.000000 -0.505448 0.040504 0.861906
130 1 -8.425955 -0.000000 15.171034 0 1.000000 1.000000 1.000000 -0.485189 0.000000 0.874409
131 1 -7.703450 -0.000000 15.550006 0 1.000000 1.000000 1.000000 -0.443912 0.000000 0.896070
132 1 -7.326863 -0.714302 15.714654 0 1.000000 1.000000 1.000000 -0.422103 -0.041185 0.905612
133 1 -6.571157 -0.715918 16.045132 0 1.000000 1.000000 1.000000 -0.378631 -0.041185 0.924631
134 1 -6.171085 -1.428613 16.156122 0 1.000000 1.000000 1.000000 -0.355689 -0.082231 0.930980
135 1 -5.394506 -1.427006 16.431944 0 1.000000 1.000000 1.000000 -0.310859 -0.082232 0.946892
136 1 -4.981754 -2.128633 16.486602 0 1.000000 1.000000 1.000000 -0.287273 -0.122319 0.950006
137 1 -4.197759 -2.119228 16.704896 0 1.000000 1.000000 1.000000 -0.241992 -0.122321 0.962537
138 1 -3.783521 -2.801175 16.703921 0 1.000000 1.000000 1.000000 -0.218276 -0.160708 0.962563
139 1 -3.005400 -2.780173 16.865207 0 1.000000 1.000000 1.000000 -0.173436 -0.160712 0.971644
140 1 -2.600129 -3.435339 16.812365 0 1.000000 1.000000 1.000000 -0.150075 -0.196803 0.968889
141 1 -1.839838 -3.400066 16.920135 0 1.000000 1.000000 1.000000 -0.106467 -0.196809 0.974644
142 1 -1.452355 -4.023240 16.821532 0 1.000000 1.000000 1.000000 -0.083879 -0.230185 0.969525
143 1 -0.719680 -3.972271 16.881471 0 1.000000 1.000000 1.000000 -0.042143 -0.230194 0.972232
144 1 -0.356656 -4.560217 16.744626 0 1.000000 1.000000 1.000000 -0.020651 -0.260623 0.965220
145 1 -12.722777 1.911843 11.653866 0 1.000000 1.000000 1.000000 -0.731096 0.111082 0.673171
146 1 -12.256856 1.947127 12.136314 0 1.000000 1.000000 1.000000 -0.707173 0.111077 0.698261
147 1 -12.053358 1.313966 12.421034 0 1.000000 1.000000 1.000000 -0.692833 0.076281 0.717052
148 1 -11.532752 1.335810 12.902647 0 1.000000 1.000000 1.000000 -0.665260 0.076278 0.742705
149 1 -11.284162 0.674533 13.170507 0 1.000000 1.000000 1.000000 -0.648855 0.039119 0.759906
150 1 -10.707952 0.684234 13.641751 0 1.000000 1.000000 1.000000 -0.617530 0.039118 0.785574
151 1 -10.414519 0.000000 13.883440 0 1.000000 1.000000 1.000000 -0.599111 -0.000000 0.800666
152 1 -9.784408 -0.000000 14.333751 0 1.000000 1.000000 1.000000 -0.564107 -0.000000 0.825702
153 1 -9.448987 -0.700275 14.539905 0 1.000000 1.000000 1.000000 -0.543846 -0.040505 0.838207
154 1 -8.769760 -0.706425 14.958547 0 1.000000 1.000000 1.000000 -0.505448 -0.040504 0.861906
155 1 -8.398028 -1.414370 15.120724 0 1.000000 1.000000 1.000000 -0.483642 -0.081682 0.871446
156 1 -7.677636 -1.422248 15.497860 0 1.000000 1.000000 1.000000 -0.442356 -0.081681 0.893112
157 1 -7.277878 -2.128610 15.609568 0 1.000000 1.000000 1.000000 -0.419414 -0.122728 0.899461
158 1 -6.527033 -2.133360 15.937352 0 1.000000 1.000000 1.000000 -0.375942 -0.122727 0.918480
159 1 -6.109478 -2.828772 15.994873 0 1.000000 1.000000 1.000000 -0.352352 -0.162824 0.921595
160 1 -5.340778 -2.825652 16.268301 0 1.000000 1.000000 1.000000 -0.307529 -0.162825 0.937504
161 1 -4.916590 -3.501451 16.271127 0 1.000000 1.000000 1.000000 -0.283815 -0.201213 0.937530
162 1 -4.143327 -3.486379 16.488452 0 1.000000 1.000000 1.000000 -0.238532 -0.201216 0.950060
163 1 -3.723457 -4.135304 16.439198 0 1.000000 1.000000 1.000000 -0.215197 -0.237272 0.947308
164 1 -2.958379 -4.105265 16.601824 0 1.000000 1.000000 1.000000 -0.170313 -0.237277 0.956396
165 1 -2.552547 -4.721902 16.505687 0 1.000000 1.000000 1.000000 -0.147798 -0.270551 0.951293
166 1 -1.806815 -4.675150 16.617625 0 1.000000 1.000000 1.000000 -0.104065 -0.270559 0.957062
167 1 -1.422804 -5.256078 16.481544 0 1.000000 1.000000 1.000000 -0.082716 -0.300791 0.950096
168 1 -0.705322 -5.192114 16.548607 0 1.000000 1.000000 1.000000 -0.040739 -0.300802 0.952816
169 1 -0.348665 -5.735779 16.380356 0 1.000000 1.000000 1.000000 -0.020798 -0.327907 0.944481
170 1 -13.398531 1.241646 10.968560 0 1.000000 1.000000 1.000000 -0.769674 0.072199 0.634342
171 1 -12.985239 1.266724 11.451039 0 1.000000 1.000000 1.000000 -0.749406 0.072196 0.658163
172 1 -12.791718 0.640731 11.717098 0 1.000000 1.000000 1.000000 -0.734996 0.037232 0.677048
173 1 -12.325758 0.652688 12.204646 0 1.000000 1.000000 1.000000 -0.711221 0.037230 0.701982
174 1 -12.087929 -0.000000 12.456704 0 1.000000 1.000000 1.000000 -0.694783 -0.000000 0.719219
175 1 -11.566938 0.000000 12.940952 0 1.000000 1.000000 1.000000 -0.667275 -0.000000 0.744811
176 1 -11.284162 -0.674533 13.170507 0 1.000000 1.000000 1.000000 -0.648855 -0.039119 0.759906
177 1 -10.707952 -0.684234 13.641751 0 1.000000 1.000000 1.000000 -0.617530 -0.039118 0.785574
178 1 -10.381946 -1.374088 13.839975 0 1.000000 1.000000 1.000000 -0.597286 -0.079589 0.798070
179 1 -9.753091 -1.390130 14.287818 0 1.000000 1.000000 1.000000 -0.562246 -0.079586 0.823132
180 1 -9.388266 -2.087347 14.446395 0 1.000000 1.000000 1.000000 -0.540459 -0.120728 0.832664
181 1 -8.712429 -2.105438 14.860660 0 1.000000 1.000000 1.000000 -0.502022 -0.120724 0.856388
182 1 -8.315878 -2.801119 14.972733 0 1.000000 1.000000 1.000000 -0.479087 -0.161758 0.862734
183 1 -7.601718 -2.816413 15.344505 0 1.000000 1.000000 1.000000 -0.437785 -0.161755 0.884409
184 1 -7.182772 -3.501417 15.405541 0 1.000000 1.000000 1.000000 -0.414186 -0.201870 0.887524
185 1 -6.441376 -3.509026 15.728125 0 1.000000 1.000000 1.000000 -0.370729 -0.201868 0.906537
186 1 -6.010763 -4.174759 15.736487 0 1.000000 1.000000 1.000000 -0.346992 -0.240297 0.906562
187 1 -5.254677 -4.170303 16.006060 0 1.000000 1.000000 1.000000 -0.302209 -0.240298 0.922457
188 1 -4.823451 -4.809427 15.963131 0 1.000000 1.000000 1.000000 -0.278852 -0.276391 0.919701
189 1 -4.065493 -4.789499 16.178944 0 1.000000 1.000000 1.000000 -0.233607 -0.276395 0.932220
190 1 -3.643964 -5.396435 16.088803 0 1.000000 1.000000 1.000000 -0.211094 -0.309671 0.927116
191 1 -2.896095 -5.358876 16.252919 0 1.000000 1.000000 1.000000 -0.166206 -0.309677 0.936203
192 1 -2.492977 -5.930006 16.121649 0 1.000000 1.000000 1.000000 -0.144910 -0.339841 0.929252
193 1 -1.765418 -5.873961 16.238337 0 1.000000 1.000000 1.000000 -0.101092 -0.339850 0.935031
194 1 -1.387329 -6.407569 16.073187 0 1.000000 1.000000 1.000000 -0.081277 -0.366789 0.926747
195 1 -0.688059 -6.333351 16.148144 0 1.000000 1.000000 1.000000 -0.039094 -0.366801 0.929478
196 1 -0.339393 -6.829344 15.956706 0 1.000000 1.000000 1.000000 -0.020919 -0.390558 0.920341
197 1 -13.981406 0.602658 10.274479 0 1.000000 1.000000 1.000000 -0.802973 0.035064 0.594984
198 1 -13.618001 0.615653 10.749694 0 1.000000 1.000000 1.000000 -0.786069 0.035063 0.617143
199 1 -13.432838 0.000000 10.996684 0 1.000000 1.000000 1.000000 -0.771619 -0.000000 0.636085
200 1 -13.019847 0.000000 11.481608 0 1.000000 1.000000 1.000000 -0.751434 -0.000000 0.659808
201 1 -12.791718 -0.640731 11.717098 0 1.000000 1.000000 1.000000 -0.734996 -0.037232 0.677048
202 1 -12.325758 -0.652688 12.204646 0 1.000000 1.000000 1.000000 -0.711221 -0.037230 0.701982
203 1 -12.053358 -1.313966 12.421034 0 1.000000 1.000000 1.000000 -0.692833 -0.076281 0.717052
204 1 -11.532752 -1.335810 12.902647 0 1.000000 1.000000 1.000000 -0.665260 -0.076278 0.742705
205 1 -11.216833 -2.011539 13.091834 0 1.000000 1.000000 1.000000 -0.645067 -0.116648 0.755171
206 1 -10.642237 -2.040116 13.557917 0 1.000000 1.000000 1.000000 -0.613643 -0.116643 0.780920
207 1 -10.286025 -2.722821 13.711979 0 1.000000 1.000000 1.000000 -0.591907 -0.157690 0.790431
208 1 -9.660909 -2.754010 14.152614 0 1.000000 1.000000 1.000000 -0.556772 -0.157684 0.815562
209 1 -9.270242 -3.435244 14.264641 0 1.000000 1.000000 1.000000 -0.533869 -0.198662 0.821899
210 1 -8.601048 -3.464262 14.670495 0 1.000000 1.000000 1.000000 -0.495372 -0.198657 0.845661
211 1 -8.184141 -4.135232 14.735413 0 1.000000 1.000000 1.000000 -0.471773 -0.238774 0.848774
212 1 -7.480024 -4.157093 15.098688 0 1.000000 1.000000 1.000000 -0.430469 -0.238770 0.870452
213 1 -7.046829 -4.809389 15.113909 0 1.000000 1.000000 1.000000 -0.406696 -0.277259 0.870474
214 1 -6.318963 -4.819446 15.429124 0 1.000000 1.000000 1.000000 -0.363298 -0.277257 0.889462
215 1 -5.880241 -5.445745 15.394839 0 1.000000 1.000000 1.000000 -0.339880 -0.313451 0.886696
216 1 -5.140815 -5.440182 15.659273 0 1.000000 1.000000 1.000000 -0.295200 -0.313452 0.902555
217 1 -4.707094 -6.034779 15.578333 0 1.000000 1.000000 1.000000 -0.272619 -0.346833 0.897433
218 1 -3.968200 -6.010960 15.792049 0 1.000000 1.000000 1.000000 -0.227486 -0.346838 0.909920
219 1 -3.548845 -6.570043 15.669469 0 1.000000 1.000000 1.000000 -0.206142 -0.377073 0.902952
220 1 -2.821490 -6.526649 15.834953 0 1.000000 1.000000 1.000000 -0.161332 -0.377080 0.912021
221 1 -2.424053 -7.048300 15.677193 0 1.000000 1.000000 1.000000 -0.141519 -0.404021 0.903736
222 1 -1.717450 -6.985265 15.798739 0 1.000000 1.000000 1.000000 -0.097698 -0.404031 0.909513
223 1 -1.347367 -7.469232 15.612923 0 1.000000 1.000000 1.000000 -0.079599 -0.427692 0.900413
224 1 -0.668580 -7.387530 15.695933 0 1.000000 1.000000 1.000000 -0.037296 -0.427704 0.903149
225 1 -0.329186 -7.834877 15.489163 0 1.000000 1.000000 1.000000 -0.020992 -0.448226 0.893674
226 1 -14.477172 0.000000 9.584120 0 1.000000 1.000000 1.000000 -0.831322 0.000000 0.555791
227 1 -14.159648 0.000000 10.046253 0 1.000000 1.000000 1.000000 -0.817423 0.000000 0.576038
228 1 -13.981406 -0.602658 10.274479 0 1.000000 1.000000 1.000000 -0.802973 -0.035064 0.594984
229 1 -13.618001 -0.615653 10.749694 0 1.000000 1.000000 1.000000 -0.786069 -0.035063 0.617143
230 1 -13.398531 -1.241646 10.968560 0 1.000000 1.000000 1.000000 -0.769674 -0.072199 0.634342
231 1 -12.985239 -1.266724 11.451039 0 1.000000 1.000000 1.000000 -0.749406 -0.072196 0.658163
232 1 -12.722777 -1.911843 11.653866 0 1.000000 1.000000 1.000000 -0.731096 -0.111082 0.673171
233 1 -12.256856 -1.947127 12.136314 0 1.000000 1.000000 1.000000 -0.707173 -0.111077 0.698261
234 1 -11.951393 -2.605724 12.315831 0 1.000000 1.000000 1.000000 -0.687077 -0.151251 0.710667
235 1 -11.431977 -2.648293 12.789738 0 1.000000 1.000000 1.000000 -0.659324 -0.151245 0.736490
236 1 -11.085700 -3.313419 12.938611 0 1.000000 1.000000 1.000000 -0.637684 -0.192109 0.745958
237 1 -10.514344 -3.359370 13.394769 0 1.000000 1.000000 1.000000 -0.606085 -0.192101 0.771853
238 1 -10.131879 -4.023107 13.506295 0 1.000000 1.000000 1.000000 -0.583255 -0.232950 0.778170
239 1 -9.512893 -4.067792 13.935532 0 1.000000 1.000000 1.000000 -0.547991 -0.232943 0.803395
240 1 -9.101236 -4.721792 14.004383 0 1.000000 1.000000 1.000000 -0.524419 -0.273015 0.806503
241 1 -8.441677 -4.760214 14.398410 0 1.000000 1.000000 1.000000 -0.485874 -0.273008 0.830297
242 1 -8.009765 -5.396359 14.421288 0 1.000000 1.000000 1.000000 -0.462071 -0.311548 0.830318
243 1 -7.319033 -5.423672 14.773512 0 1.000000 1.000000 1.000000 -0.420814 -0.311543 0.851972
244 1 -6.876987 -6.034741 14.749554 0 1.000000 1.000000 1.000000 -0.397310 -0.347871 0.849194
245 1 -6.166061 -6.046757 15.055666 0 1.000000 1.000000 1.000000 -0.354049 -0.347868 0.868123
246 1 -5.724248 -6.626979 14.986504 0 1.000000 1.000000 1.000000 -0.331343 -0.381437 0.862970
247 1 -5.004708 -6.620564 15.244736 0 1.000000 1.000000 1.000000 -0.286863 -0.381439 0.878757
248 1 -4.572807 -7.165942 15.134200 0 1.000000 1.000000 1.000000 -0.265380 -0.411874 0.871741
249 1 -3.855839 -7.139241 15.345216 0 1.000000 1.000000 1.000000 -0.220466 -0.411879 0.884167
250 1 -3.442092 -7.647622 15.198772 0 1.000000 1.000000 1.000000 -0.200532 -0.438989 0.875829
251 1 -2.737661 -7.600075 15.365265 0 1.000000 1.000000 1.000000 -0.155910 -0.438997 0.884858
252 1 -2.348419 -8.070991 15.189327 0 1.000000 1.000000 1.000000 -0.137738 -0.462756 0.875720
253 1 -1.664727 -8.003182 15.315439 0 1.000000 1.000000 1.000000 -0.094029 -0.462767 0.881479
254 1 -1.304308 -8.437536 15.116699 0 1.000000 1.000000 1.000000 -0.077727 -0.483290 0.872003
255 1 -0.647554 -8.350933 15.207413 0 1.000000 1.000000 1.000000 -0.035421 -0.483304 0.874736
256 1 -0.318368 -8.750622 14.992302 0 1.000000 1.000000 1.000000 -0.021003 -0.500804 0.865306
257 1 -0.515130 9.265752 14.673934 0 1.000000 1.000000 1.000000 -0.033984 0.534788 0.844302
258 1 -1.135293 9.945292 14.184854 0 1.000000 1.000000 1.000000 -0.069030 0.573991 0.815946
259 1 -1.047765 9.398698 14.559859 0 1.000000 1.000000 1.000000 -0.057313 0.540617 0.839315
260 1 -1.507757 8.970171 14.787513 0 1.000000 1.000000 1.000000 -0.090701 0.517257 0.851011
261 1 -1.790796 10.629166 13.608287 0 1.000000 1.000000 1.000000 -0.106046 0.613423 0.782602
262 1 -1.697438 10.081114 14.031206 0 1.000000 1.000000 1.000000 -0.095409 0.579847 0.809120
263 1 -2.180085 9.649317 14.265557 0 1.000000 1.000000 1.000000 -0.128794 0.556486 0.820814
264 1 -2.077932 9.084967 14.646859 0 1.000000 1.000000 1.000000 -0.117079 0.523114 0.844183
265 1 -2.558176 8.620141 14.849933 0 1.000000 1.000000 1.000000 -0.150667 0.496603 0.854801
266 1 -2.475995 11.305201 12.938264 0 1.000000 1.000000 1.000000 -0.144733 0.652374 0.743949
267 1 -2.380027 10.762980 13.410482 0 1.000000 1.000000 1.000000 -0.135452 0.619068 0.773568
268 1 -2.885476 10.329769 13.649134 0 1.000000 1.000000 1.000000 -0.168740 0.595771 0.785228
269 1 -2.778892 9.764158 14.081289 0 1.000000 1.000000 1.000000 -0.158079 0.562110 0.811815
270 1 -3.281469 9.293045 14.289865 0 1.000000 1.000000 1.000000 -0.191751 0.535529 0.822460
271 1 -3.162905 8.713378 14.677206 0 1.000000 1.000000 1.000000 -0.180071 0.502253 0.845764
272 1 -3.657579 8.211774 14.850107 0 1.000000 1.000000 1.000000 -0.213385 0.472640 0.855031
273 1 -3.182806 11.959174 12.171819 0 1.000000 1.000000 1.000000 -0.184664 0.690017 0.699840
274 1 -3.088361 11.430992 12.692768 0 1.000000 1.000000 1.000000 -0.176994 0.657522 0.732351
275 1 -3.616111 10.998230 12.932699 0 1.000000 1.000000 1.000000 -0.210119 0.634336 0.743954
276 1 -3.509195 10.439228 13.416847 0 1.000000 1.000000 1.000000 -0.200800 0.600890 0.773699
277 1 -4.033721 9.963727 13.628673 0 1.000000 1.000000 1.000000 -0.234469 0.574309 0.784343
278 1 -3.912578 9.383156 14.069535 0 1.000000 1.000000 1.000000 -0.223810 0.540651 0.810929
279 1 -4.428187 8.872189 14.246665 0 1.000000 1.000000 1.000000 -0.257263 0.510910 0.820235
280 1 -4.291751 8.280475 14.639895 0 1.000000 1.000000 1.000000 -0.245643 0.477795 0.843428
281 1 -4.793233 7.743023 14.777543 0 1.000000 1.000000 1.000000 -0.278143 0.445288 0.851091
282 1 -3.900803 12.575587 11.310061 0 1.000000 1.000000 1.000000 -0.225286 0.725453 0.650356
283 1 -3.812759 12.070058 11.876763 0 1.000000 1.000000 1.000000 -0.219434 0.694347 0.685369
284 1 -4.361500 11.639478 12.114438 0 1.000000 1.000000 1.000000 -0.252366 0.671292 0.696906
285 1 -4.259297 11.095833 12.649425 0 1.000000 1.000000 1.000000 -0.244659 0.638639 0.729576
286 1 -4.804641 10.617960 12.861723 0 1.000000 1.000000 1.000000 -0.278261 0.612108 0.740199
287 1 -4.685981 10.044856 13.356824 0 1.000000 1.000000 1.000000 -0.268928 0.578605 0.769996
288 1 -5.221525 9.526543 13.536256 0 1.000000 1.000000 1.000000 -0.302438 0.548812 0.779318
289 1 -5.084873 8.934447 13.985234 0 1.000000 1.000000 1.000000 -0.291802 0.515219 0.805854
290 1 -5.604699 8.384739 14.125977 0 1.000000 1.000000 1.000000 -0.324459 0.482552 0.813554
291 1 -5.449494 7.785030 14.525056 0 1.000000 1.000000 1.000000 -0.312908 0.449627 0.836614
292 1 -5.948609 7.214363 14.623480 0 1.000000 1.000000 1.000000 -0.344016 0.414615 0.842465
293 1 -4.617674 13.138832 10.358984 0 1.000000 1.000000 1.000000 -0.265939 0.757781 0.595855
294 1 -4.541322 12.664283 10.965810 0 1.000000 1.000000 1.000000 -0.262037 0.728631 0.632798
295 1 -5.108814 12.237355 11.197393 0 1.000000 1.000000 1.000000 -0.294790 0.705698 0.644274
296 1 -5.017036 11.718079 11.779319 0 1.000000 1.000000 1.000000 -0.288911 0.674453 0.679444
297 1 -5.581185 11.239846 11.988914 0 1.000000 1.000000 1.000000 -0.322415 0.647995 0.690037
298 1 -5.470992 10.683372 12.536331 0 1.000000 1.000000 1.000000 -0.314690 0.615261 0.722789
299 1 -6.024680 10.159983 12.715741 0 1.000000 1.000000 1.000000 -0.348197 0.585468 0.732110
300 1 -5.893872 9.576258 13.220565 0 1.000000 1.000000 1.000000 -0.338866 0.551967 0.761907
301 1 -6.430419 9.016524 13.363002 0 1.000000 1.000000 1.000000 -0.371604 0.519218 0.769626
302 1 -6.277898 8.417102 13.819436 0 1.000000 1.000000 1.000000 -0.361001 0.485720 0.796087
303 1 -6.791610 7.831738 13.920214 0 1.000000 1.000000 1.000000 -0.392247 0.450551 0.801964
304 1 -6.617526 7.228709 14.325179 0 1.000000 1.000000 1.000000 -0.380762 0.417804 0.824900
305 1 -7.104091 6.629309 14.382091 0 1.000000 1.000000 1.000000 -0.409911 0.380860 0.828806
306 1 -5.320051 13.634638 9.329751 0 1.000000 1.000000 1.000000 -0.305899 0.786180 0.536980
307 1 -5.260619 13.198325 9.968513 0 1.000000 1.000000 1.000000 -0.303981 0.759491 0.575125
308 1 -5.843667 12.776154 10.190178 0 1.000000 1.000000 1.000000 -0.336606 0.736645 0.586559
309 1 -5.768215 12.289733 10.812233 0 1.000000 1.000000 1.000000 -0.332690 0.707402 0.623618
310 1 -6.348220 11.813030 11.015775 0 1.000000 1.000000 1.000000 -0.366103 0.681014 0.634184
311 1 -6.252968 11.282418 11.610530 0 1.000000 1.000000 1.000000 -0.360211 0.649696 0.669435
312 1 -6.822140 10.756385 11.787331 0 1.000000 1.000000 1.000000 -0.393684 0.619930 0.678748
313 1 -6.704044 10.190424 12.345125 0 1.000000 1.000000 1.000000 -0.385954 0.587170 0.711528
314 1 -7.254934 9.623316 12.487606 0 1.000000 1.000000 1.000000 -0.418717 0.554392 0.719253
315 1 -7.112116 9.033142 13.000660 0 1.000000 1.000000 1.000000 -0.409398 0.520923 0.749021
316 1 -7.638272 8.435632 13.103122 0 1.000000 1.000000 1.000000 -0.440717 0.485672 0.754911
317 1 -7.470287 7.833651 13.566243 0 1.000000 1.000000 1.000000 -0.430145 0.452263 0.781302
318 1 -7.966765 7.217812 13.625422 0 1.000000 1.000000 1.000000 -0.459386 0.415203 0.785221
319 1 -7.774652 6.616499 14.036305 0 1.000000 1.000000 1.000000 -0.447948 0.382581 0.808068
320 1 -8.238280 5.994618 14.051543 0 1.000000 1.000000 1.000000 -0.474632 0.344432 0.809995
321 1 -5.994618 14.051543 8.238280 0 1.000000 1.000000 1.000000 -0.344432 0.809995 0.474632
322 1 -5.956733 13.658921 8.898707 0 1.000000 1.000000 1.000000 -0.344424 0.786160 0.513152
323 1 -6.551273 13.242218 9.106986 0 1.000000 1.000000 1.000000 -0.377001 0.763345 0.524571
324 1 -6.497640 12.795764 9.759696 0 1.000000 1.000000 1.000000 -0.375079 0.736625 0.562760
325 1 -7.089663 12.322267 9.953956 0 1.000000 1.000000 1.000000 -0.408437 0.710278 0.573310
326 1 -7.015696 11.825954 10.587981 0 1.000000 1.000000 1.000000 -0.404515 0.680995 0.610420
327 1 -7.596845 11.299745 10.759523 0 1.000000 1.000000 1.000000 -0.437953 0.651259 0.619725
328 1 -7.498541 10.760788 11.364118 0 1.000000 1.000000 1.000000 -0.432056 0.619913 0.655008
329 1 -8.060647 10.189280 11.504848 0 1.000000 1.000000 1.000000 -0.464818 0.587136 0.662733
330 1 -7.935136 9.617769 12.070543 0 1.000000 1.000000 1.000000 -0.457089 0.554377 0.695512
331 1 -8.470973 9.011246 12.173893 0 1.000000 1.000000 1.000000 -0.488435 0.519094 0.701407
332 1 -8.316928 8.419283 12.693419 0 1.000000 1.000000 1.000000 -0.479127 0.485659 0.731145
333 1 -8.820850 7.789961 12.755075 0 1.000000 1.000000 1.000000 -0.508409 0.448548 0.735068
334 1 -8.638671 7.190471 13.223957 0 1.000000 1.000000 1.000000 -0.497856 0.415192 0.761416
335 1 -9.106986 6.551273 13.242218 0 1.000000 1.000000 1.000000 -0.524571 0.377001 0.763345
336 1 -8.898707 5.956733 13.658921 0 1.000000 1.000000 1.000000 -0.513152 0.344424 0.786160
337 1 -9.329751 5.320051 13.634638 0 1.000000 1.000000 1.000000 -0.536980 0.305899 0.786180
338 1 -6.629309 14.382091 7.104091 0 1.000000 1.000000 1.000000 -0.380860 0.828806 0.409911
339 1 -6.616499 14.036305 7.774652 0 1.000000 1.000000 1.000000 -0.382581 0.808068 0.447948
340 1 -7.217812 13.625422 7.966765 0 1.000000 1.000000 1.000000 -0.415203 0.785221 0.459386
341 1 -7.190471 13.223957 8.638671 0 1.000000 1.000000 1.000000 -0.415192 0.761416 0.497856
342 1 -7.789961 12.755075 8.820850 0 1.000000 1.000000 1.000000 -0.448548 0.735068 0.508409
343 1 -7.742786 12.299839 9.483425 0 1.000000 1.000000 1.000000 -0.446625 0.708350 0.546595
344 1 -8.331690 11.775853 9.647243 0 1.000000 1.000000 1.000000 -0.480047 0.678626 0.555897
345 1 -8.259716 11.272073 10.289316 0 1.000000 1.000000 1.000000 -0.476124 0.649333 0.593020
346 1 -8.829259 10.699335 10.426501 0 1.000000 1.000000 1.000000 -0.508877 0.616563 0.600745
347 1 -8.728494 10.155500 11.037438 0 1.000000 1.000000 1.000000 -0.502980 0.585212 0.636034
348 1 -9.270722 9.543570 11.140803 0 1.000000 1.000000 1.000000 -0.534331 0.549923 0.641930
349 1 -9.138713 8.970828 11.711564 0 1.000000 1.000000 1.000000 -0.526605 0.517170 0.674701
350 1 -9.647243 8.331690 11.775853 0 1.000000 1.000000 1.000000 -0.555897 0.480047 0.678626
351 1 -9.483425 7.742786 12.299839 0 1.000000 1.000000 1.000000 -0.546595 0.446625 0.708350
352 1 -9.953956 7.089663 12.322267 0 1.000000 1.000000 1.000000 -0.573310 0.408437 0.710278
353 1 -9.759696 6.497640 12.795764 0 1.000000 1.000000 1.000000 -0.562760 0.375079 0.736625
354 1 -10.190178 5.843667 12.776154 0 1.000000 1.000000 1.000000 -0.586559 0.336606 0.736645
355 1 -9.968513 5.260619 13.198325 0 1.000000 1.000000 1.000000 -0.575125 0.303981 0.759491
356 1 -10.358984 4.617674 13.138832 0 1.000000 1.000000 1.000000 -0.595855 0.265939 0.757781
357 1 -7.214363 14.623480 5.948609 0 1.000000 1.000000 1.000000 -0.414615 0.842465 0.344016
358 1 -7.228709 14.325179 6.617526 0 1.000000 1.000000 1.000000 -0.417804 0.824900 0.380762
359 1 -7.831738 13.920214 6.791610 0 1.000000 1.000000 1.000000 -0.450551 0.801964 0.392247
360 1 -7.833651 13.566243 7.470287 0 1.000000 1.000000 1.000000 -0.452263 0.781302 0.430145
361 1 -8.435632 13.103122 7.638272 0 1.000000 1.000000 1.000000 -0.485672 0.754911 0.440717
362 1 -8.419283 12.693419 8.316928 0 1.000000 1.000000 1.000000 -0.485659 0.731145 0.479127
363 1 -9.011246 12.173893 8.470973 0 1.000000 1.000000 1.000000 -0.519094 0.701407 0.488435
364 1 -8.970828 11.711564 9.138713 0 1.000000 1.000000 1.000000 -0.517170 0.674701 0.526605
365 1 -9.543570 11.140803 9.270722 0 1.000000 1.000000 1.000000 -0.549923 0.641930 0.534331
366 1 -9.473975 10.632355 9.916437 0 1.000000 1.000000 1.000000 -0.546000 0.612638 0.571453
367 1 -10.018925 10.018925 10.018925 0 1.000000 1.000000 1.000000 -0.577350 0.577350 0.577350
368 1 -9.916437 9.473975 10.632355 0 1.000000 1.000000 1.000000 -0.571453 0.546000 0.612638
369 1 -10.426501 8.829259 10.699335 0 1.000000 1.000000 1.000000 -0.600745 0.508877 0.616563
370 1 -10.289316 8.259716 11.272073 0 1.000000 1.000000 1.000000 -0.593020 0.476124 0.649333
371 1 -10.759523 7.596845 11.299745 0 1.000000 1.000000 1.000000 -0.619725 0.437953 0.651259
372 1 -10.587981 7.015696 11.825954 0 1.000000 1.000000 1.000000 -0.610420 0.404515 0.680995
373 1 -11.015775 6.348220 11.813030 0 1.000000 1.000000 1.000000 -0.634184 0.366103 0.681014
374 1 -10.812233 5.768215 12.289733 0 1.000000 1.000000 1.000000 -0.623618 0.332690 0.707402
375 1 -11.197393 5.108814 12.237355 0 1.000000 1.000000 1.000000 -0.644274 0.294790 0.705698
376 1 -10.965810 4.541322 12.664283 0 1.000000 1.000000 1.000000 -0.632798 0.262037 0.728631
377 1 -11.310061 3.900803 12.575587 0 1.000000 1.000000 1.000000 -0.650356 0.225286 0.725453
378 1 -7.743023 14.777543 4.793233 0 1.000000 1.000000 1.000000 -0.445288 0.851091 0.278143
379 1 -7.785030 14.525056 5.449494 0 1.000000 1.000000 1.000000 -0.449627 0.836614 0.312908
380 1 -8.384739 14.125977 5.604699 0 1.000000 1.000000 1.000000 -0.482552 0.813554 0.324459
381 1 -8.417102 13.819436 6.277898 0 1.000000 1.000000 1.000000 -0.485720 0.796087 0.361001
382 1 -9.016524 13.363002 6.430419 0 1.000000 1.000000 1.000000 -0.519218 0.769626 0.371604
383 1 -9.033142 13.000660 7.112116 0 1.000000 1.000000 1.000000 -0.520923 0.749021 0.409398
384 1 -9.623316 12.487606 7.254934 0 1.000000 1.000000 1.000000 -0.554392 0.719253 0.418717
385 1 -9.617769 12.070543 7.935136 0 1.000000 1.000000 1.000000 -0.554377 0.695512 0.457089
386 1 -10.189280 11.504848 8.060647 0 1.000000 1.000000 1.000000 -0.587136 0.662733 0.464818
387 1 -10.155500 11.037438 8.728494 0 1.000000 1.000000 1.000000 -0.585212 0.636034 0.502980
388 1 -10.699335 10.426501 8.829259 0 1.000000 1.000000 1.000000 -0.616563 0.600745 0.508877
389 1 -10.632355 9.916437 9.473975 0 1.000000 1.000000 1.000000 -0.612638 0.571453 0.546000
390 1 -11.140803 9.270722 9.543570 0 1.000000 1.000000 1.000000 -0.641930 0.534331 0.549923
391 1 -11.037438 8.728494 10.155500 0 1.000000 1.000000 1.000000 -0.636034 0.502980 0.585212
392 1 -11.504848 8.060647 10.189280 0 1.000000 1.000000 1.000000 -0.662733 0.464818 0.587136
393 1 -11.364118 7.498541 10.760788 0 1.000000 1.000000 1.000000 -0.655008 0.432056 0.619913
394 1 -11.787331 6.822140 10.756385 0 1.000000 1.000000 1.000000 -0.678748 0.393684 0.619930
395 1 -11.610530 6.252968 11.282418 0 1.000000 1.000000 1.000000 -0.669435 0.360211 0.649696
396 1 -11.988914 5.581185 11.239846 0 1.000000 1.000000 1.000000 -0.690037 0.322415 0.647995
397 1 -11.779319 5.017036 11.718079 0 1.000000 1.000000 1.000000 -0.679444 0.288911 0.674453
398 1 -12.114438 4.361500 11.639478 0 1.000000 1.000000 1.000000 -0.696906 0.252366 0.671292
399 1 -11.876763 3.812759 12.070058 0 1.000000 1.000000 1.000000 -0.685369 0.219434 0.694347
400 1 -12.171819 3.182806 11.959174 0 1.000000 1.000000 1.000000 -0.699840 0.184664 0.690017
401 1 -8.211774 14.850107 3.657579 0 1.000000 1.000000 1.000000 -0.472640 0.855031 0.213385
402 1 -8.280475 14.639895 4.291751 0 1.000000 1.000000 1.000000 -0.477795 0.843428 0.245643
403 1 -8.872189 14.246665 4.428187 0 1.000000 1.000000 1.000000 -0.510910 0.820235 0.257263
404 1 -8.934447 13.985234 5.084873 0 1.000000 1.000000 1.000000 -0.515219 0.805854 0.291802
405 1 -9.526543 13.536256 5.221525 0 1.000000 1.000000 1.000000 -0.548812 0.779318 0.302438
406 1 -9.576258 13.220565 5.893872 0 1.000000 1.000000 1.000000 -0.551967 0.761907 0.338866
407 1 -10.159983 12.715741 6.024680 0 1.000000 1.000000 1.000000 -0.585468 0.732110 0.348197
408 1 -10.190424 12.345125 6.704044 0 1.000000 1.000000 1.000000 -0.587170 0.711528 0.385954
409 1 -10.756385 11.787331 6.822140 0 1.000000 1.000000 1.000000 -0.619930 0.678748 0.393684
410 1 -10.760788 11.364118 7.498541 0 1.000000 1.000000 1.000000 -0.619913 0.655008 0.432056
411 1 -11.299745 10.759523 7.596845 0 1.000000 1.000000 1.000000 -0.651259 0.619725 0.437953
412 1 -11.272073 10.289316 8.259716 0 1.000000 1.000000 1.000000 -0.649333 0.593020 0.476124
413 1 -11.775853 9.647243 8.331690 0 1.000000 1.000000 1.000000 -0.678626 0.555897 0.480047
414 1 -11.711564 9.138713 8.970828 0 1.000000 1.000000 1.000000 -0.674701 0.526605 0.517170
415 1 -12.173893 8.470973 9.011246 0 1.000000 1.000000 1.000000 -0.701407 0.488435 0.519094
416 1 -12.070543 7.935136 9.617769 0 1.000000 1.000000 1.000000 -0.695512 0.457089 0.554377
417 1 -12.487606 7.254934 9.623316 0 1.000000 1.000000 1.000000 -0.719253 0.418717 0.554392
418 1 -12.345125 6.704044 10.190424 0 1.000000 1.000000 1.000000 -0.711528 0.385954 0.587170
419 1 -12.715741 6.024680 10.159983 0 1.000000 1.000000 1.000000 -0.732110 0.348197 0.585468
420 1 -12.536331 5.470992 10.683372 0 1.000000 1.000000 1.000000 -0.722789 0.314690 0.615261
421 1 -12.861723 4.804641 10.617960 0 1.000000 1.000000 1.000000 -0.740199 0.278261 0.612108
422 1 -12.649425 4.259297 11.095833 0 1.000000 1.000000 1.000000 -0.729576 0.244659 0.638639
423 1 -12.932699 3.616111 10.998230 0 1.000000 1.000000 1.000000 -0.743954 0.210119 0.634336
424 1 -12.692768 3.088361 11.430992 0 1.000000 1.000000 1.000000 -0.732351 0.176994 0.657522
425 1 -12.938264 2.475995 11.305201 0 1.000000 1.000000 1.000000 -0.743949 0.144733 0.652374
426 1 -8.620141 14.849933 2.558176 0 1.000000 1.000000 1.000000 -0.496603 0.854801 0.150667
427 1 -8.713378 14.677206 3.162905 0 1.000000 1.000000 1.000000 -0.502253 0.845764 0.180071
428 1 -9.293045 14.289865 3.281469 0 1.000000 1.000000 1.000000 -0.535529 0.822460 0.191751
429 1 -9.383156 14.069535 3.912578 0 1.000000 1.000000 1.000000 -0.540651 0.810929 0.223810
430 1 -9.963727 13.628673 4.033721 0 1.000000 1.000000 1.000000 -0.574309 0.784343 0.234469
431 1 -10.044856 13.356824 4.685981 0 1.000000 1.000000 1.000000 -0.578605 0.769996 0.268928
432 1 -10.617960 12.861723 4.804641 0 1.000000 1.000000 1.000000 -0.612108 0.740199 0.278261
433 1 -10.683372 12.536331 5.470992 0 1.000000 1.000000 1.000000 -0.615261 0.722789 0.314690
434 1 -11.239846 11.988914 5.581185 0 1.000000 1.000000 1.000000 -0.647995 0.690037 0.322415
435 1 -11.282418 11.610530 6.252968 0 1.000000 1.000000 1.000000 -0.649696 0.669435 0.360211
436 1 -11.813030 11.015775 6.348220 0 1.000000 1.000000 1.000000 -0.681014 0.634184 0.366103
437 1 -11.825954 10.587981 7.015696 0 1.000000 1.000000 1.000000 -0.680995 0.610420 0.404515
438 1 -12.322267 9.953956 7.089663 0 1.000000 1.000000 1.000000 -0.710278 0.573310 0.408437
439 1 -12.299839 9.483425 7.742786 0 1.000000 1.000000 1.000000 -0.708350 0.546595 0.446625
440 1 -12.755075 8.820850 7.789961 0 1.000000 1.000000 1.000000 -0.735068 0.508409 0.448548
441 1 -12.693419 8.316928 8.419283 0 1.000000 1.000000 1.000000 -0.731145 0.479127 0.485659
442 1 -13.103122 7.638272 8.435632 0 1.000000 1.000000 1.000000 -0.754911 0.440717 0.485672
443 1 -13.000660 7.112116 9.033142 0 1.000000 1.000000 1.000000 -0.749021 0.409398 0.520923
444 1 -13.363002 6.430419 9.016524 0 1.000000 1.000000 1.000000 -0.769626 0.371604 0.519218
445 1 -13.220565 5.893872 9.576258 0 1.000000 1.000000 1.000000 -0.761907 0.338866 0.551967
446 1 -13.536256 5.221525 9.526543 0 1.000000 1.000000 1.000000 -0.779318 0.302438 0.548812
447 1 -13.356824 4.685981 10.044856 0 1.000000 1.000000 1.000000 -0.769996 0.268928 0.578605
448 1 -13.628673 4.033721 9.963727 0 1.000000 1.000000 1.000000 -0.784343 0.234469 0.574309
449 1 -13.416847 3.509195 10.439228 0 1.000000 1.000000 1.000000 -0.773699 0.200800 0.600890
450 1 -13.649134 2.885476 10.329769 0 1.000000 1.000000 1.000000 -0.785228 0.168740 0.595771
451 1 -13.410482 2.380027 10.762980 0 1.000000 1.000000 1.000000 -0.773568 0.135452 0.619068
452 1 -13.608287 1.790796 10.629166 0 1.000000 1.000000 1.000000 -0.782602 0.106046 0.613423
453 1 -8.970171 14.787513 1.507757 0 1.000000 1.000000 1.000000 -0.517257 0.851011 0.090701
454 1 -9.084967 14.646859 2.077932 0 1.000000 1.000000 1.000000 -0.523114 0.844183 0.117079
455 1 -9.649317 14.265557 2.180085 0 1.000000 1.000000 1.000000 -0.556486 0.820814 0.128794
456 1 -9.764158 14.081289 2.778892 0 1.000000 1.000000 1.000000 -0.562110 0.811815 0.158079
457 1 -10.329769 13.649134 2.885476 0 1.000000 1.000000 1.000000 -0.595771 0.785228 0.168740
458 1 -10.439228 13.416847 3.509195 0 1.000000 1.000000 1.000000 -0.600890 0.773699 0.200800
459 1 -10.998230 12.932699 3.616111 0 1.000000 1.000000 1.000000 -0.634336 0.743954 0.210119
460 1 -11.095833 12.649425 4.259297 0 1.000000 1.000000 1.000000 -0.638639 0.729576 0.244659
461 1 -11.639478 12.114438 4.361500 0 1.000000 1.000000 1.000000 -0.671292 0.696906 0.252366
462 1 -11.718079 11.779319 5.017036 0 1.000000 1.000000 1.000000 -0.674453 0.679444 0.288911
463 1 -12.237355 11.197393 5.108814 0 1.000000 1.000000 1.000000 -0.705698 0.644274 0.294790
464 1 -12.289733 10.812233 5.768215 0 1.000000 1.000000 1.000000 -0.707402 0.623618 0.332690
465 1 -12.776154 10.190178 5.843667 0 1.000000 1.000000 1.000000 -0.736645 0.586559 0.336606
466 1 -12.795764 9.759696 6.497640 0 1.000000 1.000000 1.000000 -0.736625 0.562760 0.375079
467 1 -13.242218 9.106986 6.551273 0 1.000000 1.000000 1.000000 -0.763345 0.524571 0.377001
468 1 -13.223957 8.638671 7.190471 0 1.000000 1.000000 1.000000 -0.761416 0.497856 0.415192
469 1 -13.625422 7.966765 7.217812 0 1.000000 1.000000 1.000000 -0.785221 0.459386 0.415203
470 1 -13.566243 7.470287 7.833651 0 1.000000 1.000000 1.000000 -0.781302 0.430145 0.452263
471 1 -13.920214 6.791610 7.831738 0 1.000000 1.000000 1.000000 -0.801964 0.392247 0.450551
472 1 -13.819436 6.277898 8.417102 0 1.000000 1.000000 1.000000 -0.796087 0.361001 0.485720
473 1 -14.125977 5.604699 8.384739 0 1.000000 1.000000 1.000000 -0.813554 0.324459 0.482552
474 1 -13.985234 5.084873 8.934447 0 1.000000 1.000000 1.000000 -0.805854 0.291802 0.515219
475 1 -14.246665 4.428187 8.872189 0 1.000000 1.000000 1.000000 -0.820235 0.257263 0.510910
476 1 -14.069535 3.912578 9.383156 0 1.000000 1.000000 1.000000 -0.810929 0.223810 0.540651
477 1 -14.289865 3.281469 9.293045 0 1.000000 1.000000 1.000000 -0.822460 0.191751 0.535529
478 1 -14.081289 2.778892 9.764158 0 1.000000 1.000000 1.000000 -0.811815 0.158079 0.562110
479 1 -14.265557 2.180085 9.649317 0 1.000000 1.000000 1.000000 -0.820814 0.128794 0.556486
480 1 -14.031206 1.697438 10.081114 0 1.000000 1.000000 1.000000 -0.809120 0.095409 0.579847
481 1 -14.184854 1.135293 9.945292 0 1.000000 1.000000 1.000000 -0.815946 0.069030 0.573991
482 1 -9.265752 14.673934 0.515130 0 1.000000 1.000000 1.000000 -0.534788 0.844302 0.033984
483 1 -9.398698 14.559859 1.047765 0 1.000000 1.000000 1.000000 -0.540617 0.839315 0.057313
484 1 -9.945292 14.184854 1.135293 0 1.000000 1.000000 1.000000 -0.573991 0.815946 0.069030
485 1 -10.081114 14.031206 1.697438 0 1.000000 1.000000 1.000000 -0.579847 0.809120 0.095409
486 1 -10.629166 13.608287 1.790796 0 1.000000 1.000000 1.000000 -0.613423 0.782602 0.106046
487 1 -10.762980 13.410482 2.380027 0 1.000000 1.000000 1.000000 -0.619068 0.773568 0.135452
488 1 -11.305201 12.938264 2.475995 0 1.000000 1.000000 1.000000 -0.652374 0.743949 0.144733
489 1 -11.430992 12.692768 3.088361 0 1.000000 1.000000 1.000000 -0.657522 0.732351 0.176994
490 1 -11.959174 12.171819 3.182806 0 1.000000 1.000000 1.000000 -0.690017 0.699840 0.184664
491 1 -12.070058 11.876763 3.812759 0 1.000000 1.000000 1.000000 -0.694347 0.685369 0.219434
492 1 -12.575587 11.310061 3.900803 0 1.000000 1.000000 1.000000 -0.725453 0.650356 0.225286
493 1 -12.664283 10.965810 4.541322 0 1.000000 1.000000 1.000000 -0.728631 0.632798 0.262037
494 1 -13.138832 10.358984 4.617674 0 1.000000 1.000000 1.000000 -0.757781 0.595855 0.265939
495 1 -13.198325 9.968513 5.260619 0 1.000000 1.000000 1.000000 -0.759491 0.575125 0.303981
496 1 -13.634638 9.329751 5.320051 0 1.000000 1.000000 1.000000 -0.786180 0.536980 0.305899
497 1 -13.658921 8.898707 5.956733 0 1.000000 1.000000 1.000000 -0.786160 0.513152 0.344424
498 1 -14.051543 8.238280 5.994618 0 1.000000 1.000000 1.000000 -0.809995 0.474632 0.344432
499 1 -14.036305 7.774652 6.616499 0 1.000000 1.000000 1.000000 -0.808068 0.447948 0.382581
500 1 -14.382091 7.104091 6.629309 0 1.000000 1.000000 1.000000 -0.828806 0.409911 0.380860
501 1 -14.325179 6.617526 7.228709 0 1.000000 1.000000 1.000000 -0.824900 0.380762 0.417804
502 1 -14.623480 5.948609 7.214363 0 1.000000 1.000000 1.000000 -0.842465 0.344016 0.414615
503 1 -14.525056 5.449494 7.785030 0 1.000000 1.000000 1.000000 -0.836614 0.312908 0.449627
504 1 -14.777543 4.793233 7.743023 0 1.000000 1.000000 1.000000 -0.851091 0.278143 0.445288
505 1 -14.639895 4.291751 8.280475 0 1.000000 1.000000 1.000000 -0.843428 0.245643 0.477795
506 1 -14.850107 3.657579 8.211774 0 1.000000 1.000000 1.000000 -0.855031 0.213385 0.472640
507 1 -14.677206 3.162905 8.713378 0 1.000000 1.000000 1.000000 -0.845764 0.180071 0.502253
508 1 -14.849933 2.558176 8.620141 0 1.000000 1.000000 1.000000 -0.854801 0.150667 0.496603
509 1 -14.646859 2.077932 9.084967 0 1.000000 1.000000 1.000000 -0.844183 0.117079 0.523114
510 1 -14.787513 1.507757 8.970171 0 1.000000 1.000000 1.000000 -0.851011 0.090701 0.517257
511 1 -14.559859 1.047765 9.398698 0 1.000000 1.000000 1.000000 -0.839315 0.057313 0.540617
512 1 -14.673934 0.515130 9.265752 0 1.000000 1.000000 1.000000 -0.844302 0.033984 0.534788
513 1 0.000000 9.584120 14.477172 0 1.000000 1.000000 1.000000 0.000000 0.555791 0.831322
514 1 0.602658 10.274479 13.981406 0 1.000000 1.000000 1.000000 0.035064 0.594984 0.802973
515 1 0.000000 10.046253 14.159648 0 1.000000 1.000000 1.000000 0.000000 0.576038 0.817423
516 1 -0.602658 10.274479 13.981406 0 1.000000 1.000000 1.000000 -0.035064 0.594984 0.802973
517 1 1.241646 10.968560 13.398531 0 1.000000 1.000000 1.000000 0.072199 0.634342 0.769674
518 1 0.615653 10.749694 13.618001 0 1.000000 1.000000 1.000000 0.035063 0.617143 0.786069
519 1 0.000000 10.996684 13.432838 0 1.000000 1.000000 1.000000 0.000000 0.636085 0.771619
520 1 -0.615653 10.749694 13.618001 0 1.000000 1.000000 1.000000 -0.035063 0.617143 0.786069
521 1 -1.241646 10.968560 13.398531 0 1.000000 1.000000 1.000000 -0.072199 0.634342 0.769674
522 1 1.911843 11.653866 12.722777 0 1.000000 1.000000 1.000000 0.111082 0.673171 0.731096
523 1 1.266724 11.451039 12.985239 0 1.000000 1.000000 1.000000 0.072196 0.658163 0.749406
524 1 0.640731 11.717098 12.791718 0 1.000000 1.000000 1.000000 0.037232 0.677048 0.734996
525 1 0.000000 11.481608 13.019847 0 1.000000 1.000000 1.000000 0.000000 0.659808 0.751434
526 1 -0.640731 11.717098 12.791718 0 1.000000 1.000000 1.000000 -0.037232 0.677048 0.734996
527 1 -1.266724 11.451039 12.985239 0 1.000000 1.000000 1.000000 -0.072196 0.658163 0.749406
528 1 -1.911843 11.653866 12.722777 0 1.000000 1.000000 1.000000 -0.111082 0.673171 0.731096
529 1 2.605724 12.315831 11.951393 0 1.000000 1.000000 1.000000 0.151251 0.710667 0.687077
530 1 1.947127 12.136314 12.256856 0 1.000000 1.000000 1.000000 0.111077 0.698261 0.707173
531 1 1.313966 12.421034 12.053358 0 1.000000 1.000000 1.000000 0.076281 0.717052 0.692833
532 1 0.652688 12.204646 12.325758 0 1.000000 1.000000 1.000000 0.037230 0.701982 0.711221
533 1 0.000000 12.456704 12.087929 0 1.000000 1.000000 1.000000 0.000000 0.719219 0.694783
534 1 -0.652688 12.204646 12.325758 0 1.000000 1.000000 1.000000 -0.037230 0.701982 0.711221
535 1 -1.313966 12.421034 12.053358 0 1.000000 1.000000 1.000000 -0.076281 0.717052 0.692833
536 1 -1.947127 12.136314 12.256856 0 1.000000 1.000000 1.000000 -0.111077 0.698261 0.707173
537 1 -2.605724 12.315831 11.951393 0 1.000000 1.000000 1.000000 -0.151251 0.710667 0.687077
538 1 3.313419 12.938611 11.085700 0 1.000000 1.000000 1.000000 0.192109 0.745958 0.637684
539 1 2.648293 12.789738 11.431977 0 1.000000 1.000000 1.000000 0.151245 0.736490 0.659324
540 1 2.011539 13.091834 11.216833 0 1.000000 1.000000 1.000000 0.116648 0.755171 0.645067
541 1 1.335810 12.902647 11.532752 0 1.000000 1.000000 1.000000 0.076278 0.742705 0.665260
542 1 0.674533 13.170507 11.284162 0 1.000000 1.000000 1.000000 0.039119 0.759906 0.648855
543 1 0.000000 12.940952 11.566938 0 1.000000 1.000000 1.000000 0.000000 0.744811 0.667275
544 1 -0.674533 13.170507 11.284162 0 1.000000 1.000000 1.000000 -0.039119 0.759906 0.648855
545 1 -1.335810 12.902647 11.532752 0 1.000000 1.000000 1.000000 -0.076278 0.742705 0.665260
546 1 -2.011539 13.091834 11.216833 0 1.000000 1.000000 1.000000 -0.116648 0.755171 0.645067
547 1 -2.648293 12.789738 11.431977 0 1.000000 1.000000 1.000000 -0.151245 0.736490 0.659324
548 1 -3.313419 12.938611 11.085700 0 1.000000 1.000000 1.000000 -0.192109 0.745958 0.637684
549 1 4.023107 13.506295 10.131879 0 1.000000 1.000000 1.000000 0.232950 0.778170 0.583255
550 1 3.359370 13.394769 10.514344 0 1.000000 1.000000 1.000000 0.192101 0.771853 0.606085
551 1 2.722821 13.711979 10.286025 0 1.000000 1.000000 1.000000 0.157690 0.790431 0.591907
552 1 2.040116 13.557917 10.642237 0 1.000000 1.000000 1.000000 0.116643 0.780920 0.613643
553 1 1.374088 13.839975 10.381946 0 1.000000 1.000000 1.000000 0.079589 0.798070 0.597286
554 1 0.684234 13.641751 10.707952 0 1.000000 1.000000 1.000000 0.039118 0.785574 0.617530
555 1 0.000000 13.883440 10.414519 0 1.000000 1.000000 1.000000 0.000000 0.800666 0.599111
556 1 -0.684234 13.641751 10.707952 0 1.000000 1.000000 1.000000 -0.039118 0.785574 0.617530
557 1 -1.374088 13.839975 10.381946 0 1.000000 1.000000 1.000000 -0.079589 0.798070 0.597286
558 1 -2.040116 13.557917 10.642237 0 1.000000 1.000000 1.000000 -0.116643 0.780920 0.613643
559 1 -2.722821 13.711979 10.286025 0 1.000000 1.000000 1.000000 -0.157690 0.790431 0.591907
560 1 -3.359370 13.394769 10.514344 0 1.000000 1.000000 1.000000 -0.192101 0.771853 0.606085
561 1 -4.023107 13.506295 10.131879 0 1.000000 1.000000 1.000000 -0.232950 0.778170 0.583255
562 1 4.721792 14.004383 9.101236 0 1.000000 1.000000 1.000000 0.273015 0.806503 0.524419
563 1 4.067792 13.935532 9.512893 0 1.000000 1.000000 1.000000 0.232943 0.803395 0.547991
564 1 3.435244 14.264641 9.270242 0 1.000000 1.000000 1.000000 0.198662 0.821899 0.533869
565 1 2.754010 14.152614 9.660909 0 1.000000 1.000000 1.000000 0.157684 0.815562 0.556772
566 1 2.087347 14.446395 9.388266 0 1.000000 1.000000 1.000000 0.120728 0.832664 0.540459
567 1 1.390130 14.287818 9.753091 0 1.000000 1.000000 1.000000 0.079586 0.823132 0.562246
568 1 0.700275 14.539905 9.448987 0 1.000000 1.000000 1.000000 0.040505 0.838207 0.543846
569 1 0.000000 14.333751 9.784408 0 1.000000 1.000000 1.000000 0.000000 0.825702 0.564107
570 1 -0.700275 14.539905 9.448987 0 1.000000 1.000000 1.000000 -0.040505 0.838207 0.543846
571 1 -1.390130 14.287818 9.753091 0 1.000000 1.000000 1.000000 -0.079586 0.823132 0.562246
572 1 -2.087347 14.446395 9.388266 0 1.000000 1.000000 1.000000 -0.120728 0.832664 0.540459
573 1 -2.754010 14.152614 9.660909 0 1.000000 1.000000 1.000000 -0.157684 0.815562 0.556772
574 1 -3.435244 14.264641 9.270242 0 1.000000 1.000000 1.000000 -0.198662 0.821899 0.533869
575 1 -4.067792 13.935532 9.512893 0 1.000000 1.000000 1.000000 -0.232943 0.803395 0.547991
576 1 -4.721792 14.004383 9.101236 0 1.000000 1.000000 1.000000 -0.273015 0.806503 0.524419
577 1 5.396359 14.421288 8.009765 0 1.000000 1.000000 1.000000 0.311548 0.830318 0.462071
578 1 4.760214 14.398410 8.441677 0 1.000000 1.000000 1.000000 0.273008 0.830297 0.485874
579 1 4.135232 14.735413 8.184141 0 1.000000 1.000000 1.000000 0.238774 0.848774 0.471773
580 1 3.464262 14.670495 8.601048 0 1.000000 1.000000 1.000000 0.198657 0.845661 0.495372
581 1 2.801119 14.972733 8.315878 0 1.000000 1.000000 1.000000 0.161758 0.862734 0.479087
582 1 2.105438 14.860660 8.712429 0 1.000000 1.000000 1.000000 0.120724 0.856388 0.502022
583 1 1.414370 15.120724 8.398028 0 1.000000 1.000000 1.000000 0.081682 0.871446 0.483642
584 1 0.706425 14.958547 8.769760 0 1.000000 1.000000 1.000000 0.040504 0.861906 0.505448
585 1 0.000000 15.171034 8.425955 0 1.000000 1.000000 1.000000 0.000000 0.874409 0.485189
586 1 -0.706425 14.958547 8.769760 0 1.000000 1.000000 1.000000 -0.040504 0.861906 0.505448
587 1 -1.414370 15.120724 8.398028 0 1.000000 1.000000 1.000000 -0.081682 0.871446 0.483642
588 1 -2.105438 14.860660 8.712429 0 1.000000 1.000000 1.000000 -0.120724 0.856388 0.502022
589 1 -2.801119 14.972733 8.315878 0 1.000000 1.000000 1.000000 -0.161758 0.862734 0.479087
590 1 -3.464262 14.670495 8.601048 0 1.000000 1.000000 1.000000 -0.198657 0.845661 0.495372
591 1 -4.135232 14.735413 8.184141 0 1.000000 1.000000 1.000000 -0.238774 0.848774 0.471773
592 1 -4.760214 14.398410 8.441677 0 1.000000 1.000000 1.000000 -0.273008 0.830297 0.485874
593 1 -5.396359 14.421288 8.009765 0 1.000000 1.000000 1.000000 -0.311548 0.830318 0.462071
594 1 6.034741 14.749554 6.876987 0 1.000000 1.000000 1.000000 0.347871 0.849194 0.397310
595 1 5.423672 14.773512 7.319033 0 1.000000 1.000000 1.000000 0.311543 0.851972 0.420814
596 1 4.809389 15.113909 7.046829 0 1.000000 1.000000 1.000000 0.277259 0.870474 0.406696
597 1 4.157093 15.098688 7.480024 0 1.000000 1.000000 1.000000 0.238770 0.870452 0.430469
598 1 3.501417 15.405541 7.182772 0 1.000000 1.000000 1.000000 0.201870 0.887524 0.414186
599 1 2.816413 15.344505 7.601718 0 1.000000 1.000000 1.000000 0.161755 0.884409 0.437785
600 1 2.128610 15.609568 7.277878 0 1.000000 1.000000 1.000000 0.122728 0.899461 0.419414
601 1 1.422248 15.497860 7.677636 0 1.000000 1.000000 1.000000 0.081681 0.893112 0.442356
602 1 0.714302 15.714654 7.326863 0 1.000000 1.000000 1.000000 0.041185 0.905612 0.422103
603 1 0.000000 15.550006 7.703450 0 1.000000 1.000000 1.000000 0.000000 0.896070 0.443912
604 1 -0.714302 15.714654 7.326863 0 1.000000 1.000000 1.000000 -0.041185 0.905612 0.422103
605 1 -1.422248 15.497860 7.677636 0 1.000000 1.000000 1.000000 -0.081681 0.893112 0.442356
606 1 -2.128610 15.609568 7.277878 0 1.000000 1.000000 1.000000 -0.122728 0.899461 0.419414
607 1 -2.816413 15.344505 7.601718 0 1.000000 1.000000 1.000000 -0.161755 0.884409 0.437785
608 1 -3.501417 15.405541 7.182772 0 1.000000 1.000000 1.000000 -0.201870 0.887524 0.414186
609 1 -4.157093 15.098688 7.480024 0 1.000000 1.000000 1.000000 -0.238770 0.870452 0.430469
610 1 -4.809389 15.113909 7.046829 0 1.000000 1.000000 1.000000 -0.277259 0.870474 0.406696
611 1 -5.423672 14.773512 7.319033 0 1.000000 1.000000 1.000000 -0.311543 0.851972 0.420814
612 1 -6.034741 14.749554 6.876987 0 1.000000 1.000000 1.000000 -0.347871 0.849194 0.397310
613 1 6.626979 14.986504 5.724248 0 1.000000 1.000000 1.000000 0.381437 0.862970 0.331343
614 1 6.046757 15.055666 6.166061 0 1.000000 1.000000 1.000000 0.347868 0.868123 0.354049
615 1 5.445745 15.394839 5.880241 0 1.000000 1.000000 1.000000 0.313451 0.886696 0.339880
616 1 4.819446 15.429124 6.318963 0 1.000000 1.000000 1.000000 0.277257 0.889462 0.363298
617 1 4.174759 15.736487 6.010763 0 1.000000 1.000000 1.000000 0.240297 0.906562 0.346992
618 1 3.509026 15.728125 6.441376 0 1.000000 1.000000 1.000000 0.201868 0.906537 0.370729
619 1 2.828772 15.994873 6.109478 0 1.000000 1.000000 1.000000 0.162824 0.921595 0.352352
620 1 2.133360 15.937352 6.527033 0 1.000000 1.000000 1.000000 0.122727 0.918480 0.375942
621 1 1.428613 16.156122 6.171085 0 1.000000 1.000000 1.000000 0.082231 0.930980 0.355689
622 1 0.715918 16.045132 6.571157 0 1.000000 1.000000 1.000000 0.041185 0.924631 0.378631
623 1 0.000000 16.210961 6.192036 0 1.000000 1.000000 1.000000 0.000000 0.934172 0.356822
624 1 -0.715918 16.045132 6.571157 0 1.000000 1.000000 1.000000 -0.041185 0.924631 0.378631
625 1 -1.428613 16.156122 6.171085 0 1.000000 1.000000 1.000000 -0.082231 0.930980 0.355689
626 1 -2.133360 15.937352 6.527033 0 1.000000 1.000000 1.000000 -0.122727 0.918480 0.375942
627 1 -2.828772 15.994873 6.109478 0 1.000000 1.000000 1.000000 -0.162824 0.921595 0.352352
628 1 -3.509026 15.728125 6.441376 0 1.000000 1.000000 1.000000 -0.201868 0.906537 0.370729
629 1 -4.174759 15.736487 6.010763 0 1.000000 1.000000 1.000000 -0.240297 0.906562 0.346992
630 1 -4.819446 15.429124 6.318963 0 1.000000 1.000000 1.000000 -0.277257 0.889462 0.363298
631 1 -5.445745 15.394839 5.880241 0 1.000000 1.000000 1.000000 -0.313451 0.886696 0.339880
632 1 -6.046757 15.055666 6.166061 0 1.000000 1.000000 1.000000 -0.347868 0.868123 0.354049
633 1 -6.626979 14.986504 5.724248 0 1.000000 1.000000 1.000000 -0.381437 0.862970 0.331343
634 1 7.165942 15.134200 4.572807 0 1.000000 1.000000 1.000000 0.411874 0.871741 0.265380
635 1 6.620564 15.244736 5.004708 0 1.000000 1.000000 1.000000 0.381439 0.878757 0.286863
636 1 6.034779 15.578333 4.707094 0 1.000000 1.000000 1.000000 0.346833 0.897433 0.272619
637 1 5.440182 15.659273 5.140815 0 1.000000 1.000000 1.000000 0.313452 0.902555 0.295200
638 1 4.809427 15.963131 4.823451 0 1.000000 1.000000 1.000000 0.276391 0.919701 0.278852
639 1 4.170303 16.006060 5.254677 0 1.000000 1.000000 1.000000 0.240298 0.922457 0.302209
640 1 3.501451 16.271127 4.916590 0 1.000000 1.000000 1.000000 0.201213 0.937530 0.283815
641 1 2.825652 16.268301 5.340778 0 1.000000 1.000000 1.000000 0.162825 0.937504 0.307529
642 1 2.128633 16.486602 4.981754 0 1.000000 1.000000 1.000000 0.122319 0.950006 0.287273
643 1 1.427006 16.431944 5.394506 0 1.000000 1.000000 1.000000 0.082232 0.946892 0.310859
644 1 0.714311 16.597585 5.015319 0 1.000000 1.000000 1.000000 0.041046 0.956434 0.289050
645 1 0.000000 16.487593 5.412777 0 1.000000 1.000000 1.000000 0.000000 0.950085 0.311993
646 1 -0.714311 16.597585 5.015319 0 1.000000 1.000000 1.000000 -0.041046 0.956434 0.289050
647 1 -1.427006 16.431944 5.394506 0 1.000000 1.000000 1.000000 -0.082232 0.946892 0.310859
648 1 -2.128633 16.486602 4.981754 0 1.000000 1.000000 1.000000 -0.122319 0.950006 0.287273
649 1 -2.825652 16.268301 5.340778 0 1.000000 1.000000 1.000000 -0.162825 0.937504 0.307529
650 1 -3.501451 16.271127 4.916590 0 1.000000 1.000000 1.000000 -0.201213 0.937530 0.283815
651 1 -4.170303 16.006060 5.254677 0 1.000000 1.000000 1.000000 -0.240298 0.922457 0.302209
652 1 -4.809427 15.963131 4.823451 0 1.000000 1.000000 1.000000 -0.276391 0.919701 0.278852
653 1 -5.440182 15.659273 5.140815 0 1.000000 1.000000 1.000000 -0.313452 0.902555 0.295200
654 1 -6.034779 15.578333 4.707094 0 1.000000 1.000000 1.000000 -0.346833 0.897433 0.272619
655 1 -6.620564 15.244736 5.004708 0 1.000000 1.000000 1.000000 -0.381439 0.878757 0.286863
656 1 -7.165942 15.134200 4.572807 0 1.000000 1.000000 1.000000 -0.411874 0.871741 0.265380
657 1 7.647622 15.198772 3.442092 0 1.000000 1.000000 1.000000 0.438989 0.875829 0.200532
658 1 7.139241 15.345216 3.855839 0 1.000000 1.000000 1.000000 0.411879 0.884167 0.220466
659 1 6.570043 15.669469 3.548845 0 1.000000 1.000000 1.000000 0.377073 0.902952 0.206142
660 1 6.010960 15.792049 3.968200 0 1.000000 1.000000 1.000000 0.346838 0.909920 0.227486
661 1 5.396435 16.088803 3.643964 0 1.000000 1.000000 1.000000 0.309671 0.927116 0.211094
662 1 4.789499 16.178944 4.065493 0 1.000000 1.000000 1.000000 0.276395 0.932220 0.233607
663 1 4.135304 16.439198 3.723457 0 1.000000 1.000000 1.000000 0.237272 0.947308 0.215197
664 1 3.486379 16.488452 4.143327 0 1.000000 1.000000 1.000000 0.201216 0.950060 0.238532
665 1 2.801175 16.703921 3.783521 0 1.000000 1.000000 1.000000 0.160708 0.962563 0.218276
666 1 2.119228 16.704896 4.197759 0 1.000000 1.000000 1.000000 0.122321 0.962537 0.241992
667 1 1.414401 16.869001 3.820979 0 1.000000 1.000000 1.000000 0.081142 0.972077 0.220187
668 1 0.711112 16.816349 4.225788 0 1.000000 1.000000 1.000000 0.041047 0.968962 0.243779
669 1 0.000000 16.925121 3.833714 0 1.000000 1.000000 1.000000 0.000000 0.975311 0.220835
670 1 -0.711112 16.816349 4.225788 0 1.000000 1.000000 1.000000 -0.041047 0.968962 0.243779
671 1 -1.414401 16.869001 3.820979 0 1.000000 1.000000 1.000000 -0.081142 0.972077 0.220187
672 1 -2.119228 16.704896 4.197759 0 1.000000 1.000000 1.000000 -0.122321 0.962537 0.241992
673 1 -2.801175 16.703921 3.783521 0 1.000000 1.000000 1.000000 -0.160708 0.962563 0.218276
674 1 -3.486379 16.488452 4.143327 0 1.000000 1.000000 1.000000 -0.201216 0.950060 0.238532
675 1 -4.135304 16.439198 3.723457 0 1.000000 1.000000 1.000000 -0.237272 0.947308 0.215197
676 1 -4.789499 16.178944 4.065493 0 1.000000 1.000000 1.000000 -0.276395 0.932220 0.233607
677 1 -5.396435 16.088803 3.643964 0 1.000000 1.000000 1.000000 -0.309671 0.927116 0.211094
678 1 -6.010960 15.792049 3.968200 0 1.000000 1.000000 1.000000 -0.346838 0.909920 0.227486
679 1 -6.570043 15.669469 3.548845 0 1.000000 1.000000 1.000000 -0.377073 0.902952 0.206142
680 1 -7.139241 15.345216 3.855839 0 1.000000 1.000000 1.000000 -0.411879 0.884167 0.220466
681 1 -7.647622 15.198772 3.442092 0 1.000000 1.000000 1.000000 -0.438989 0.875829 0.200532
682 1 8.070991 15.189327 2.348419 0 1.000000 1.000000 1.000000 0.462756 0.875720 0.137738
683 1 7.600075 15.365265 2.737661 0 1.000000 1.000000 1.000000 0.438997 0.884858 0.155910
684 1 7.048300 15.677193 2.424053 0 1.000000 1.000000 1.000000 0.404021 0.903736 0.141519
685 1 6.526649 15.834953 2.821490 0 1.000000 1.000000 1.000000 0.377080 0.912021 0.161332
686 1 5.930006 16.121649 2.492977 0 1.000000 1.000000 1.000000 0.339841 0.929252 0.144910
687 1 5.358876 16.252919 2.896095 0 1.000000 1.000000 1.000000 0.309677 0.936203 0.166206
688 1 4.721902 16.505687 2.552547 0 1.000000 1.000000 1.000000 0.270551 0.951293 0.147798
689 1 4.105265 16.601824 2.958379 0 1.000000 1.000000 1.000000 0.237277 0.956396 0.170313
690 1 3.435339 16.812365 2.600129 0 1.000000 1.000000 1.000000 0.196803 0.968889 0.150075
691 1 2.780173 16.865207 3.005400 0 1.000000 1.000000 1.000000 0.160712 0.971644 0.173436
692 1 2.087412 17.026538 2.633365 0 1.000000 1.000000 1.000000 0.119569 0.981176 0.151650
693 1 1.403588 17.029357 3.034706 0 1.000000 1.000000 1.000000 0.081144 0.981149 0.175392
694 1 0.700298 17.136728 2.650466 0 1.000000 1.000000 1.000000 0.040111 0.987496 0.152456
695 1 0.000000 17.085144 3.044666 0 1.000000 1.000000 1.000000 0.000000 0.984380 0.176059
696 1 -0.700298 17.136728 2.650466 0 1.000000 1.000000 1.000000 -0.040111 0.987496 0.152456
697 1 -1.403588 17.029357 3.034706 0 1.000000 1.000000 1.000000 -0.081144 0.981149 0.175392
698 1 -2.087412 17.026538 2.633365 0 1.000000 1.000000 1.000000 -0.119569 0.981176 0.151650
699 1 -2.780173 16.865207 3.005400 0 1.000000 1.000000 1.000000 -0.160712 0.971644 0.173436
700 1 -3.435339 16.812365 2.600129 0 1.000000 1.000000 1.000000 -0.196803 0.968889 0.150075
701 1 -4.105265 16.601824 2.958379 0 1.000000 1.000000 1.000000 -0.237277 0.956396 0.170313
702 1 -4.721902 16.505687 2.552547 0 1.000000 1.000000 1.000000 -0.270551 0.951293 0.147798
703 1 -5.358876 16.252919 2.896095 0 1.000000 1.000000 1.000000 -0.309677 0.936203 0.166206
704 1 -5.930006 16.121649 2.492977 0 1.000000 1.000000 1.000000 -0.339841 0.929252 0.144910
705 1 -6.526649 15.834953 2.821490 0 1.000000 1.000000 1.000000 -0.377080 0.912021 0.161332
706 1 -7.048300 15.677193 2.424053 0 1.000000 1.000000 1.000000 -0.404021 0.903736 0.141519
707 1 -7.600075 15.365265 2.737661 0 1.000000 1.000000 1.000000 -0.438997 0.884858 0.155910
708 1 -8.070991 15.189327 2.348419 0 1.000000 1.000000 1.000000 -0.462756 0.875720 0.137738
709 1 8.437536 15.116699 1.304308 0 1.000000 1.000000 1.000000 0.483290 0.872003 0.077727
710 1 8.003182 15.315439 1.664727 0 1.000000 1.000000 1.000000 0.462767 0.881479 0.094029
711 1 7.469232 15.612923 1.347367 0 1.000000 1.000000 1.000000 0.427692 0.900413 0.079599
712 1 6.985265 15.798739 1.717450 0 1.000000 1.000000 1.000000 0.404031 0.909513 0.097698
713 1 6.407569 16.073187 1.387329 0 1.000000 1.000000 1.000000 0.366789 0.926747 0.081277
714 1 5.873961 16.238337 1.765418 0 1.000000 1.000000 1.000000 0.339850 0.935031 0.101092
715 1 5.256078 16.481544 1.422804 0 1.000000 1.000000 1.000000 0.300791 0.950096 0.082716
716 1 4.675150 16.617625 1.806815 0 1.000000 1.000000 1.000000 0.270559 0.957062 0.104065
717 1 4.023240 16.821532 1.452355 0 1.000000 1.000000 1.000000 0.230185 0.969525 0.083879
718 1 3.400066 16.920135 1.839838 0 1.000000 1.000000 1.000000 0.196809 0.974644 0.106467
719 1 2.722924 17.077635 1.474625 0 1.000000 1.000000 1.000000 0.155761 0.984154 0.084732
720 1 2.065436 17.131196 1.862881 0 1.000000 1.000000 1.000000 0.119573 0.986916 0.108160
721 1 1.374145 17.237007 1.488487 0 1.000000 1.000000 1.000000 0.078597 0.993254 0.085254
722 1 0.692831 17.239720 1.874731 0 1.000000 1.000000 1.000000 0.040113 0.993228 0.109035
723 1 0.000000 17.291127 1.493196 0 1.000000 1.000000 1.000000 0.000000 0.996344 0.085429
724 1 -0.692831 17.239720 1.874731 0 1.000000 1.000000 1.000000 -0.040113 0.993228 0.109035
725 1 -1.374145 17.237007 1.488487 0 1.000000 1.000000 1.000000 -0.078597 0.993254 0.085254
726 1 -2.065436 17.131196 1.862881 0 1.000000 1.000000 1.000000 -0.119573 0.986916 0.108160
727 1 -2.722924 17.077635 1.474625 0 1.000000 1.000000 1.000000 -0.155761 0.984154 0.084732
728 1 -3.400066 16.920135 1.839838 0 1.000000 1.000000 1.000000 -0.196809 0.974644 0.106467
729 1 -4.023240 16.821532 1.452355 0 1.000000 1.000000 1.000000 -0.230185 0.969525 0.083879
730 1 -4.675150 16.617625 1.806815 0 1.000000 1.000000 1.000000 -0.270559 0.957062 0.104065
731 1 -5.256078 16.481544 1.422804 0 1.000000 1.000000 1.000000 -0.300791 0.950096 0.082716
732 1 -5.873961 16.238337 1.765418 0 1.000000 1.000000 1.000000 -0.339850 0.935031 0.101092
733 1 -6.407569 16.073187 1.387329 0 1.000000 1.000000 1.000000 -0.366789 0.926747 0.081277
734 1 -6.985265 15.798739 1.717450 0 1.000000 1.000000 1.000000 -0.404031 0.909513 0.097698
735 1 -7.469232 15.612923 1.347367 0 1.000000 1.000000 1.000000 -0.427692 0.900413 0.079599
736 1 -8.003182 15.315439 1.664727 0 1.000000 1.000000 1.000000 -0.462767 0.881479 0.094029
737 1 -8.437536 15.116699 1.304308 0 1.000000 1.000000 1.000000 -0.483290 0.872003 0.077727
738 1 8.750622 14.992302 0.318368 0 1.000000 1.000000 1.000000 0.500804 0.865306 0.021003
739 1 8.350933 15.207413 0.647554 0 1.000000 1.000000 1.000000 0.483304 0.874736 0.035421
740 1 7.834877 15.489163 0.329186 0 1.000000 1.000000 1.000000 0.448226 0.893674 0.020992
741 1 7.387530 15.695933 0.668580 0 1.000000 1.000000 1.000000 0.427704 0.903149 0.037296
742 1 6.829344 15.956706 0.339393 0 1.000000 1.000000 1.000000 0.390558 0.920341 0.020919
743 1 6.333351 16.148144 0.688059 0 1.000000 1.000000 1.000000 0.366801 0.929478 0.039094
744 1 5.735779 16.380356 0.348665 0 1.000000 1.000000 1.000000 0.327907 0.944481 0.020798
745 1 5.192114 16.548607 0.705322 0 1.000000 1.000000 1.000000 0.300802 0.952816 0.040739
746 1 4.560217 16.744626 0.356656 0 1.000000 1.000000 1.000000 0.260623 0.965220 0.020651
747 1 3.972271 16.881471 0.719680 0 1.000000 1.000000 1.000000 0.230194 0.972232 0.042143
748 1 3.313560 17.034309 0.363024 0 1.000000 1.000000 1.000000 0.189329 0.981700 0.020505
749 1 2.687387 17.131871 0.730486 0 1.000000 1.000000 1.000000 0.155767 0.986848 0.043223
750 1 2.011634 17.235970 0.367463 0 1.000000 1.000000 1.000000 0.114920 0.993165 0.020388
751 1 1.355880 17.287546 0.737207 0 1.000000 1.000000 1.000000 0.078600 0.995939 0.043904
752 1 0.674566 17.339516 0.369745 0 1.000000 1.000000 1.000000 0.038533 0.999051 0.020323
753 1 0.000000 17.340384 0.739489 0 1.000000 1.000000 1.000000 0.000000 0.999025 0.044137
754 1 -0.674566 17.339516 0.369745 0 1.000000 1.000000 1.000000 -0.038533 0.999051 0.020323
755 1 -1.355880 17.287546 0.737207 0 1.000000 1.000000 1.000000 -0.078600 0.995939 0.043904
756 1 -2.011634 17.235970 0.367463 0 1.000000 1.000000 1.000000 -0.114920 0.993165 0.020388
757 1 -2.687387 17.131871 0.730486 0 1.000000 1.000000 1.000000 -0.155767 0.986848 0.043223
758 1 -3.313560 17.034309 0.363024 0 1.000000 1.000000 1.000000 -0.189329 0.981700 0.020505
759 1 -3.972271 16.881471 0.719680 0 1.000000 1.000000 1.000000 -0.230194 0.972232 0.042143
760 1 -4.560217 16.744626 0.356656 0 1.000000 1.000000 1.000000 -0.260623 0.965220 0.020651
761 1 -5.192114 16.548607 0.705322 0 1.000000 1.000000 1.000000 -0.300802 0.952816 0.040739
762 1 -5.735779 16.380356 0.348665 0 1.000000 1.000000 1.000000 -0.327907 0.944481 0.020798
763 1 -6.333351 16.148144 0.688059 0 1.000000 1.000000 1.000000 -0.366801 0.929478 0.039094
764 1 -6.829344 15.956706 0.339393 0 1.000000 1.000000 1.000000 -0.390558 0.920341 0.020919
765 1 -7.387530 15.695933 0.668580 0 1.000000 1.000000 1.000000 -0.427704 0.903149 0.037296
766 1 -7.834877 15.489163 0.329186 0 1.000000 1.000000 1.000000 -0.448226 0.893674 0.020992
767 1 -8.350933 15.207413 0.647554 0 1.000000 1.000000 1.000000 -0.483304 0.874736 0.035421
768 1 -8.750622 14.992302 0.318368 0 1.000000 1.000000 1.000000 -0.500804 0.865306 0.021003
769 1 0.515130 9.265752 14.673934 0 1.000000 1.000000 1.000000 0.033984 0.534788 0.844302
770 1 1.507757 8.970171 14.787513 0 1.000000 1.000000 1.000000 0.090701 0.517257 0.851011
771 1 1.047765 9.398698 14.559859 0 1.000000 1.000000 1.000000 0.057313 0.540617 0.839315
772 1 1.135293 9.945292 14.184854 0 1.000000 1.000000 1.000000 0.069030 0.573991 0.815946
773 1 2.558176 8.620141 14.849933 0 1.000000 1.000000 1.000000 0.150667 0.496603 0.854801
774 1 2.077932 9.084967 14.646859 0 1.000000 1.000000 1.000000 0.117079 0.523114 0.844183
775 1 2.180085 9.649317 14.265557 0 1.000000 1.000000 1.000000 0.128794 0.556486 0.820814
776 1 1.697438 10.081114 14.031206 0 1.000000 1.000000 1.000000 0.095409 0.579847 0.809120
777 1 1.790796 10.629166 13.608287 0 1.000000 1.000000 1.000000 0.106046 0.613423 0.782602
778 1 3.657579 8.211774 14.850107 0 1.000000 1.000000 1.000000 0.213385 0.472640 0.855031
779 1 3.162905 8.713378 14.677206 0 1.000000 1.000000 1.000000 0.180071 0.502253 0.845764
780 1 3.281469 9.293045 14.289865 0 1.000000 1.000000 1.000000 0.191751 0.535529 0.822460
781 1 2.778892 9.764158 14.081289 0 1.000000 1.000000 1.000000 0.158079 0.562110 0.811815
782 1 2.885476 10.329769 13.649134 0 1.000000 1.000000 1.000000 0.168740 0.595771 0.785228
783 1 2.380027 10.762980 13.410482 0 1.000000 1.000000 1.000000 0.135452 0.619068 0.773568
784 1 2.475995 11.305201 12.938264 0 1.000000 1.000000 1.000000 0.144733 0.652374 0.743949
785 1 4.793233 7.743023 14.777543 0 1.000000 1.000000 1.000000 0.278143 0.445288 0.851091
786 1 4.291751 8.280475 14.639895 0 1.000000 1.000000 1.000000 0.245643 0.477795 0.843428
787 1 4.428187 8.872189 14.246665 0 1.000000 1.000000 1.000000 0.257263 0.510910 0.820235
788 1 3.912578 9.383156 14.069535 0 1.000000 1.000000 1.000000 0.223810 0.540651 0.810929
789 1 4.033721 9.963727 13.628673 0 1.000000 1.000000 1.000000 0.234469 0.574309 0.784343
790 1 3.509195 10.439228 13.416847 0 1.000000 1.000000 1.000000 0.200800 0.600890 0.773699
791 1 3.616111 10.998230 12.932699 0 1.000000 1.000000 1.000000 0.210119 0.634336 0.743954
792 1 3.088361 11.430992 12.692768 0 1.000000 1.000000 1.000000 0.176994 0.657522 0.732351
793 1 3.182806 11.959174 12.171819 0 1.000000 1.000000 1.000000 0.184664 0.690017 0.699840
794 1 5.948609 7.214363 14.623480 0 1.000000 1.000000 1.000000 0.344016 0.414615 0.842465
795 1 5.449494 7.785030 14.525056 0 1.000000 1.000000 1.000000 0.312908 0.449627 0.836614
796 1 5.604699 8.384739 14.125977 0 1.000000 1.000000 1.000000 0.324459 0.482552 0.813554
797 1 5.084873 8.934447 13.985234 0 1.000000 1.000000 1.000000 0.291802 0.515219 0.805854
798 1 5.221525 9.526543 13.536256 0 1.000000 1.000000 1.000000 0.302438 0.548812 0.779318
799 1 4.685981 10.044856 13.356824 0 1.000000 1.000000 1.000000 0.268928 0.578605 0.769996
800 1 4.804641 10.617960 12.861723 0 1.000000 1.000000 1.000000 0.278261 0.612108 0.740199
801 1 4.259297 11.095833 12.649425 0 1.000000 1.000000 1.000000 0.244659 0.638639 0.729576
802 1 4.361500 11.639478 12.114438 0 1.000000 1.000000 1.000000 0.252366 0.671292 0.696906
803 1 3.812759 12.070058 11.876763 0 1.000000 1.000000 1.000000 0.219434 0.694347 0.685369
804 1 3.900803 12.575587 11.310061 0 1.000000 1.000000 1.000000 0.225286 0.725453 0.650356
805 1 7.104091 6.629309 14.382091 0 1.000000 1.000000 1.000000 0.409911 0.380860 0.828806
806 1 6.617526 7.228709 14.325179 0 1.000000 1.000000 1.000000 0.380762 0.417804 0.824900
807 1 6.791610 7.831738 13.920214 0 1.000000 1.000000 1.000000 0.392247 0.450551 0.801964
808 1 6.277898 8.417102 13.819436 0 1.000000 1.000000 1.000000 0.361001 0.485720 0.796087
809 1 6.430419 9.016524 13.363002 0 1.000000 1.000000 1.000000 0.371604 0.519218 0.769626
810 1 5.893872 9.576258 13.220565 0 1.000000 1.000000 1.000000 0.338866 0.551967 0.761907
811 1 6.024680 10.159983 12.715741 0 1.000000 1.000000 1.000000 0.348197 0.585468 0.732110
812 1 5.470992 10.683372 12.536331 0 1.000000 1.000000 1.000000 0.314690 0.615261 0.722789
813 1 5.581185 11.239846 11.988914 0 1.000000 1.000000 1.000000 0.322415 0.647995 0.690037
814 1 5.017036 11.718079 11.779319 0 1.000000 1.000000 1.000000 0.288911 0.674453 0.679444
815 1 5.108814 12.237355 11.197393 0 1.000000 1.000000 1.000000 0.294790 0.705698 0.644274
816 1 4.541322 12.664283 10.965810 0 1.000000 1.000000 1.000000 0.262037 0.728631 0.632798
817 1 4.617674 13.138832 10.358984 0 1.000000 1.000000 1.000000 0.265939 0.757781 0.595855
818 1 8.238280 5.994618 14.051543 0 1.000000 1.000000 1.000000 0.474632 0.344432 0.809995
819 1 7.774652 6.616499 14.036305 0 1.000000 1.000000 1.000000 0.447948 0.382581 0.808068
820 1 7.966765 7.217812 13.625422 0 1.000000 1.000000 1.000000 0.459386 0.415203 0.785221
821 1 7.470287 7.833651 13.566243 0 1.000000 1.000000 1.000000 0.430145 0.452263 0.781302
822 1 7.638272 8.435632 13.103122 0 1.000000 1.000000 1.000000 0.440717 0.485672 0.754911
823 1 7.112116 9.033142 13.000660 0 1.000000 1.000000 1.000000 0.409398 0.520923 0.749021
824 1 7.254934 9.623316 12.487606 0 1.000000 1.000000 1.000000 0.418717 0.554392 0.719253
825 1 6.704044 10.190424 12.345125 0 1.000000 1.000000 1.000000 0.385954 0.587170 0.711528
826 1 6.822140 10.756385 11.787331 0 1.000000 1.000000 1.000000 0.393684 0.619930 0.678748
827 1 6.252968 11.282418 11.610530 0 1.000000 1.000000 1.000000 0.360211 0.649696 0.669435
828 1 6.348220 11.813030 11.015775 0 1.000000 1.000000 1.000000 0.366103 0.681014 0.634184
829 1 5.768215 12.289733 10.812233 0 1.000000 1.000000 1.000000 0.332690 0.707402 0.623618
830 1 5.843667 12.776154 10.190178 0 1.000000 1.000000 1.000000 0.336606 0.736645 0.586559
831 1 5.260619 13.198325 9.968513 0 1.000000 1.000000 1.000000 0.303981 0.759491 0.575125
832 1 5.320051 13.634638 9.329751 0 1.000000 1.000000 1.000000 0.305899 0.786180 0.536980
833 1 9.329751 5.320051 13.634638 0 1.000000 1.000000 1.000000 0.536980 0.305899 0.786180
834 1 8.898707 5.956733 13.658921 0 1.000000 1.000000 1.000000 0.513152 0.344424 0.786160
835 1 9.106986 6.551273 13.242218 0 1.000000 1.000000 1.000000 0.524571 0.377001 0.763345
836 1 8.638671 7.190471 13.223957 0 1.000000 1.000000 1.000000 0.497856 0.415192 0.761416
837 1 8.820850 7.789961 12.755075 0 1.000000 1.000000 1.000000 0.508409 0.448548 0.735068
838 1 8.316928 8.419283 12.693419 0 1.000000 1.000000 1.000000 0.479127 0.485659 0.731145
839 1 8.470973 9.011246 12.173893 0 1.000000 1.000000 1.000000 0.488435 0.519094 0.701407
840 1 7.935136 9.617769 12.070543 0 1.000000 1.000000 1.000000 0.457089 0.554377 0.695512
841 1 8.060647 10.189280 11.504848 0 1.000000 1.000000 1.000000 0.464818 0.587136 0.662733
842 1 7.498541 10.760788 11.364118 0 1.000000 1.000000 1.000000 0.432056 0.619913 0.655008
843 1 7.596845 11.299745 10.759523 0 1.000000 1.000000 1.000000 0.437953 0.651259 0.619725
844 1 7.015696 11.825954 10.587981 0 1.000000 1.000000 1.000000 0.404515 0.680995 0.610420
845 1 7.089663 12.322267 9.953956 0 1.000000 1.000000 1.000000 0.408437 0.710278 0.573310
846 1 6.497640 12.795764 9.759696 0 1.000000 1.000000 1.000000 0.375079 0.736625 0.562760
847 1 6.551273 13.242218 9.106986 0 1.000000 1.000000 1.000000 0.377001 0.763345 0.524571
848 1 5.956733 13.658921 8.898707 0 1.000000 1.000000 1.000000 0.344424 0.786160 0.513152
849 1 5.994618 14.051543 8.238280 0 1.000000 1.000000 1.000000 0.344432 0.809995 0.474632
850 1 10.358984 4.617674 13.138832 0 1.000000 1.000000 1.000000 0.595855 0.265939 0.757781
851 1 9.968513 5.260619 13.198325 0 1.000000 1.000000 1.000000 0.575125 0.303981 0.759491
852 1 10.190178 5.843667 12.776154 0 1.000000 1.000000 1.000000 0.586559 0.336606 0.736645
853 1 9.759696 6.497640 12.795764 0 1.000000 1.000000 1.000000 0.562760 0.375079 0.736625
854 1 9.953956 7.089663 12.322267 0 1.000000 1.000000 1.000000 0.573310 0.408437 0.710278
855 1 9.483425 7.742786 12.299839 0 1.000000 1.000000 1.000000 0.546595 0.446625 0.708350
856 1 9.647243 8.331690 11.775853 0 1.000000 1.000000 1.000000 0.555897 0.480047 0.678626
857 1 9.138713 8.970828 11.711564 0 1.000000 1.000000 1.000000 0.526605 0.517170 0.674701
858 1 9.270722 9.543570 11.140803 0 1.000000 1.000000 1.000000 0.534331 0.549923 0.641930
859 1 8.728494 10.155500 11.037438 0 1.000000 1.000000 1.000000 0.502980 0.585212 0.636034
860 1 8.829259 10.699335 10.426501 0 1.000000 1.000000 1.000000 0.508877 0.616563 0.600745
861 1 8.259716 11.272073 10.289316 0 1.000000 1.000000 1.000000 0.476124 0.649333 0.593020
862 1 8.331690 11.775853 9.647243 0 1.000000 1.000000 1.000000 0.480047 0.678626 0.555897
863 1 7.742786 12.299839 9.483425 0 1.000000 1.000000 1.000000 0.446625 0.708350 0.546595
864 1 7.789961 12.755075 8.820850 0 1.000000 1.000000 1.000000 0.448548 0.735068 0.508409
865 1 7.190471 13.223957 8.638671 0 1.000000 1.000000 1.000000 0.415192 0.761416 0.497856
866 1 7.217812 13.625422 7.966765 0 1.000000 1.000000 1.000000 0.415203 0.785221 0.459386
867 1 6.616499 14.036305 7.774652 0 1.000000 1.000000 1.000000 0.382581 0.808068 0.447948
868 1 6.629309 14.382091 7.104091 0 1.000000 1.000000 1.000000 0.380860 0.828806 0.409911
869 1 11.310061 3.900803 12.575587 0 1.000000 1.000000 1.000000 0.650356 0.225286 0.725453
870 1 10.965810 4.541322 12.664283 0 1.000000 1.000000 1.000000 0.632798 0.262037 0.728631
871 1 11.197393 5.108814 12.237355 0 1.000000 1.000000 1.000000 0.644274 0.294790 0.705698
872 1 10.812233 5.768215 12.289733 0 1.000000 1.000000 1.000000 0.623618 0.332690 0.707402
873 1 11.015775 6.348220 11.813030 0 1.000000 1.000000 1.000000 0.634184 0.366103 0.681014
874 1 10.587981 7.015696 11.825954 0 1.000000 1.000000 1.000000 0.610420 0.404515 0.680995
875 1 10.759523 7.596845 11.299745 0 1.000000 1.000000 1.000000 0.619725 0.437953 0.651259
876 1 10.289316 8.259716 11.272073 0 1.000000 1.000000 1.000000 0.593020 0.476124 0.649333
877 1 10.426501 8.829259 10.699335 0 1.000000 1.000000 1.000000 0.600745 0.508877 0.616563
878 1 9.916437 9.473975 10.632355 0 1.000000 1.000000 1.000000 0.571453 0.546000 0.612638
879 1 10.018925 10.018925 10.018925 0 1.000000 1.000000 1.000000 0.577350 0.577350 0.577350
880 1 9.473975 10.632355 9.916437 0 1.000000 1.000000 1.000000 0.546000 0.612638 0.571453
881 1 9.543570 11.140803 9.270722 0 1.000000 1.000000 1.000000 0.549923 0.641930 0.534331
882 1 8.970828 11.711564 9.138713 0 1.000000 1.000000 1.000000 0.517170 0.674701 0.526605
883 1 9.011246 12.173893 8.470973 0 1.000000 1.000000 1.000000 0.519094 0.701407 0.488435
884 1 8.419283 12.693419 8.316928 0 1.000000 1.000000 1.000000 0.485659 0.731145 0.479127
885 1 8.435632 13.103122 7.638272 0 1.000000 1.000000 1.000000 0.485672 0.754911 0.440717
886 1 7.833651 13.566243 7.470287 0 1.000000 1.000000 1.000000 0.452263 0.781302 0.430145
887 1 7.831738 13.920214 6.791610 0 1.000000 1.000000 1.000000 0.450551 0.801964 0.392247
888 1 7.228709 14.325179 6.617526 0 1.000000 1.000000 1.000000 0.417804 0.824900 0.380762
889 1 7.214363 14.623480 5.948609 0 1.000000 1.000000 1.000000 0.414615 0.842465 0.344016
890 1 12.171819 3.182806 11.959174 0 1.000000 1.000000 1.000000 0.699840 0.184664 0.690017
891 1 11.876763 3.812759 12.070058 0 1.000000 1.000000 1.000000 0.685369 0.219434 0.694347
892 1 12.114438 4.361500 11.639478 0 1.000000 1.000000 1.000000 0.696906 0.252366 0.671292
893 1 11.779319 5.017036 11.718079 0 1.000000 1.000000 1.000000 0.679444 0.288911 0.674453
894 1 11.988914 5.581185 11.239846 0 1.000000 1.000000 1.000000 0.690037 0.322415 0.647995
895 1 11.610530 6.252968 11.282418 0 1.000000 1.000000 1.000000 0.669435 0.360211 0.649696
896 1 11.787331 6.822140 10.756385 0 1.000000 1.000000 1.000000 0.678748 0.393684 0.619930
897 1 11.364118 7.498541 10.760788 0 1.000000 1.000000 1.000000 0.655008 0.432056 0.619913
898 1 11.504848 8.060647 10.189280 0 1.000000 1.000000 1.000000 0.662733 0.464818 0.587136
899 1 11.037438 8.728494 10.155500 0 1.000000 1.000000 1.000000 0.636034 0.502980 0.585212
900 1 11.140803 9.270722 9.543570 0 1.000000 1.000000 1.000000 0.641930 0.534331 0.549923
901 1 10.632355 9.916437 9.473975 0 1.000000 1.000000 1.000000 0.612638 0.571453 0.546000
902 1 10.699335 10.426501 8.829259 0 1.000000 1.000000 1.000000 0.616563 0.600745 0.508877
903 1 10.155500 11.037438 8.728494 0 1.000000 1.000000 1.000000 0.585212 0.636034 0.502980
904 1 10.189280 11.504848 8.060647 0 1.000000 1.000000 1.000000 0.587136 0.662733 0.464818
905 1 9.617769 12.070543 7.935136 0 1.000000 1.000000 1.000000 0.554377 0.695512 0.457089
906 1 9.623316 12.487606 7.254934 0 1.000000 1.000000 1.000000 0.554392 0.719253 0.418717
907 1 9.033142 13.000660 7.112116 0 1.000000 1.000000 1.000000 0.520923 0.749021 0.409398
908 1 9.016524 13.363002 6.430419 0 1.000000 1.000000 1.000000 0.519218 0.769626 0.371604
909 1 8.417102 13.819436 6.277898 0 1.000000 1.000000 1.000000 0.485720 0.796087 0.361001
910 1 8.384739 14.125977 5.604699 0 1.000000 1.000000 1.000000 0.482552 0.813554 0.324459
911 1 7.785030 14.525056 5.449494 0 1.000000 1.000000 1.000000 0.449627 0.836614 0.312908
912 1 7.743023 14.777543 4.793233 0 1.000000 1.000000 1.000000 0.445288 0.851091 0.278143
913 1 12.938264 2.475995 11.305201 0 1.000000 1.000000 1.000000 0.743949 0.144733 0.652374
914 1 12.692768 3.088361 11.430992 0 1.000000 1.000000 1.000000 0.732351 0.176994 0.657522
915 1 12.932699 3.616111 10.998230 0 1.000000 1.000000 1.000000 0.743954 0.210119 0.634336
916 1 12.649425 4.259297 11.095833 0 1.000000 1.000000 1.000000 0.729576 0.244659 0.638639
917 1 12.861723 4.804641 10.617960 0 1.000000 1.000000 1.000000 0.740199 0.278261 0.612108
918 1 12.536331 5.470992 10.683372 0 1.000000 1.000000 1.000000 0.722789 0.314690 0.615261
919 1 12.715741 6.024680 10.159983 0 1.000000 1.000000 1.000000 0.732110 0.348197 0.585468
920 1 12.345125 6.704044 10.190424 0 1.000000 1.000000 1.000000 0.711528 0.385954 0.587170
921 1 12.487606 7.254934 9.623316 0 1.000000 1.000000 1.000000 0.719253 0.418717 0.554392
922 1 12.070543 7.935136 9.617769 0 1.000000 1.000000 1.000000 0.695512 0.457089 0.554377
923 1 12.173893 8.470973 9.011246 0 1.000000 1.000000 1.000000 0.701407 0.488435 0.519094
924 1 11.711564 9.138713 8.970828 0 1.000000 1.000000 1.000000 0.674701 0.526605 0.517170
925 1 11.775853 9.647243 8.331690 0 1.000000 1.000000 1.000000 0.678626 0.555897 0.480047
926 1 11.272073 10.289316 8.259716 0 1.000000 1.000000 1.000000 0.649333 0.593020 0.476124
927 1 11.299745 10.759523 7.596845 0 1.000000 1.000000 1.000000 0.651259 0.619725 0.437953
928 1 10.760788 11.364118 7.498541 0 1.000000 1.000000 1.000000 0.619913 0.655008 0.432056
929 1 10.756385 11.787331 6.822140 0 1.000000 1.000000 1.000000 0.619930 0.678748 0.393684
930 1 10.190424 12.345125 6.704044 0 1.000000 1.000000 1.000000 0.587170 0.711528 0.385954
931 1 10.159983 12.715741 6.024680 0 1.000000 1.000000 1.000000 0.585468 0.732110 0.348197
932 1 9.576258 13.220565 5.893872 0 1.000000 1.000000 1.000000 0.551967 0.761907 0.338866
933 1 9.526543 13.536256 5.221525 0 1.000000 1.000000 1.000000 0.548812 0.779318 0.302438
934 1 8.934447 13.985234 5.084873 0 1.000000 1.000000 1.000000 0.515219 0.805854 0.291802
935 1 8.872189 14.246665 4.428187 0 1.000000 1.000000 1.000000 0.510910 0.820235 0.257263
936 1 8.280475 14.639895 4.291751 0 1.000000 1.000000 1.000000 0.477795 0.843428 0.245643
937 1 8.211774 14.850107 3.657579 0 1.000000 1.000000 1.000000 0.472640 0.855031 0.213385
938 1 13.608287 1.790796 10.629166 0 1.000000 1.000000 1.000000 0.782602 0.106046 0.613423
939 1 13.410482 2.380027 10.762980 0 1.000000 1.000000 1.000000 0.773568 0.135452 0.619068
940 1 13.649134 2.885476 10.329769 0 1.000000 1.000000 1.000000 0.785228 0.168740 0.595771
941 1 13.416847 3.509195 10.439228 0 1.000000 1.000000 1.000000 0.773699 0.200800 0.600890
942 1 13.628673 4.033721 9.963727 0 1.000000 1.000000 1.000000 0.784343 0.234469 0.574309
943 1 13.356824 4.685981 10.044856 0 1.000000 1.000000 1.000000 0.769996 0.268928 0.578605
944 1 13.536256 5.221525 9.526543 0 1.000000 1.000000 1.000000 0.779318 0.302438 0.548812
945 1 13.220565 5.893872 9.576258 0 1.000000 1.000000 1.000000 0.761907 0.338866 0.551967
946 1 13.363002 6.430419 9.016524 0 1.000000 1.000000 1.000000 0.769626 0.371604 0.519218
947 1 13.000660 7.112116 9.033142 0 1.000000 1.000000 1.000000 0.749021 0.409398 0.520923
948 1 13.103122 7.638272 8.435632 0 1.000000 1.000000 1.000000 0.754911 0.440717 0.485672
949 1 12.693419 8.316928 8.419283 0 1.000000 1.000000 1.000000 0.731145 0.479127 0.485659
950 1 12.755075 8.820850 7.789961 0 1.000000 1.000000 1.000000 0.735068 0.508409 0.448548
951 1 12.299839 9.483425 7.742786 0 1.000000 1.000000 1.000000 0.708350 0.546595 0.446625
952 1 12.322267 9.953956 7.089663 0 1.000000 1.000000 1.000000 0.710278 0.573310 0.408437
953 1 11.825954 10.587981 7.015696 0 1.000000 1.000000 1.000000 0.680995 0.610420 0.404515
954 1 11.813030 11.015775 6.348220 0 1.000000 1.000000 1.000000 0.681014 0.634184 0.366103
955 1 11.282418 11.610530 6.252968 0 1.000000 1.000000 1.000000 0.649696 0.669435 0.360211
956 1 11.239846 11.988914 5.581185 0 1.000000 1.000000 1.000000 0.647995 0.690037 0.322415
957 1 10.683372 12.536331 5.470992 0 1.000000 1.000000 1.000000 0.615261 0.722789 0.314690
958 1 10.617960 12.861723 4.804641 0 1.000000 1.000000 1.000000 0.612108 0.740199 0.278261
959 1 10.044856 13.356824 4.685981 0 1.000000 1.000000 1.000000 0.578605 0.769996 0.268928
960 1 9.963727 13.628673 4.033721 0 1.000000 1.000000 1.000000 0.574309 0.784343 0.234469
961 1 9.383156 14.069535 3.912578 0 1.000000 1.000000 1.000000 0.540651 0.810929 0.223810
962 1 9.293045 14.289865 3.281469 0 1.000000 1.000000 1.000000 0.535529 0.822460 0.191751
963 1 8.713378 14.677206 3.162905 0 1.000000 1.000000 1.000000 0.502253 0.845764 0.180071
964 1 8.620141 14.849933 2.558176 0 1.000000 1.000000 1.000000 0.496603 0.854801 0.150667
965 1 14.184854 1.135293 9.945292 0 1.000000 1.000000 1.000000 0.815946 0.069030 0.573991
966 1 14.031206 1.697438 10.081114 0 1.000000 1.000000 1.000000 0.809120 0.095409 0.579847
967 1 14.265557 2.180085 9.649317 0 1.000000 1.000000 1.000000 0.820814 0.128794 0.556486
968 1 14.081289 2.778892 9.764158 0 1.000000 1.000000 1.000000 0.811815 0.158079 0.562110
969 1 14.289865 3.281469 9.293045 0 1.000000 1.000000 1.000000 0.822460 0.191751 0.535529
970 1 14.069535 3.912578 9.383156 0 1.000000 1.000000 1.000000 0.810929 0.223810 0.540651
971 1 14.246665 4.428187 8.872189 0 1.000000 1.000000 1.000000 0.820235 0.257263 0.510910
972 1 13.985234 5.084873 8.934447 0 1.000000 1.000000 1.000000 0.805854 0.291802 0.515219
973 1 14.125977 5.604699 8.384739 0 1.000000 1.000000 1.000000 0.813554 0.324459 0.482552
974 1 13.819436 6.277898 8.417102 0 1.000000 1.000000 1.000000 0.796087 0.361001 0.485720
975 1 13.920214 6.791610 7.831738 0 1.000000 1.000000 1.000000 0.801964 0.392247 0.450551
976 1 13.566243 7.470287 7.833651 0 1.000000 1.000000 1.000000 0.781302 0.430145 0.452263
977 1 13.625422 7.966765 7.217812 0 1.000000 1.000000 1.000000 0.785221 0.459386 0.415203
978 1 13.223957 8.638671 7.190471 0 1.000000 1.000000 1.000000 0.761416 0.497856 0.415192
979 1 13.242218 9.106986 6.551273 0 1.000000 1.000000 1.000000 0.763345 0.524571 0.377001
980 1 12.795764 9.759696 6.497640 0 1.000000 1.000000 1.000000 0.736625 0.562760 0.375079
981 1 12.776154 10.190178 5.843667 0 1.000000 1.000000 1.000000 0.736645 0.586559 0.336606
982 1 12.289733 10.812233 5.768215 0 1.000000 1.000000 1.000000 0.707402 0.623618 0.332690
983 1 12.237355 11.197393 5.108814 0 1.000000 1.000000 1.000000 0.705698 0.644274 0.294790
984 1 11.718079 11.779319 5.017036 0 1.000000 1.000000 1.000000 0.674453 0.679444 0.288911
985 1 11.639478 12.114438 4.361500 0 1.000000 1.000000 1.000000 0.671292 0.696906 0.252366
986 1 11.095833 12.649425 4.259297 0 1.000000 1.000000 1.000000 0.638639 0.729576 0.244659
987 1 10.998230 12.932699 3.616111 0 1.000000 1.000000 1.000000 0.634336 0.743954 0.210119
988 1 10.439228 13.416847 3.509195 0 1.000000 1.000000 1.000000 0.600890 0.773699 0.200800
989 1 10.329769 13.649134 2.885476 0 1.000000 1.000000 1.000000 0.595771 0.785228 0.168740
990 1 9.764158 14.081289 2.778892 0 1.000000 1.000000 1.000000 0.562110 0.811815 0.158079
991 1 9.649317 14.265557 2.180085 0 1.000000 1.000000 1.000000 0.556486 0.820814 0.128794
992 1 9.084967 14.646859 2.077932 0 1.000000 1.000000 1.000000 0.523114 0.844183 0.117079
993 1 8.970171 14.787513 1.507757 0 1.000000 1.000000 1.000000 0.517257 0.851011 0.090701
994 1 14.673934 0.515130 9.265752 0 1.000000 1.000000 1.000000 0.844302 0.033984 0.534788
995 1 14.559859 1.047765 9.398698 0 1.000000 1.000000 1.000000 0.839315 0.057313 0.540617
996 1 14.787513 1.507757 8.970171 0 1.000000 1.000000 1.000000 0.851011 0.090701 0.517257
997 1 14.646859 2.077932 9.084967 0 1.000000 1.000000 1.000000 0.844183 0.117079 0.523114
998 1 14.849933 2.558176 8.620141 0 1.000000 1.000000 1.000000 0.854801 0.150667 0.496603
999 1 14.677206 3.162905 8.713378 0 1.000000 1.000000 1.000000 0.845764 0.180071 0.502253
1000 1 14.850107 3.657579 8.211774 0 1.000000 1.000000 1.000000 0.855031 0.213385 0.472640
1001 1 14.639895 4.291751 8.280475 0 1.000000 1.000000 1.000000 0.843428 0.245643 0.477795
1002 1 14.777543 4.793233 7.743023 0 1.000000 1.000000 1.000000 0.851091 0.278143 0.445288
1003 1 14.525056 5.449494 7.785030 0 1.000000 1.000000 1.000000 0.836614 0.312908 0.449627
1004 1 14.623480 5.948609 7.214363 0 1.000000 1.000000 1.000000 0.842465 0.344016 0.414615
1005 1 14.325179 6.617526 7.228709 0 1.000000 1.000000 1.000000 0.824900 0.380762 0.417804
1006 1 14.382091 7.104091 6.629309 0 1.000000 1.000000 1.000000 0.828806 0.409911 0.380860
1007 1 14.036305 7.774652 6.616499 0 1.000000 1.000000 1.000000 0.808068 0.447948 0.382581
1008 1 14.051543 8.238280 5.994618 0 1.000000 1.000000 1.000000 0.809995 0.474632 0.344432
1009 1 13.658921 8.898707 5.956733 0 1.000000 1.000000 1.000000 0.786160 0.513152 0.344424
1010 1 13.634638 9.329751 5.320051 0 1.000000 1.000000 1.000000 0.786180 0.536980 0.305899
1011 1 13.198325 9.968513 5.260619 0 1.000000 1.000000 1.000000 0.759491 0.575125 0.303981
1012 1 13.138832 10.358984 4.617674 0 1.000000 1.000000 1.000000 0.757781 0.595855 0.265939
1013 1 12.664283 10.965810 4.541322 0 1.000000 1.000000 1.000000 0.728631 0.632798 0.262037
1014 1 12.575587 11.310061 3.900803 0 1.000000 1.000000 1.000000 0.725453 0.650356 0.225286
1015 1 12.070058 11.876763 3.812759 0 1.000000 1.000000 1.000000 0.694347 0.685369 0.219434
1016 1 11.959174 12.171819 3.182806 0 1.000000 1.000000 1.000000 0.690017 0.699840 0.184664
1017 1 11.430992 12.692768 3.088361 0 1.000000 1.000000 1.000000 0.657522 0.732351 0.176994
1018 1 11.305201 12.938264 2.475995 0 1.000000 1.000000 1.000000 0.652374 0.743949 0.144733
1019 1 10.762980 13.410482 2.380027 0 1.000000 1.000000 1.000000 0.619068 0.773568 0.135452
1020 1 10.629166 13.608287 1.790796 0 1.000000 1.000000 1.000000 0.613423 0.782602 0.106046
1021 1 10.081114 14.031206 1.697438 0 1.000000 1.000000 1.000000 0.579847 0.809120 0.095409
1022 1 9.945292 14.184854 1.135293 0 1.000000 1.000000 1.000000 0.573991 0.815946 0.069030
1023 1 9.398698 14.559859 1.047765 0 1.000000 1.000000 1.000000 0.540617 0.839315 0.057313
1024 1 9.265752 14.673934 0.515130 0 1.000000 1.000000 1.000000 0.534788 0.844302 0.033984
1025 1 0.318368 8.750622 14.992302 0 1.000000 1.000000 1.000000 0.021003 0.500804 0.865306
1026 1 0.329186 7.834877 15.489163 0 1.000000 1.000000 1.000000 0.020992 0.448226 0.893674
1027 1 0.647554 8.350933 15.207413 0 1.000000 1.000000 1.000000 0.035421 0.483304 0.874736
1028 1 1.304308 8.437536 15.116699 0 1.000000 1.000000 1.000000 0.077727 0.483290 0.872003
1029 1 0.339393 6.829344 15.956706 0 1.000000 1.000000 1.000000 0.020919 0.390558 0.920341
1030 1 0.668580 7.387530 15.695933 0 1.000000 1.000000 1.000000 0.037296 0.427704 0.903149
1031 1 1.347367 7.469232 15.612923 0 1.000000 1.000000 1.000000 0.079599 0.427692 0.900413
1032 1 1.664727 8.003182 15.315439 0 1.000000 1.000000 1.000000 0.094029 0.462767 0.881479
1033 1 2.348419 8.070991 15.189327 0 1.000000 1.000000 1.000000 0.137738 0.462756 0.875720
1034 1 0.348665 5.735779 16.380356 0 1.000000 1.000000 1.000000 0.020798 0.327907 0.944481
1035 1 0.688059 6.333351 16.148144 0 1.000000 1.000000 1.000000 0.039094 0.366801 0.929478
1036 1 1.387329 6.407569 16.073187 0 1.000000 1.000000 1.000000 0.081277 0.366789 0.926747
1037 1 1.717450 6.985265 15.798739 0 1.000000 1.000000 1.000000 0.097698 0.404031 0.909513
1038 1 2.424053 7.048300 15.677193 0 1.000000 1.000000 1.000000 0.141519 0.404021 0.903736
1039 1 2.737661 7.600075 15.365265 0 1.000000 1.000000 1.000000 0.155910 0.438997 0.884858
1040 1 3.442092 7.647622 15.198772 0 1.000000 1.000000 1.000000 0.200532 0.438989 0.875829
1041 1 0.356656 4.560217 16.744626 0 1.000000 1.000000 1.000000 0.020651 0.260623 0.965220
1042 1 0.705322 5.192114 16.548607 0 1.000000 1.000000 1.000000 0.040739 0.300802 0.952816
1043 1 1.422804 5.256078 16.481544 0 1.000000 1.000000 1.000000 0.082716 0.300791 0.950096
1044 1 1.765418 5.873961 16.238337 0 1.000000 1.000000 1.000000 0.101092 0.339850 0.935031
1045 1 2.492977 5.930006 16.121649 0 1.000000 1.000000 1.000000 0.144910 0.339841 0.929252
1046 1 2.821490 6.526649 15.834953 0 1.000000 1.000000 1.000000 0.161332 0.377080 0.912021
1047 1 3.548845 6.570043 15.669469 0 1.000000 1.000000 1.000000 0.206142 0.377073 0.902952
1048 1 3.855839 7.139241 15.345216 0 1.000000 1.000000 1.000000 0.220466 0.411879 0.884167
1049 1 4.572807 7.165942 15.134200 0 1.000000 1.000000 1.000000 0.265380 0.411874 0.871741
1050 1 0.363024 3.313560 17.034309 0 1.000000 1.000000 1.000000 0.020505 0.189329 0.981700
1051 1 0.719680 3.972271 16.881471 0 1.000000 1.000000 1.000000 0.042143 0.230194 0.972232
1052 1 1.452355 4.023240 16.821532 0 1.000000 1.000000 1.000000 0.083879 0.230185 0.969525
1053 1 1.806815 4.675150 16.617625 0 1.000000 1.000000 1.000000 0.104065 0.270559 0.957062
1054 1 2.552547 4.721902 16.505687 0 1.000000 1.000000 1.000000 0.147798 0.270551 0.951293
1055 1 2.896095 5.358876 16.252919 0 1.000000 1.000000 1.000000 0.166206 0.309677 0.936203
1056 1 3.643964 5.396435 16.088803 0 1.000000 1.000000 1.000000 0.211094 0.309671 0.927116
1057 1 3.968200 6.010960 15.792049 0 1.000000 1.000000 1.000000 0.227486 0.346838 0.909920
1058 1 4.707094 6.034779 15.578333 0 1.000000 1.000000 1.000000 0.272619 0.346833 0.897433
1059 1 5.004708 6.620564 15.244736 0 1.000000 1.000000 1.000000 0.286863 0.381439 0.878757
1060 1 5.724248 6.626979 14.986504 0 1.000000 1.000000 1.000000 0.331343 0.381437 0.862970
1061 1 0.367463 2.011634 17.235970 0 1.000000 1.000000 1.000000 0.020388 0.114920 0.993165
1062 1 0.730486 2.687387 17.131871 0 1.000000 1.000000 1.000000 0.043223 0.155767 0.986848
1063 1 1.474625 2.722924 17.077635 0 1.000000 1.000000 1.000000 0.084732 0.155761 0.984154
1064 1 1.839838 3.400066 16.920135 0 1.000000 1.000000 1.000000 0.106467 0.196809 0.974644
1065 1 2.600129 3.435339 16.812365 0 1.000000 1.000000 1.000000 0.150075 0.196803 0.968889
1066 1 2.958379 4.105265 16.601824 0 1.000000 1.000000 1.000000 0.170313 0.237277 0.956396
1067 1 3.723457 4.135304 16.439198 0 1.000000 1.000000 1.000000 0.215197 0.237272 0.947308
1068 1 4.065493 4.789499 16.178944 0 1.000000 1.000000 1.000000 0.233607 0.276395 0.932220
1069 1 4.823451 4.809427 15.963131 0 1.000000 1.000000 1.000000 0.278852 0.276391 0.919701
1070 1 5.140815 5.440182 15.659273 0 1.000000 1.000000 1.000000 0.295200 0.313452 0.902555
1071 1 5.880241 5.445745 15.394839 0 1.000000 1.000000 1.000000 0.339880 0.313451 0.886696
1072 1 6.166061 6.046757 15.055666 0 1.000000 1.000000 1.000000 0.354049 0.347868 0.868123
1073 1 6.876987 6.034741 14.749554 0 1.000000 1.000000 1.000000 0.397310 0.347871 0.849194
1074 1 0.369745 0.674566 17.339516 0 1.000000 1.000000 1.000000 0.020323 0.038533 0.999051
1075 1 0.737207 1.355880 17.287546 0 1.000000 1.000000 1.000000 0.043904 0.078600 0.995939
1076 1 1.488487 1.374145 17.237007 0 1.000000 1.000000 1.000000 0.085254 0.078597 0.993254
1077 1 1.862881 2.065436 17.131196 0 1.000000 1.000000 1.000000 0.108160 0.119573 0.986916
1078 1 2.633365 2.087412 17.026538 0 1.000000 1.000000 1.000000 0.151650 0.119569 0.981176
1079 1 3.005400 2.780173 16.865207 0 1.000000 1.000000 1.000000 0.173436 0.160712 0.971644
1080 1 3.783521 2.801175 16.703921 0 1.000000 1.000000 1.000000 0.218276 0.160708 0.962563
1081 1 4.143327 3.486379 16.488452 0 1.000000 1.000000 1.000000 0.238532 0.201216 0.950060
1082 1 4.916590 3.501451 16.271127 0 1.000000 1.000000 1.000000 0.283815 0.201213 0.937530
1083 1 5.254677 4.170303 16.006060 0 1.000000 1.000000 1.000000 0.302209 0.240298 0.922457
1084 1 6.010763 4.174759 15.736487 0 1.000000 1.000000 1.000000 0.346992 0.240297 0.906562
1085 1 6.318963 4.819446 15.429124 0 1.000000 1.000000 1.000000 0.363298 0.277257 0.889462
1086 1 7.046829 4.809389 15.113909 0 1.000000 1.000000 1.000000 0.406696 0.277259 0.870474
1087 1 7.319033 5.423672 14.773512 0 1.000000 1.000000 1.000000 0.420814 0.311543 0.851972
1088 1 8.009765 5.396359 14.421288 0 1.000000 1.000000 1.000000 0.462071 0.311548 0.830318
1089 1 0.369745 -0.674566 17.339516 0 1.000000 1.000000 1.000000 0.020323 -0.038533 0.999051
1090 1 0.739489 -0.000000 17.340384 0 1.000000 1.000000 1.000000 0.044137 0.000000 0.999025
1091 1 1.493196 -0.000000 17.291127 0 1.000000 1.000000 1.000000 0.085429 0.000000 0.996344
1092 1 1.874731 0.692831 17.239720 0 1.000000 1.000000 1.000000 0.109035 0.040113 0.993228
1093 1 2.650466 0.700298 17.136728 0 1.000000 1.000000 1.000000 0.152456 0.040111 0.987496
1094 1 3.034706 1.403588 17.029357 0 1.000000 1.000000 1.000000 0.175392 0.081144 0.981149
1095 1 3.820979 1.414401 16.869001 0 1.000000 1.000000 1.000000 0.220187 0.081142 0.972077
1096 1 4.197759 2.119228 16.704896 0 1.000000 1.000000 1.000000 0.241992 0.122321 0.962537
1097 1 4.981754 2.128633 16.486602 0 1.000000 1.000000 1.000000 0.287273 0.122319 0.950006
1098 1 5.340778 2.825652 16.268301 0 1.000000 1.000000 1.000000 0.307529 0.162825 0.937504
1099 1 6.109478 2.828772 15.994873 0 1.000000 1.000000 1.000000 0.352352 0.162824 0.921595
1100 1 6.441376 3.509026 15.728125 0 1.000000 1.000000 1.000000 0.370729 0.201868 0.906537
1101 1 7.182772 3.501417 15.405541 0 1.000000 1.000000 1.000000 0.414186 0.201870 0.887524
1102 1 7.480024 4.157093 15.098688 0 1.000000 1.000000 1.000000 0.430469 0.238770 0.870452
1103 1 8.184141 4.135232 14.735413 0 1.000000 1.000000 1.000000 0.471773 0.238774 0.848774
1104 1 8.441677 4.760214 14.398410 0 1.000000 1.000000 1.000000 0.485874 0.273008 0.830297
1105 1 9.101236 4.721792 14.004383 0 1.000000 1.000000 1.000000 0.524419 0.273015 0.806503
1106 1 0.367463 -2.011634 17.235970 0 1.000000 1.000000 1.000000 0.020388 -0.114920 0.993165
1107 1 0.737207 -1.355880 17.287546 0 1.000000 1.000000 1.000000 0.043904 -0.078600 0.995939
1108 1 1.488487 -1.374145 17.237007 0 1.000000 1.000000 1.000000 0.085254 -0.078597 0.993254
1109 1 1.874731 -0.692831 17.239720 0 1.000000 1.000000 1.000000 0.109035 -0.040113 0.993228
1110 1 2.650466 -0.700298 17.136728 0 1.000000 1.000000 1.000000 0.152456 -0.040111 0.987496
1111 1 3.044666 0.000000 17.085144 0 1.000000 1.000000 1.000000 0.176059 -0.000000 0.984380
1112 1 3.833714 0.000000 16.925121 0 1.000000 1.000000 1.000000 0.220835 -0.000000 0.975311
1113 1 4.225788 0.711112 16.816349 0 1.000000 1.000000 1.000000 0.243779 0.041047 0.968962
1114 1 5.015319 0.714311 16.597585 0 1.000000 1.000000 1.000000 0.289050 0.041046 0.956434
1115 1 5.394506 1.427006 16.431944 0 1.000000 1.000000 1.000000 0.310859 0.082232 0.946892
1116 1 6.171085 1.428613 16.156122 0 1.000000 1.000000 1.000000 0.355689 0.082231 0.930980
1117 1 6.527033 2.133360 15.937352 0 1.000000 1.000000 1.000000 0.375942 0.122727 0.918480
1118 1 7.277878 2.128610 15.609568 0 1.000000 1.000000 1.000000 0.419414 0.122728 0.899461
1119 1 7.601718 2.816413 15.344505 0 1.000000 1.000000 1.000000 0.437785 0.161755 0.884409
1120 1 8.315878 2.801119 14.972733 0 1.000000 1.000000 1.000000 0.479087 0.161758 0.862734
1121 1 8.601048 3.464262 14.670495 0 1.000000 1.000000 1.000000 0.495372 0.198657 0.845661
1122 1 9.270242 3.435244 14.264641 0 1.000000 1.000000 1.000000 0.533869 0.198662 0.821899
1123 1 9.512893 4.067792 13.935532 0 1.000000 1.000000 1.000000 0.547991 0.232943 0.803395
1124 1 10.131879 4.023107 13.506295 0 1.000000 1.000000 1.000000 0.583255 0.232950 0.778170
1125 1 0.363024 -3.313560 17.034309 0 1.000000 1.000000 1.000000 0.020505 -0.189329 0.981700
1126 1 0.730486 -2.687387 17.131871 0 1.000000 1.000000 1.000000 0.043223 -0.155767 0.986848
1127 1 1.474625 -2.722924 17.077635 0 1.000000 1.000000 1.000000 0.084732 -0.155761 0.984154
1128 1 1.862881 -2.065436 17.131196 0 1.000000 1.000000 1.000000 0.108160 -0.119573 0.986916
1129 1 2.633365 -2.087412 17.026538 0 1.000000 1.000000 1.000000 0.151650 -0.119569 0.981176
1130 1 3.034706 -1.403588 17.029357 0 1.000000 1.000000 1.000000 0.175392 -0.081144 0.981149
1131 1 3.820979 -1.414401 16.869001 0 1.000000 1.000000 1.000000 0.220187 -0.081142 0.972077
1132 1 4.225788 -0.711112 16.816349 0 1.000000 1.000000 1.000000 0.243779 -0.041047 0.968962
1133 1 5.015319 -0.714311 16.597585 0 1.000000 1.000000 1.000000 0.289050 -0.041046 0.956434
1134 1 5.412777 0.000000 16.487593 0 1.000000 1.000000 1.000000 0.311993 0.000000 0.950085
1135 1 6.192036 -0.000000 16.210961 0 1.000000 1.000000 1.000000 0.356822 0.000000 0.934172
1136 1 6.571157 0.715918 16.045132 0 1.000000 1.000000 1.000000 0.378631 0.041185 0.924631
1137 1 7.326863 0.714302 15.714654 0 1.000000 1.000000 1.000000 0.422103 0.041185 0.905612
1138 1 7.677636 1.422248 15.497860 0 1.000000 1.000000 1.000000 0.442356 0.081681 0.893112
1139 1 8.398028 1.414370 15.120724 0 1.000000 1.000000 1.000000 0.483642 0.081682 0.871446
1140 1 8.712429 2.105438 14.860660 0 1.000000 1.000000 1.000000 0.502022 0.120724 0.856388
1141 1 9.388266 2.087347 14.446395 0 1.000000 1.000000 1.000000 0.540459 0.120728 0.832664
1142 1 9.660909 2.754010 14.152614 0 1.000000 1.000000 1.000000 0.556772 0.157684 0.815562
1143 1 10.286025 2.722821 13.711979 0 1.000000 1.000000 1.000000 0.591907 0.157690 0.790431
1144 1 10.514344 3.359370 13.394769 0 1.000000 1.000000 1.000000 0.606085 0.192101 0.771853
1145 1 11.085700 3.313419 12.938611 0 1.000000 1.000000 1.000000 0.637684 0.192109 0.745958
1146 1 0.356656 -4.560217 16.744626 0 1.000000 1.000000 1.000000 0.020651 -0.260623 0.965220
1147 1 0.719680 -3.972271 16.881471 0 1.000000 1.000000 1.000000 0.042143 -0.230194 0.972232
1148 1 1.452355 -4.023240 16.821532 0 1.000000 1.000000 1.000000 0.083879 -0.230185 0.969525
1149 1 1.839838 -3.400066 16.920135 0 1.000000 1.000000 1.000000 0.106467 -0.196809 0.974644
1150 1 2.600129 -3.435339 16.812365 0 1.000000 1.000000 1.000000 0.150075 -0.196803 0.968889
1151 1 3.005400 -2.780173 16.865207 0 1.000000 1.000000 1.000000 0.173436 -0.160712 0.971644
1152 1 3.783521 -2.801175 16.703921 0 1.000000 1.000000 1.000000 0.218276 -0.160708 0.962563
1153 1 4.197759 -2.119228 16.704896 0 1.000000 1.000000 1.000000 0.241992 -0.122321 0.962537
1154 1 4.981754 -2.128633 16.486602 0 1.000000 1.000000 1.000000 0.287273 -0.122319 0.950006
1155 1 5.394506 -1.427006 16.431944 0 1.000000 1.000000 1.000000 0.310859 -0.082232 0.946892
1156 1 6.171085 -1.428613 16.156122 0 1.000000 1.000000 1.000000 0.355689 -0.082231 0.930980
1157 1 6.571157 -0.715918 16.045132 0 1.000000 1.000000 1.000000 0.378631 -0.041185 0.924631
1158 1 7.326863 -0.714302 15.714654 0 1.000000 1.000000 1.000000 0.422103 -0.041185 0.905612
1159 1 7.703450 -0.000000 15.550006 0 1.000000 1.000000 1.000000 0.443912 0.000000 0.896070
1160 1 8.425955 -0.000000 15.171034 0 1.000000 1.000000 1.000000 0.485189 0.000000 0.874409
1161 1 8.769760 0.706425 14.958547 0 1.000000 1.000000 1.000000 0.505448 0.040504 0.861906
1162 1 9.448987 0.700275 14.539905 0 1.000000 1.000000 1.000000 0.543846 0.040505 0.838207
1163 1 9.753091 1.390130 14.287818 0 1.000000 1.000000 1.000000 0.562246 0.079586 0.823132
1164 1 10.381946 1.374088 13.839975 0 1.000000 1.000000 1.000000 0.597286 0.079589 0.798070
1165 1 10.642237 2.040116 13.557917 0 1.000000 1.000000 1.000000 0.613643 0.116643 0.780920
1166 1 11.216833 2.011539 13.091834 0 1.000000 1.000000 1.000000 0.645067 0.116648 0.755171
1167 1 11.431977 2.648293 12.789738 0 1.000000 1.000000 1.000000 0.659324 0.151245 0.736490
1168 1 11.951393 2.605724 12.315831 0 1.000000 1.000000 1.000000 0.687077 0.151251 0.710667
1169 1 0.348665 -5.735779 16.380356 0 1.000000 1.000000 1.000000 0.020798 -0.327907 0.944481
1170 1 0.705322 -5.192114 16.548607 0 1.000000 1.000000 1.000000 0.040739 -0.300802 0.952816
1171 1 1.422804 -5.256078 16.481544 0 1.000000 1.000000 1.000000 0.082716 -0.300791 0.950096
1172 1 1.806815 -4.675150 16.617625 0 1.000000 1.000000 1.000000 0.104065 -0.270559 0.957062
1173 1 2.552547 -4.721902 16.505687 0 1.000000 1.000000 1.000000 0.147798 -0.270551 0.951293
1174 1 2.958379 -4.105265 16.601824 0 1.000000 1.000000 1.000000 0.170313 -0.237277 0.956396
1175 1 3.723457 -4.135304 16.439198 0 1.000000 1.000000 1.000000 0.215197 -0.237272 0.947308
1176 1 4.143327 -3.486379 16.488452 0 1.000000 1.000000 1.000000 0.238532 -0.201216 0.950060
1177 1 4.916590 -3.501451 16.271127 0 1.000000 1.000000 1.000000 0.283815 -0.201213 0.937530
1178 1 5.340778 -2.825652 16.268301 0 1.000000 1.000000 1.000000 0.307529 -0.162825 0.937504
1179 1 6.109478 -2.828772 15.994873 0 1.000000 1.000000 1.000000 0.352352 -0.162824 0.921595
1180 1 6.527033 -2.133360 15.937352 0 1.000000 1.000000 1.000000 0.375942 -0.122727 0.918480
1181 1 7.277878 -2.128610 15.609568 0 1.000000 1.000000 1.000000 0.419414 -0.122728 0.899461
1182 1 7.677636 -1.422248 15.497860 0 1.000000 1.000000 1.000000 0.442356 -0.081681 0.893112
1183 1 8.398028 -1.414370 15.120724 0 1.000000 1.000000 1.000000 0.483642 -0.081682 0.871446
1184 1 8.769760 -0.706425 14.958547 0 1.000000 1.000000 1.000000 0.505448 -0.040504 0.861906
1185 1 9.448987 -0.700275 14.539905 0 1.000000 1.000000 1.000000 0.543846 -0.040505 0.838207
1186 1 9.784408 -0.000000 14.333751 0 1.000000 1.000000 1.000000 0.564107 -0.000000 0.825702
1187 1 10.414519 0.000000 13.883440 0 1.000000 1.000000 1.000000 0.599111 -0.000000 0.800666
1188 1 10.707952 0.684234 13.641751 0 1.000000 1.000000 1.000000 0.617530 0.039118 0.785574
1189 1 11.284162 0.674533 13.170507 0 1.000000 1.000000 1.000000 0.648855 0.039119 0.759906
1190 1 11.532752 1.335810 12.902647 0 1.000000 1.000000 1.000000 0.665260 0.076278 0.742705
1191 1 12.053358 1.313966 12.421034 0 1.000000 1.000000 1.000000 0.692833 0.076281 0.717052
1192 1 12.256856 1.947127 12.136314 0 1.000000 1.000000 1.000000 0.707173 0.111077 0.698261
1193 1 12.722777 1.911843 11.653866 0 1.000000 1.000000 1.000000 0.731096 0.111082 0.673171
1194 1 0.339393 -6.829344 15.956706 0 1.000000 1.000000 1.000000 0.020919 -0.390558 0.920341
1195 1 0.688059 -6.333351 16.148144 0 1.000000 1.000000 1.000000 0.039094 -0.366801 0.929478
1196 1 1.387329 -6.407569 16.073187 0 1.000000 1.000000 1.000000 0.081277 -0.366789 0.926747
1197 1 1.765418 -5.873961 16.238337 0 1.000000 1.000000 1.000000 0.101092 -0.339850 0.935031
1198 1 2.492977 -5.930006 16.121649 0 1.000000 1.000000 1.000000 0.144910 -0.339841 0.929252
1199 1 2.896095 -5.358876 16.252919 0 1.000000 1.000000 1.000000 0.166206 -0.309677 0.936203
1200 1 3.643964 -5.396435 16.088803 0 1.000000 1.000000 1.000000 0.211094 -0.309671 0.927116
1201 1 4.065493 -4.789499 16.178944 0 1.000000 1.000000 1.000000 0.233607 -0.276395 0.932220
1202 1 4.823451 -4.809427 15.963131 0 1.000000 1.000000 1.000000 0.278852 -0.276391 0.919701
1203 1 5.254677 -4.170303 16.006060 0 1.000000 1.000000 1.000000 0.302209 -0.240298 0.922457
1204 1 6.010763 -4.174759 15.736487 0 1.000000 1.000000 1.000000 0.346992 -0.240297 0.906562
1205 1 6.441376 -3.509026 15.728125 0 1.000000 1.000000 1.000000 0.370729 -0.201868 0.906537
1206 1 7.182772 -3.501417 15.405541 0 1.000000 1.000000 1.000000 0.414186 -0.201870 0.887524
1207 1 7.601718 -2.816413 15.344505 0 1.000000 1.000000 1.000000 0.437785 -0.161755 0.884409
1208 1 8.315878 -2.801119 14.972733 0 1.000000 1.000000 1.000000 0.479087 -0.161758 0.862734
1209 1 8.712429 -2.105438 14.860660 0 1.000000 1.000000 1.000000 0.502022 -0.120724 0.856388
1210 1 9.388266 -2.087347 14.446395 0 1.000000 1.000000 1.000000 0.540459 -0.120728 0.832664
1211 1 9.753091 -1.390130 14.287818 0 1.000000 1.000000 1.000000 0.562246 -0.079586 0.823132
1212 1 10.381946 -1.374088 13.839975 0 1.000000 1.000000 1.000000 0.597286 -0.079589 0.798070
1213 1 10.707952 -0.684234 13.641751 0 1.000000 1.000000 1.000000 0.617530 -0.039118 0.785574
1214 1 11.284162 -0.674533 13.170507 0 1.000000 1.000000 1.000000 0.648855 -0.039119 0.759906
1215 1 11.566938 0.000000 12.940952 0 1.000000 1.000000 1.000000 0.667275 -0.000000 0.744811
1216 1 12.087929 -0.000000 12.456704 0 1.000000 1.000000 1.000000 0.694783 -0.000000 0.719219
1217 1 12.325758 0.652688 12.204646 0 1.000000 1.000000 1.000000 0.711221 0.037230 0.701982
1218 1 12.791718 0.640731 11.717098 0 1.000000 1.000000 1.000000 0.734996 0.037232 0.677048
1219 1 12.985239 1.266724 11.451039 0 1.000000 1.000000 1.000000 0.749406 0.072196 0.658163
1220 1 13.398531 1.241646 10.968560 0 1.000000 1.000000 1.000000 0.769674 0.072199 0.634342
1221 1 0.329186 -7.834877 15.489163 0 1.000000 1.000000 1.000000 0.020992 -0.448226 0.893674
1222 1 0.668580 -7.387530 15.695933 0 1.000000 1.000000 1.000000 0.037296 -0.427704 0.903149
1223 1 1.347367 -7.469232 15.612923 0 1.000000 1.000000 1.000000 0.079599 -0.427692 0.900413
1224 1 1.717450 -6.985265 15.798739 0 1.000000 1.000000 1.000000 0.097698 -0.404031 0.909513
1225 1 2.424053 -7.048300 15.677193 0 1.000000 1.000000 1.000000 0.141519 -0.404021 0.903736
1226 1 2.821490 -6.526649 15.834953 0 1.000000 1.000000 1.000000 0.161332 -0.377080 0.912021
1227 1 3.548845 -6.570043 15.669469 0 1.000000 1.000000 1.000000 0.206142 -0.377073 0.902952
1228 1 3.968200 -6.010960 15.792049 0 1.000000 1.000000 1.000000 0.227486 -0.346838 0.909920
1229 1 4.707094 -6.034779 15.578333 0 1.000000 1.000000 1.000000 0.272619 -0.346833 0.897433
1230 1 5.140815 -5.440182 15.659273 0 1.000000 1.000000 1.000000 0.295200 -0.313452 0.902555
1231 1 5.880241 -5.445745 15.394839 0 1.000000 1.000000 1.000000 0.339880 -0.313451 0.886696
1232 1 6.318963 -4.819446 15.429124 0 1.000000 1.000000 1.000000 0.363298 -0.277257 0.889462
1233 1 7.046829 -4.809389 15.113909 0 1.000000 1.000000 1.000000 0.406696 -0.277259 0.870474
1234 1 7.480024 -4.157093 15.098688 0 1.000000 1.000000 1.000000 0.430469 -0.238770 0.870452
1235 1 8.184141 -4.135232 14.735413 0 1.000000 1.000000 1.000000 0.471773 -0.238774 0.848774
1236 1 8.601048 -3.464262 14.670495 0 1.000000 1.000000 1.000000 0.495372 -0.198657 0.845661
1237 1 9.270242 -3.435244 14.264641 0 1.000000 1.000000 1.000000 0.533869 -0.198662 0.821899
1238 1 9.660909 -2.754010 14.152614 0 1.000000 1.000000 1.000000 0.556772 -0.157684 0.815562
1239 1 10.286025 -2.722821 13.711979 0 1.000000 1.000000 1.000000 0.591907 -0.157690 0.790431
1240 1 10.642237 -2.040116 13.557917 0 1.000000 1.000000 1.000000 0.613643 -0.116643 0.780920
1241 1 11.216833 -2.011539 13.091834 0 1.000000 1.000000 1.000000 0.645067 -0.116648 0.755171
1242 1 11.532752 -1.335810 12.902647 0 1.000000 1.000000 1.000000 0.665260 -0.076278 0.742705
1243 1 12.053358 -1.313966 12.421034 0 1.000000 1.000000 1.000000 0.692833 -0.076281 0.717052
1244 1 12.325758 -0.652688 12.204646 0 1.000000 1.000000 1.000000 0.711221 -0.037230 0.701982
1245 1 12.791718 -0.640731 11.717098 0 1.000000 1.000000 1.000000 0.734996 -0.037232 0.677048
1246 1 13.019847 0.000000 11.481608 0 1.000000 1.000000 1.000000 0.751434 -0.000000 0.659808
1247 1 13.432838 0.000000 10.996684 0 1.000000 1.000000 1.000000 0.771619 -0.000000 0.636085
1248 1 13.618001 0.615653 10.749694 0 1.000000 1.000000 1.000000 0.786069 0.035063 0.617143
1249 1 13.981406 0.602658 10.274479 0 1.000000 1.000000 1.000000 0.802973 0.035064 0.594984
1250 1 0.318368 -8.750622 14.992302 0 1.000000 1.000000 1.000000 0.021003 -0.500804 0.865306
1251 1 0.647554 -8.350933 15.207413 0 1.000000 1.000000 1.000000 0.035421 -0.483304 0.874736
1252 1 1.304308 -8.437536 15.116699 0 1.000000 1.000000 1.000000 0.077727 -0.483290 0.872003
1253 1 1.664727 -8.003182 15.315439 0 1.000000 1.000000 1.000000 0.094029 -0.462767 0.881479
1254 1 2.348419 -8.070991 15.189327 0 1.000000 1.000000 1.000000 0.137738 -0.462756 0.875720
1255 1 2.737661 -7.600075 15.365265 0 1.000000 1.000000 1.000000 0.155910 -0.438997 0.884858
1256 1 3.442092 -7.647622 15.198772 0 1.000000 1.000000 1.000000 0.200532 -0.438989 0.875829
1257 1 3.855839 -7.139241 15.345216 0 1.000000 1.000000 1.000000 0.220466 -0.411879 0.884167
1258 1 4.572807 -7.165942 15.134200 0 1.000000 1.000000 1.000000 0.265380 -0.411874 0.871741
1259 1 5.004708 -6.620564 15.244736 0 1.000000 1.000000 1.000000 0.286863 -0.381439 0.878757
1260 1 5.724248 -6.626979 14.986504 0 1.000000 1.000000 1.000000 0.331343 -0.381437 0.862970
1261 1 6.166061 -6.046757 15.055666 0 1.000000 1.000000 1.000000 0.354049 -0.347868 0.868123
1262 1 6.876987 -6.034741 14.749554 0 1.000000 1.000000 1.000000 0.397310 -0.347871 0.849194
1263 1 7.319033 -5.423672 14.773512 0 1.000000 1.000000 1.000000 0.420814 -0.311543 0.851972
1264 1 8.009765 -5.396359 14.421288 0 1.000000 1.000000 1.000000 0.462071 -0.311548 0.830318
1265 1 8.441677 -4.760214 14.398410 0 1.000000 1.000000 1.000000 0.485874 -0.273008 0.830297
1266 1 9.101236 -4.721792 14.004383 0 1.000000 1.000000 1.000000 0.524419 -0.273015 0.806503
1267 1 9.512893 -4.067792 13.935532 0 1.000000 1.000000 1.000000 0.547991 -0.232943 0.803395
1268 1 10.131879 -4.023107 13.506295 0 1.000000 1.000000 1.000000 0.583255 -0.232950 0.778170
1269 1 10.514344 -3.359370 13.394769 0 1.000000 1.000000 1.000000 0.606085 -0.192101 0.771853
1270 1 11.085700 -3.313419 12.938611 0 1.000000 1.000000 1.000000 0.637684 -0.192109 0.745958
1271 1 11.431977 -2.648293 12.789738 0 1.000000 1.000000 1.000000 0.659324 -0.151245 0.736490
1272 1 11.951393 -2.605724 12.315831 0 1.000000 1.000000 1.000000 0.687077 -0.151251 0.710667
1273 1 12.256856 -1.947127 12.136314 0 1.000000 1.000000 1.000000 0.707173 -0.111077 0.698261
1274 1 12.722777 -1.911843 11.653866 0 1.000000 1.000000 1.000000 0.731096 -0.111082 0.673171
1275 1 12.985239 -1.266724 11.451039 0 1.000000 1.000000 1.000000 0.749406 -0.072196 0.658163
1276 1 13.398531 -1.241646 10.968560 0 1.000000 1.000000 1.000000 0.769674 -0.072199 0.634342
1277 1 13.618001 -0.615653 10.749694 0 1.000000 1.000000 1.000000 0.786069 -0.035063 0.617143
1278 1 13.981406 -0.602658 10.274479 0 1.000000 1.000000 1.000000 0.802973 -0.035064 0.594984
1279 1 14.159648 0.000000 10.046253 0 1.000000 1.000000 1.000000 0.817423 0.000000 0.576038
1280 1 14.477172 0.000000 9.584120 0 1.000000 1.000000 1.000000 0.831322 0.000000 0.555791
1281 1 -0.515130 -9.265752 14.673934 0 1.000000 1.000000 1.000000 -0.033984 -0.534788 0.844302
1282 1 -1.507757 -8.970171 14.787513 0 1.000000 1.000000 1.000000 -0.090701 -0.517257 0.851011
1283 1 -1.047765 -9.398698 14.559859 0 1.000000 1.000000 1.000000 -0.057313 -0.540617 0.839315
1284 1 -1.135293 -9.945292 14.184854 0 1.000000 1.000000 1.000000 -0.069030 -0.573991 0.815946
1285 1 -2.558176 -8.620141 14.849933 0 1.000000 1.000000 1.000000 -0.150667 -0.496603 0.854801
1286 1 -2.077932 -9.084967 14.646859 0 1.000000 1.000000 1.000000 -0.117079 -0.523114 0.844183
1287 1 -2.180085 -9.649317 14.265557 0 1.000000 1.000000 1.000000 -0.128794 -0.556486 0.820814
1288 1 -1.697438 -10.081114 14.031206 0 1.000000 1.000000 1.000000 -0.095409 -0.579847 0.809120
1289 1 -1.790796 -10.629166 13.608287 0 1.000000 1.000000 1.000000 -0.106046 -0.613423 0.782602
1290 1 -3.657579 -8.211774 14.850107 0 1.000000 1.000000 1.000000 -0.213385 -0.472640 0.855031
1291 1 -3.162905 -8.713378 14.677206 0 1.000000 1.000000 1.000000 -0.180071 -0.502253 0.845764
1292 1 -3.281469 -9.293045 14.289865 0 1.000000 1.000000 1.000000 -0.191751 -0.535529 0.822460
1293 1 -2.778892 -9.764158 14.081289 0 1.000000 1.000000 1.000000 -0.158079 -0.562110 0.811815
1294 1 -2.885476 -10.329769 13.649134 0 1.000000 1.000000 1.000000 -0.168740 -0.595771 0.785228
1295 1 -2.380027 -10.762980 13.410482 0 1.000000 1.000000 1.000000 -0.135452 -0.619068 0.773568
1296 1 -2.475995 -11.305201 12.938264 0 1.000000 1.000000 1.000000 -0.144733 -0.652374 0.743949
1297 1 -4.793233 -7.743023 14.777543 0 1.000000 1.000000 1.000000 -0.278143 -0.445288 0.851091
1298 1 -4.291751 -8.280475 14.639895 0 1.000000 1.000000 1.000000 -0.245643 -0.477795 0.843428
1299 1 -4.428187 -8.872189 14.246665 0 1.000000 1.000000 1.000000 -0.257263 -0.510910 0.820235
1300 1 -3.912578 -9.383156 14.069535 0 1.000000 1.000000 1.000000 -0.223810 -0.540651 0.810929
1301 1 -4.033721 -9.963727 13.628673 0 1.000000 1.000000 1.000000 -0.234469 -0.574309 0.784343
1302 1 -3.509195 -10.439228 13.416847 0 1.000000 1.000000 1.000000 -0.200800 -0.600890 0.773699
1303 1 -3.616111 -10.998230 12.932699 0 1.000000 1.000000 1.000000 -0.210119 -0.634336 0.743954
1304 1 -3.088361 -11.430992 12.692768 0 1.000000 1.000000 1.000000 -0.176994 -0.657522 0.732351
1305 1 -3.182806 -11.959174 12.171819 0 1.000000 1.000000 1.000000 -0.184664 -0.690017 0.699840
1306 1 -5.948609 -7.214363 14.623480 0 1.000000 1.000000 1.000000 -0.344016 -0.414615 0.842465
1307 1 -5.449494 -7.785030 14.525056 0 1.000000 1.000000 1.000000 -0.312908 -0.449627 0.836614
1308 1 -5.604699 -8.384739 14.125977 0 1.000000 1.000000 1.000000 -0.324459 -0.482552 0.813554
1309 1 -5.084873 -8.934447 13.985234 0 1.000000 1.000000 1.000000 -0.291802 -0.515219 0.805854
1310 1 -5.221525 -9.526543 13.536256 0 1.000000 1.000000 1.000000 -0.302438 -0.548812 0.779318
1311 1 -4.685981 -10.044856 13.356824 0 1.000000 1.000000 1.000000 -0.268928 -0.578605 0.769996
1312 1 -4.804641 -10.617960 12.861723 0 1.000000 1.000000 1.000000 -0.278261 -0.612108 0.740199
1313 1 -4.259297 -11.095833 12.649425 0 1.000000 1.000000 1.000000 -0.244659 -0.638639 0.729576
1314 1 -4.361500 -11.639478 12.114438 0 1.000000 1.000000 1.000000 -0.252366 -0.671292 0.696906
1315 1 -3.812759 -12.070058 11.876763 0 1.000000 1.000000 1.000000 -0.219434 -0.694347 0.685369
1316 1 -3.900803 -12.575587 11.310061 0 1.000000 1.000000 1.000000 -0.225286 -0.725453 0.650356
1317 1 -7.104091 -6.629309 14.382091 0 1.000000 1.000000 1.000000 -0.409911 -0.380860 0.828806
1318 1 -6.617526 -7.228709 14.325179 0 1.000000 1.000000 1.000000 -0.380762 -0.417804 0.824900
1319 1 -6.791610 -7.831738 13.920214 0 1.000000 1.000000 1.000000 -0.392247 -0.450551 0.801964
1320 1 -6.277898 -8.417102 13.819436 0 1.000000 1.000000 1.000000 -0.361001 -0.485720 0.796087
1321 1 -6.430419 -9.016524 13.363002 0 1.000000 1.000000 1.000000 -0.371604 -0.519218 0.769626
1322 1 -5.893872 -9.576258 13.220565 0 1.000000 1.000000 1.000000 -0.338866 -0.551967 0.761907
1323 1 -6.024680 -10.159983 12.715741 0 1.000000 1.000000 1.000000 -0.348197 -0.585468 0.732110
1324 1 -5.470992 -10.683372 12.536331 0 1.000000 1.000000 1.000000 -0.314690 -0.615261 0.722789
1325 1 -5.581185 -11.239846 11.988914 0 1.000000 1.000000 1.000000 -0.322415 -0.647995 0.690037
1326 1 -5.017036 -11.718079 11.779319 0 1.000000 1.000000 1.000000 -0.288911 -0.674453 0.679444
1327 1 -5.108814 -12.237355 11.197393 0 1.000000 1.000000 1.000000 -0.294790 -0.705698 0.644274
1328 1 -4.541322 -12.664283 10.965810 0 1.000000 1.000000 1.000000 -0.262037 -0.728631 0.632798
1329 1 -4.617674 -13.138832 10.358984 0 1.000000 1.000000 1.000000 -0.265939 -0.757781 0.595855
1330 1 -8.238280 -5.994618 14.051543 0 1.000000 1.000000 1.000000 -0.474632 -0.344432 0.809995
1331 1 -7.774652 -6.616499 14.036305 0 1.000000 1.000000 1.000000 -0.447948 -0.382581 0.808068
1332 1 -7.966765 -7.217812 13.625422 0 1.000000 1.000000 1.000000 -0.459386 -0.415203 0.785221
1333 1 -7.470287 -7.833651 13.566243 0 1.000000 1.000000 1.000000 -0.430145 -0.452263 0.781302
1334 1 -7.638272 -8.435632 13.103122 0 1.000000 1.000000 1.000000 -0.440717 -0.485672 0.754911
1335 1 -7.112116 -9.033142 13.000660 0 1.000000 1.000000 1.000000 -0.409398 -0.520923 0.749021
1336 1 -7.254934 -9.623316 12.487606 0 1.000000 1.000000 1.000000 -0.418717 -0.554392 0.719253
1337 1 -6.704044 -10.190424 12.345125 0 1.000000 1.000000 1.000000 -0.385954 -0.587170 0.711528
1338 1 -6.822140 -10.756385 11.787331 0 1.000000 1.000000 1.000000 -0.393684 -0.619930 0.678748
1339 1 -6.252968 -11.282418 11.610530 0 1.000000 1.000000 1.000000 -0.360211 -0.649696 0.669435
1340 1 -6.348220 -11.813030 11.015775 0 1.000000 1.000000 1.000000 -0.366103 -0.681014 0.634184
1341 1 -5.768215 -12.289733 10.812233 0 1.000000 1.000000 1.000000 -0.332690 -0.707402 0.623618
1342 1 -5.843667 -12.776154 10.190178 0 1.000000 1.000000 1.000000 -0.336606 -0.736645 0.586559
1343 1 -5.260619 -13.198325 9.968513 0 1.000000 1.000000 1.000000 -0.303981 -0.759491 0.575125
1344 1 -5.320051 -13.634638 9.329751 0 1.000000 1.000000 1.000000 -0.305899 -0.786180 0.536980
1345 1 -9.329751 -5.320051 13.634638 0 1.000000 1.000000 1.000000 -0.536980 -0.305899 0.786180
1346 1 -8.898707 -5.956733 13.658921 0 1.000000 1.000000 1.000000 -0.513152 -0.344424 0.786160
1347 1 -9.106986 -6.551273 13.242218 0 1.000000 1.000000 1.000000 -0.524571 -0.377001 0.763345
1348 1 -8.638671 -7.190471 13.223957 0 1.000000 1.000000 1.000000 -0.497856 -0.415192 0.761416
1349 1 -8.820850 -7.789961 12.755075 0 1.000000 1.000000 1.000000 -0.508409 -0.448548 0.735068
1350 1 -8.316928 -8.419283 12.693419 0 1.000000 1.000000 1.000000 -0.479127 -0.485659 0.731145
1351 1 -8.470973 -9.011246 12.173893 0 1.000000 1.000000 1.000000 -0.488435 -0.519094 0.701407
1352 1 -7.935136 -9.617769 12.070543 0 1.000000 1.000000 1.000000 -0.457089 -0.554377 0.695512
1353 1 -8.060647 -10.189280 11.504848 0 1.000000 1.000000 1.000000 -0.464818 -0.587136 0.662733
1354 1 -7.498541 -10.760788 11.364118 0 1.000000 1.000000 1.000000 -0.432056 -0.619913 0.655008
1355 1 -7.596845 -11.299745 10.759523 0 1.000000 1.000000 1.000000 -0.437953 -0.651259 0.619725
1356 1 -7.015696 -11.825954 10.587981 0 1.000000 1.000000 1.000000 -0.404515 -0.680995 0.610420
1357 1 -7.089663 -12.322267 9.953956 0 1.000000 1.000000 1.000000 -0.408437 -0.710278 0.573310
1358 1 -6.497640 -12.795764 9.759696 0 1.000000 1.000000 1.000000 -0.375079 -0.736625 0.562760
1359 1 -6.551273 -13.242218 9.106986 0 1.000000 1.000000 1.000000 -0.377001 -0.763345 0.524571
1360 1 -5.956733 -13.658921 8.898707 0 1.000000 1.000000 1.000000 -0.344424 -0.786160 0.513152
1361 1 -5.994618 -14.051543 8.238280 0 1.000000 1.000000 1.000000 -0.344432 -0.809995 0.474632
1362 1 -10.358984 -4.617674 13.138832 0 1.000000 1.000000 1.000000 -0.595855 -0.265939 0.757781
1363 1 -9.968513 -5.260619 13.198325 0 1.000000 1.000000 1.000000 -0.575125 -0.303981 0.759491
1364 1 -10.190178 -5.843667 12.776154 0 1.000000 1.000000 1.000000 -0.586559 -0.336606 0.736645
1365 1 -9.759696 -6.497640 12.795764 0 1.000000 1.000000 1.000000 -0.562760 -0.375079 0.736625
1366 1 -9.953956 -7.089663 12.322267 0 1.000000 1.000000 1.000000 -0.573310 -0.408437 0.710278
1367 1 -9.483425 -7.742786 12.299839 0 1.000000 1.000000 1.000000 -0.546595 -0.446625 0.708350
1368 1 -9.647243 -8.331690 11.775853 0 1.000000 1.000000 1.000000 -0.555897 -0.480047 0.678626
1369 1 -9.138713 -8.970828 11.711564 0 1.000000 1.000000 1.000000 -0.526605 -0.517170 0.674701
1370 1 -9.270722 -9.543570 11.140803 0 1.000000 1.000000 1.000000 -0.534331 -0.549923 0.641930
1371 1 -8.728494 -10.155500 11.037438 0 1.000000 1.000000 1.000000 -0.502980 -0.585212 0.636034
1372 1 -8.829259 -10.699335 10.426501 0 1.000000 1.000000 1.000000 -0.508877 -0.616563 0.600745
1373 1 -8.259716 -11.272073 10.289316 0 1.000000 1.000000 1.000000 -0.476124 -0.649333 0.593020
1374 1 -8.331690 -11.775853 9.647243 0 1.000000 1.000000 1.000000 -0.480047 -0.678626 0.555897
1375 1 -7.742786 -12.299839 9.483425 0 1.000000 1.000000 1.000000 -0.446625 -0.708350 0.546595
1376 1 -7.789961 -12.755075 8.820850 0 1.000000 1.000000 1.000000 -0.448548 -0.735068 0.508409
1377 1 -7.190471 -13.223957 8.638671 0 1.000000 1.000000 1.000000 -0.415192 -0.761416 0.497856
1378 1 -7.217812 -13.625422 7.966765 0 1.000000 1.000000 1.000000 -0.415203 -0.785221 0.459386
1379 1 -6.616499 -14.036305 7.774652 0 1.000000 1.000000 1.000000 -0.382581 -0.808068 0.447948
1380 1 -6.629309 -14.382091 7.104091 0 1.000000 1.000000 1.000000 -0.380860 -0.828806 0.409911
1381 1 -11.310061 -3.900803 12.575587 0 1.000000 1.000000 1.000000 -0.650356 -0.225286 0.725453
1382 1 -10.965810 -4.541322 12.664283 0 1.000000 1.000000 1.000000 -0.632798 -0.262037 0.728631
1383 1 -11.197393 -5.108814 12.237355 0 1.000000 1.000000 1.000000 -0.644274 -0.294790 0.705698
1384 1 -10.812233 -5.768215 12.289733 0 1.000000 1.000000 1.000000 -0.623618 -0.332690 0.707402
1385 1 -11.015775 -6.348220 11.813030 0 1.000000 1.000000 1.000000 -0.634184 -0.366103 0.681014
1386 1 -10.587981 -7.015696 11.825954 0 1.000000 1.000000 1.000000 -0.610420 -0.404515 0.680995
1387 1 -10.759523 -7.596845 11.299745 0 1.000000 1.000000 1.000000 -0.619725 -0.437953 0.651259
1388 1 -10.289316 -8.259716 11.272073 0 1.000000 1.000000 1.000000 -0.593020 -0.476124 0.649333
1389 1 -10.426501 -8.829259 10.699335 0 1.000000 1.000000 1.000000 -0.600745 -0.508877 0.616563
1390 1 -9.916437 -9.473975 10.632355 0 1.000000 1.000000 1.000000 -0.571453 -0.546000 0.612638
1391 1 -10.018925 -10.018925 10.018925 0 1.000000 1.000000 1.000000 -0.577350 -0.577350 0.577350
1392 1 -9.473975 -10.632355 9.916437 0 1.000000 1.000000 1.000000 -0.546000 -0.612638 0.571453
1393 1 -9.543570 -11.140803 9.270722 0 1.000000 1.000000 1.000000 -0.549923 -0.641930 0.534331
1394 1 -8.970828 -11.711564 9.138713 0 1.000000 1.000000 1.000000 -0.517170 -0.674701 0.526605
1395 1 -9.011246 -12.173893 8.470973 0 1.000000 1.000000 1.000000 -0.519094 -0.701407 0.488435
1396 1 -8.419283 -12.693419 8.316928 0 1.000000 1.000000 1.000000 -0.485659 -0.731145 0.479127
1397 1 -8.435632 -13.103122 7.638272 0 1.000000 1.000000 1.000000 -0.485672 -0.754911 0.440717
1398 1 -7.833651 -13.566243 7.470287 0 1.000000 1.000000 1.000000 -0.452263 -0.781302 0.430145
1399 1 -7.831738 -13.920214 6.791610 0 1.000000 1.000000 1.000000 -0.450551 -0.801964 0.392247
1400 1 -7.228709 -14.325179 6.617526 0 1.000000 1.000000 1.000000 -0.417804 -0.824900 0.380762
1401 1 -7.214363 -14.623480 5.948609 0 1.000000 1.000000 1.000000 -0.414615 -0.842465 0.344016
1402 1 -12.171819 -3.182806 11.959174 0 1.000000 1.000000 1.000000 -0.699840 -0.184664 0.690017
1403 1 -11.876763 -3.812759 12.070058 0 1.000000 1.000000 1.000000 -0.685369 -0.219434 0.694347
1404 1 -12.114438 -4.361500 11.639478 0 1.000000 1.000000 1.000000 -0.696906 -0.252366 0.671292
1405 1 -11.779319 -5.017036 11.718079 0 1.000000 1.000000 1.000000 -0.679444 -0.288911 0.674453
1406 1 -11.988914 -5.581185 11.239846 0 1.000000 1.000000 1.000000 -0.690037 -0.322415 0.647995
1407 1 -11.610530 -6.252968 11.282418 0 1.000000 1.000000 1.000000 -0.669435 -0.360211 0.649696
1408 1 -11.787331 -6.822140 10.756385 0 1.000000 1.000000 1.000000 -0.678748 -0.393684 0.619930
1409 1 -11.364118 -7.498541 10.760788 0 1.000000 1.000000 1.000000 -0.655008 -0.432056 0.619913
1410 1 -11.504848 -8.060647 10.189280 0 1.000000 1.000000 1.000000 -0.662733 -0.464818 0.587136
1411 1 -11.037438 -8.728494 10.155500 0 1.000000 1.000000 1.000000 -0.636034 -0.502980 0.585212
1412 1 -11.140803 -9.270722 9.543570 0 1.000000 1.000000 1.000000 -0.641930 -0.534331 0.549923
1413 1 -10.632355 -9.916437 9.473975 0 1.000000 1.000000 1.000000 -0.612638 -0.571453 0.546000
1414 1 -10.699335 -10.426501 8.829259 0 1.000000 1.000000 1.000000 -0.616563 -0.600745 0.508877
1415 1 -10.155500 -11.037438 8.728494 0 1.000000 1.000000 1.000000 -0.585212 -0.636034 0.502980
1416 1 -10.189280 -11.504848 8.060647 0 1.000000 1.000000 1.000000 -0.587136 -0.662733 0.464818
1417 1 -9.617769 -12.070543 7.935136 0 1.000000 1.000000 1.000000 -0.554377 -0.695512 0.457089
1418 1 -9.623316 -12.487606 7.254934 0 1.000000 1.000000 1.000000 -0.554392 -0.719253 0.418717
1419 1 -9.033142 -13.000660 7.112116 0 1.000000 1.000000 1.000000 -0.520923 -0.749021 0.409398
1420 1 -9.016524 -13.363002 6.430419 0 1.000000 1.000000 1.000000 -0.519218 -0.769626 0.371604
1421 1 -8.417102 -13.819436 6.277898 0 1.000000 1.000000 1.000000 -0.485720 -0.796087 0.361001
1422 1 -8.384739 -14.125977 5.604699 0 1.000000 1.000000 1.000000 -0.482552 -0.813554 0.324459
1423 1 -7.785030 -14.525056 5.449494 0 1.000000 1.000000 1.000000 -0.449627 -0.836614 0.312908
1424 1 -7.743023 -14.777543 4.793233 0 1.000000 1.000000 1.000000 -0.445288 -0.851091 0.278143
1425 1 -12.938264 -2.475995 11.305201 0 1.000000 1.000000 1.000000 -0.743949 -0.144733 0.652374
1426 1 -12.692768 -3.088361 11.430992 0 1.000000 1.000000 1.000000 -0.732351 -0.176994 0.657522
1427 1 -12.932699 -3.616111 10.998230 0 1.000000 1.000000 1.000000 -0.743954 -0.210119 0.634336
1428 1 -12.649425 -4.259297 11.095833 0 1.000000 1.000000 1.000000 -0.729576 -0.244659 0.638639
1429 1 -12.861723 -4.804641 10.617960 0 1.000000 1.000000 1.000000 -0.740199 -0.278261 0.612108
1430 1 -12.536331 -5.470992 10.683372 0 1.000000 1.000000 1.000000 -0.722789 -0.314690 0.615261
1431 1 -12.715741 -6.024680 10.159983 0 1.000000 1.000000 1.000000 -0.732110 -0.348197 0.585468
1432 1 -12.345125 -6.704044 10.190424 0 1.000000 1.000000 1.000000 -0.711528 -0.385954 0.587170
1433 1 -12.487606 -7.254934 9.623316 0 1.000000 1.000000 1.000000 -0.719253 -0.418717 0.554392
1434 1 -12.070543 -7.935136 9.617769 0 1.000000 1.000000 1.000000 -0.695512 -0.457089 0.554377
1435 1 -12.173893 -8.470973 9.011246 0 1.000000 1.000000 1.000000 -0.701407 -0.488435 0.519094
1436 1 -11.711564 -9.138713 8.970828 0 1.000000 1.000000 1.000000 -0.674701 -0.526605 0.517170
1437 1 -11.775853 -9.647243 8.331690 0 1.000000 1.000000 1.000000 -0.678626 -0.555897 0.480047
1438 1 -11.272073 -10.289316 8.259716 0 1.000000 1.000000 1.000000 -0.649333 -0.593020 0.476124
1439 1 -11.299745 -10.759523 7.596845 0 1.000000 1.000000 1.000000 -0.651259 -0.619725 0.437953
1440 1 -10.760788 -11.364118 7.498541 0 1.000000 1.000000 1.000000 -0.619913 -0.655008 0.432056
1441 1 -10.756385 -11.787331 6.822140 0 1.000000 1.000000 1.000000 -0.619930 -0.678748 0.393684
1442 1 -10.190424 -12.345125 6.704044 0 1.000000 1.000000 1.000000 -0.587170 -0.711528 0.385954
1443 1 -10.159983 -12.715741 6.024680 0 1.000000 1.000000 1.000000 -0.585468 -0.732110 0.348197
1444 1 -9.576258 -13.220565 5.893872 0 1.000000 1.000000 1.000000 -0.551967 -0.761907 0.338866
1445 1 -9.526543 -13.536256 5.221525 0 1.000000 1.000000 1.000000 -0.548812 -0.779318 0.302438
1446 1 -8.934447 -13.985234 5.084873 0 1.000000 1.000000 1.000000 -0.515219 -0.805854 0.291802
1447 1 -8.872189 -14.246665 4.428187 0 1.000000 1.000000 1.000000 -0.510910 -0.820235 0.257263
1448 1 -8.280475 -14.639895 4.291751 0 1.000000 1.000000 1.000000 -0.477795 -0.843428 0.245643
1449 1 -8.211774 -14.850107 3.657579 0 1.000000 1.000000 1.000000 -0.472640 -0.855031 0.213385
1450 1 -13.608287 -1.790796 10.629166 0 1.000000 1.000000 1.000000 -0.782602 -0.106046 0.613423
1451 1 -13.410482 -2.380027 10.762980 0 1.000000 1.000000 1.000000 -0.773568 -0.135452 0.619068
1452 1 -13.649134 -2.885476 10.329769 0 1.000000 1.000000 1.000000 -0.785228 -0.168740 0.595771
1453 1 -13.416847 -3.509195 10.439228 0 1.000000 1.000000 1.000000 -0.773699 -0.200800 0.600890
1454 1 -13.628673 -4.033721 9.963727 0 1.000000 1.000000 1.000000 -0.784343 -0.234469 0.574309
1455 1 -13.356824 -4.685981 10.044856 0 1.000000 1.000000 1.000000 -0.769996 -0.268928 0.578605
1456 1 -13.536256 -5.221525 9.526543 0 1.000000 1.000000 1.000000 -0.779318 -0.302438 0.548812
1457 1 -13.220565 -5.893872 9.576258 0 1.000000 1.000000 1.000000 -0.761907 -0.338866 0.551967
1458 1 -13.363002 -6.430419 9.016524 0 1.000000 1.000000 1.000000 -0.769626 -0.371604 0.519218
1459 1 -13.000660 -7.112116 9.033142 0 1.000000 1.000000 1.000000 -0.749021 -0.409398 0.520923
1460 1 -13.103122 -7.638272 8.435632 0 1.000000 1.000000 1.000000 -0.754911 -0.440717 0.485672
1461 1 -12.693419 -8.316928 8.419283 0 1.000000 1.000000 1.000000 -0.731145 -0.479127 0.485659
1462 1 -12.755075 -8.820850 7.789961 0 1.000000 1.000000 1.000000 -0.735068 -0.508409 0.448548
1463 1 -12.299839 -9.483425 7.742786 0 1.000000 1.000000 1.000000 -0.708350 -0.546595 0.446625
1464 1 -12.322267 -9.953956 7.089663 0 1.000000 1.000000 1.000000 -0.710278 -0.573310 0.408437
1465 1 -11.825954 -10.587981 7.015696 0 1.000000 1.000000 1.000000 -0.680995 -0.610420 0.404515
1466 1 -11.813030 -11.015775 6.348220 0 1.000000 1.000000 1.000000 -0.681014 -0.634184 0.366103
1467 1 -11.282418 -11.610530 6.252968 0 1.000000 1.000000 1.000000 -0.649696 -0.669435 0.360211
1468 1 -11.239846 -11.988914 5.581185 0 1.000000 1.000000 1.000000 -0.647995 -0.690037 0.322415
1469 1 -10.683372 -12.536331 5.470992 0 1.000000 1.000000 1.000000 -0.615261 -0.722789 0.314690
1470 1 -10.617960 -12.861723 4.804641 0 1.000000 1.000000 1.000000 -0.612108 -0.740199 0.278261
1471 1 -10.044856 -13.356824 4.685981 0 1.000000 1.000000 1.000000 -0.578605 -0.769996 0.268928
1472 1 -9.963727 -13.628673 4.033721 0 1.000000 1.000000 1.000000 -0.574309 -0.784343 0.234469
1473 1 -9.383156 -14.069535 3.912578 0 1.000000 1.000000 1.000000 -0.540651 -0.810929 0.223810
1474 1 -9.293045 -14.289865 3.281469 0 1.000000 1.000000 1.000000 -0.535529 -0.822460 0.191751
1475 1 -8.713378 -14.677206 3.162905 0 1.000000 1.000000 1.000000 -0.502253 -0.845764 0.180071
1476 1 -8.620141 -14.849933 2.558176 0 1.000000 1.000000 1.000000 -0.496603 -0.854801 0.150667
1477 1 -14.184854 -1.135293 9.945292 0 1.000000 1.000000 1.000000 -0.815946 -0.069030 0.573991
1478 1 -14.031206 -1.697438 10.081114 0 1.000000 1.000000 1.000000 -0.809120 -0.095409 0.579847
1479 1 -14.265557 -2.180085 9.649317 0 1.000000 1.000000 1.000000 -0.820814 -0.128794 0.556486
1480 1 -14.081289 -2.778892 9.764158 0 1.000000 1.000000 1.000000 -0.811815 -0.158079 0.562110
1481 1 -14.289865 -3.281469 9.293045 0 1.000000 1.000000 1.000000 -0.822460 -0.191751 0.535529
1482 1 -14.069535 -3.912578 9.383156 0 1.000000 1.000000 1.000000 -0.810929 -0.223810 0.540651
1483 1 -14.246665 -4.428187 8.872189 0 1.000000 1.000000 1.000000 -0.820235 -0.257263 0.510910
1484 1 -13.985234 -5.084873 8.934447 0 1.000000 1.000000 1.000000 -0.805854 -0.291802 0.515219
1485 1 -14.125977 -5.604699 8.384739 0 1.000000 1.000000 1.000000 -0.813554 -0.324459 0.482552
1486 1 -13.819436 -6.277898 8.417102 0 1.000000 1.000000 1.000000 -0.796087 -0.361001 0.485720
1487 1 -13.920214 -6.791610 7.831738 0 1.000000 1.000000 1.000000 -0.801964 -0.392247 0.450551
1488 1 -13.566243 -7.470287 7.833651 0 1.000000 1.000000 1.000000 -0.781302 -0.430145 0.452263
1489 1 -13.625422 -7.966765 7.217812 0 1.000000 1.000000 1.000000 -0.785221 -0.459386 0.415203
1490 1 -13.223957 -8.638671 7.190471 0 1.000000 1.000000 1.000000 -0.761416 -0.497856 0.415192
1491 1 -13.242218 -9.106986 6.551273 0 1.000000 1.000000 1.000000 -0.763345 -0.524571 0.377001
1492 1 -12.795764 -9.759696 6.497640 0 1.000000 1.000000 1.000000 -0.736625 -0.562760 0.375079
1493 1 -12.776154 -10.190178 5.843667 0 1.000000 1.000000 1.000000 -0.736645 -0.586559 0.336606
1494 1 -12.289733 -10.812233 5.768215 0 1.000000 1.000000 1.000000 -0.707402 -0.623618 0.332690
1495 1 -12.237355 -11.197393 5.108814 0 1.000000 1.000000 1.000000 -0.705698 -0.644274 0.294790
1496 1 -11.718079 -11.779319 5.017036 0 1.000000 1.000000 1.000000 -0.674453 -0.679444 0.288911
1497 1 -11.639478 -12.114438 4.361500 0 1.000000 1.000000 1.000000 -0.671292 -0.696906 0.252366
1498 1 -11.095833 -12.649425 4.259297 0 1.000000 1.000000 1.000000 -0.638639 -0.729576 0.244659
1499 1 -10.998230 -12.932699 3.616111 0 1.000000 1.000000 1.000000 -0.634336 -0.743954 0.210119
1500 1 -10.439228 -13.416847 3.509195 0 1.000000 1.000000 1.000000 -0.600890 -0.773699 0.200800
1501 1 -10.329769 -13.649134 2.885476 0 1.000000 1.000000 1.000000 -0.595771 -0.785228 0.168740
1502 1 -9.764158 -14.081289 2.778892 0 1.000000 1.000000 1.000000 -0.562110 -0.811815 0.158079
1503 1 -9.649317 -14.265557 2.180085 0 1.000000 1.000000 1.000000 -0.556486 -0.820814 0.128794
1504 1 -9.084967 -14.646859 2.077932 0 1.000000 1.000000 1.000000 -0.523114 -0.844183 0.117079
1505 1 -8.970171 -14.787513 1.507757 0 1.000000 1.000000 1.000000 -0.517257 -0.851011 0.090701
1506 1 -14.673934 -0.515130 9.265752 0 1.000000 1.000000 1.000000 -0.844302 -0.033984 0.534788
1507 1 -14.559859 -1.047765 9.398698 0 1.000000 1.000000 1.000000 -0.839315 -0.057313 0.540617
1508 1 -14.787513 -1.507757 8.970171 0 1.000000 1.000000 1.000000 -0.851011 -0.090701 0.517257
1509 1 -14.646859 -2.077932 9.084967 0 1.000000 1.000000 1.000000 -0.844183 -0.117079 0.523114
1510 1 -14.849933 -2.558176 8.620141 0 1.000000 1.000000 1.000000 -0.854801 -0.150667 0.496603
1511 1 -14.677206 -3.162905 8.713378 0 1.000000 1.000000 1.000000 -0.845764 -0.180071 0.502253
1512 1 -14.850107 -3.657579 8.211774 0 1.000000 1.000000 1.000000 -0.855031 -0.213385 0.472640
1513 1 -14.639895 -4.291751 8.280475 0 1.000000 1.000000 1.000000 -0.843428 -0.245643 0.477795
1514 1 -14.777543 -4.793233 7.743023 0 1.000000 1.000000 1.000000 -0.851091 -0.278143 0.445288
1515 1 -14.525056 -5.449494 7.785030 0 1.000000 1.000000 1.000000 -0.836614 -0.312908 0.449627
1516 1 -14.623480 -5.948609 7.214363 0 1.000000 1.000000 1.000000 -0.842465 -0.344016 0.414615
1517 1 -14.325179 -6.617526 7.228709 0 1.000000 1.000000 1.000000 -0.824900 -0.380762 0.417804
1518 1 -14.382091 -7.104091 6.629309 0 1.000000 1.000000 1.000000 -0.828806 -0.409911 0.380860
1519 1 -14.036305 -7.774652 6.616499 0 1.000000 1.000000 1.000000 -0.808068 -0.447948 0.382581
1520 1 -14.051543 -8.238280 5.994618 0 1.000000 1.000000 1.000000 -0.809995 -0.474632 0.344432
1521 1 -13.658921 -8.898707 5.956733 0 1.000000 1.000000 1.000000 -0.786160 -0.513152 0.344424
1522 1 -13.634638 -9.329751 5.320051 0 1.000000 1.000000 1.000000 -0.786180 -0.536980 0.305899
1523 1 -13.198325 -9.968513 5.260619 0 1.000000 1.000000 1.000000 -0.759491 -0.575125 0.303981
1524 1 -13.138832 -10.358984 4.617674 0 1.000000 1.000000 1.000000 -0.757781 -0.595855 0.265939
1525 1 -12.664283 -10.965810 4.541322 0 1.000000 1.000000 1.000000 -0.728631 -0.632798 0.262037
1526 1 -12.575587 -11.310061 3.900803 0 1.000000 1.000000 1.000000 -0.725453 -0.650356 0.225286
1527 1 -12.070058 -11.876763 3.812759 0 1.000000 1.000000 1.000000 -0.694347 -0.685369 0.219434
1528 1 -11.959174 -12.171819 3.182806 0 1.000000 1.000000 1.000000 -0.690017 -0.699840 0.184664
1529 1 -11.430992 -12.692768 3.088361 0 1.000000 1.000000 1.000000 -0.657522 -0.732351 0.176994
1530 1 -11.305201 -12.938264 2.475995 0 1.000000 1.000000 1.000000 -0.652374 -0.743949 0.144733
1531 1 -10.762980 -13.410482 2.380027 0 1.000000 1.000000 1.000000 -0.619068 -0.773568 0.135452
1532 1 -10.629166 -13.608287 1.790796 0 1.000000 1.000000 1.000000 -0.613423 -0.782602 0.106046
1533 1 -10.081114 -14.031206 1.697438 0 1.000000 1.000000 1.000000 -0.579847 -0.809120 0.095409
1534 1 -9.945292 -14.184854 1.135293 0 1.000000 1.000000 1.000000 -0.573991 -0.815946 0.069030
1535 1 -9.398698 -14.559859 1.047765 0 1.000000 1.000000 1.000000 -0.540617 -0.839315 0.057313
1536 1 -9.265752 -14.673934 0.515130 0 1.000000 1.000000 1.000000 -0.534788 -0.844302 0.033984
1537 1 -14.992302 0.318368 8.750622 0 1.000000 1.000000 1.000000 -0.865306 0.021003 0.500804
1538 1 -15.116699 1.304308 8.437536 0 1.000000 1.000000 1.000000 -0.872003 0.077727 0.483290
1539 1 -15.207413 0.647554 8.350933 0 1.000000 1.000000 1.000000 -0.874736 0.035421 0.483304
1540 1 -15.489163 0.329186 7.834877 0 1.000000 1.000000 1.000000 -0.893674 0.020992 0.448226
1541 1 -15.189327 2.348419 8.070991 0 1.000000 1.000000 1.000000 -0.875720 0.137738 0.462756
1542 1 -15.315439 1.664727 8.003182 0 1.000000 1.000000 1.000000 -0.881479 0.094029 0.462767
1543 1 -15.612923 1.347367 7.469232 0 1.000000 1.000000 1.000000 -0.900413 0.079599 0.427692
1544 1 -15.695933 0.668580 7.387530 0 1.000000 1.000000 1.000000 -0.903149 0.037296 0.427704
1545 1 -15.956706 0.339393 6.829344 0 1.000000 1.000000 1.000000 -0.920341 0.020919 0.390558
1546 1 -15.198772 3.442092 7.647622 0 1.000000 1.000000 1.000000 -0.875829 0.200532 0.438989
1547 1 -15.365265 2.737661 7.600075 0 1.000000 1.000000 1.000000 -0.884858 0.155910 0.438997
1548 1 -15.677193 2.424053 7.048300 0 1.000000 1.000000 1.000000 -0.903736 0.141519 0.404021
1549 1 -15.798739 1.717450 6.985265 0 1.000000 1.000000 1.000000 -0.909513 0.097698 0.404031
1550 1 -16.073187 1.387329 6.407569 0 1.000000 1.000000 1.000000 -0.926747 0.081277 0.366789
1551 1 -16.148144 0.688059 6.333351 0 1.000000 1.000000 1.000000 -0.929478 0.039094 0.366801
1552 1 -16.380356 0.348665 5.735779 0 1.000000 1.000000 1.000000 -0.944481 0.020798 0.327907
1553 1 -15.134200 4.572807 7.165942 0 1.000000 1.000000 1.000000 -0.871741 0.265380 0.411874
1554 1 -15.345216 3.855839 7.139241 0 1.000000 1.000000 1.000000 -0.884167 0.220466 0.411879
1555 1 -15.669469 3.548845 6.570043 0 1.000000 1.000000 1.000000 -0.902952 0.206142 0.377073
1556 1 -15.834953 2.821490 6.526649 0 1.000000 1.000000 1.000000 -0.912021 0.161332 0.377080
1557 1 -16.121649 2.492977 5.930006 0 1.000000 1.000000 1.000000 -0.929252 0.144910 0.339841
1558 1 -16.238337 1.765418 5.873961 0 1.000000 1.000000 1.000000 -0.935031 0.101092 0.339850
1559 1 -16.481544 1.422804 5.256078 0 1.000000 1.000000 1.000000 -0.950096 0.082716 0.300791
1560 1 -16.548607 0.705322 5.192114 0 1.000000 1.000000 1.000000 -0.952816 0.040739 0.300802
1561 1 -16.744626 0.356656 4.560217 0 1.000000 1.000000 1.000000 -0.965220 0.020651 0.260623
1562 1 -14.986504 5.724248 6.626979 0 1.000000 1.000000 1.000000 -0.862970 0.331343 0.381437
1563 1 -15.244736 5.004708 6.620564 0 1.000000 1.000000 1.000000 -0.878757 0.286863 0.381439
1564 1 -15.578333 4.707094 6.034779 0 1.000000 1.000000 1.000000 -0.897433 0.272619 0.346833
1565 1 -15.792049 3.968200 6.010960 0 1.000000 1.000000 1.000000 -0.909920 0.227486 0.346838
1566 1 -16.088803 3.643964 5.396435 0 1.000000 1.000000 1.000000 -0.927116 0.211094 0.309671
1567 1 -16.252919 2.896095 5.358876 0 1.000000 1.000000 1.000000 -0.936203 0.166206 0.309677
1568 1 -16.505687 2.552547 4.721902 0 1.000000 1.000000 1.000000 -0.951293 0.147798 0.270551
1569 1 -16.617625 1.806815 4.675150 0 1.000000 1.000000 1.000000 -0.957062 0.104065 0.270559
1570 1 -16.821532 1.452355 4.023240 0 1.000000 1.000000 1.000000 -0.969525 0.083879 0.230185
1571 1 -16.881471 0.719680 3.972271 0 1.000000 1.000000 1.000000 -0.972232 0.042143 0.230194
1572 1 -17.034309 0.363024 3.313560 0 1.000000 1.000000 1.000000 -0.981700 0.020505 0.189329
1573 1 -14.749554 6.876987 6.034741 0 1.000000 1.000000 1.000000 -0.849194 0.397310 0.347871
1574 1 -15.055666 6.166061 6.046757 0 1.000000 1.000000 1.000000 -0.868123 0.354049 0.347868
1575 1 -15.394839 5.880241 5.445745 0 1.000000 1.000000 1.000000 -0.886696 0.339880 0.313451
1576 1 -15.659273 5.140815 5.440182 0 1.000000 1.000000 1.000000 -0.902555 0.295200 0.313452
1577 1 -15.963131 4.823451 4.809427 0 1.000000 1.000000 1.000000 -0.919701 0.278852 0.276391
1578 1 -16.178944 4.065493 4.789499 0 1.000000 1.000000 1.000000 -0.932220 0.233607 0.276395
1579 1 -16.439198 3.723457 4.135304 0 1.000000 1.000000 1.000000 -0.947308 0.215197 0.237272
1580 1 -16.601824 2.958379 4.105265 0 1.000000 1.000000 1.000000 -0.956396 0.170313 0.237277
1581 1 -16.812365 2.600129 3.435339 0 1.000000 1.000000 1.000000 -0.968889 0.150075 0.196803
1582 1 -16.920135 1.839838 3.400066 0 1.000000 1.000000 1.000000 -0.974644 0.106467 0.196809
1583 1 -17.077635 1.474625 2.722924 0 1.000000 1.000000 1.000000 -0.984154 0.084732 0.155761
1584 1 -17.131871 0.730486 2.687387 0 1.000000 1.000000 1.000000 -0.986848 0.043223 0.155767
1585 1 -17.235970 0.367463 2.011634 0 1.000000 1.000000 1.000000 -0.993165 0.020388 0.114920
1586 1 -14.421288 8.009765 5.396359 0 1.000000 1.000000 1.000000 -0.830318 0.462071 0.311548
1587 1 -14.773512 7.319033 5.423672 0 1.000000 1.000000 1.000000 -0.851972 0.420814 0.311543
1588 1 -15.113909 7.046829 4.809389 0 1.000000 1.000000 1.000000 -0.870474 0.406696 0.277259
1589 1 -15.429124 6.318963 4.819446 0 1.000000 1.000000 1.000000 -0.889462 0.363298 0.277257
1590 1 -15.736487 6.010763 4.174759 0 1.000000 1.000000 1.000000 -0.906562 0.346992 0.240297
1591 1 -16.006060 5.254677 4.170303 0 1.000000 1.000000 1.000000 -0.922457 0.302209 0.240298
1592 1 -16.271127 4.916590 3.501451 0 1.000000 1.000000 1.000000 -0.937530 0.283815 0.201213
1593 1 -16.488452 4.143327 3.486379 0 1.000000 1.000000 1.000000 -0.950060 0.238532 0.201216
1594 1 -16.703921 3.783521 2.801175 0 1.000000 1.000000 1.000000 -0.962563 0.218276 0.160708
1595 1 -16.865207 3.005400 2.780173 0 1.000000 1.000000 1.000000 -0.971644 0.173436 0.160712
1596 1 -17.026538 2.633365 2.087412 0 1.000000 1.000000 1.000000 -0.981176 0.151650 0.119569
1597 1 -17.131196 1.862881 2.065436 0 1.000000 1.000000 1.000000 -0.986916 0.108160 0.119573
1598 1 -17.237007 1.488487 1.374145 0 1.000000 1.000000 1.000000 -0.993254 0.085254 0.078597
1599 1 -17.287546 0.737207 1.355880 0 1.000000 1.000000 1.000000 -0.995939 0.043904 0.078600
1600 1 -17.339516 0.369745 0.674566 0 1.000000 1.000000 1.000000 -0.999051 0.020323 0.038533
1601 1 -14.004383 9.101236 4.721792 0 1.000000 1.000000 1.000000 -0.806503 0.524419 0.273015
1602 1 -14.398410 8.441677 4.760214 0 1.000000 1.000000 1.000000 -0.830297 0.485874 0.273008
1603 1 -14.735413 8.184141 4.135232 0 1.000000 1.000000 1.000000 -0.848774 0.471773 0.238774
1604 1 -15.098688 7.480024 4.157093 0 1.000000 1.000000 1.000000 -0.870452 0.430469 0.238770
1605 1 -15.405541 7.182772 3.501417 0 1.000000 1.000000 1.000000 -0.887524 0.414186 0.201870
1606 1 -15.728125 6.441376 3.509026 0 1.000000 1.000000 1.000000 -0.906537 0.370729 0.201868
1607 1 -15.994873 6.109478 2.828772 0 1.000000 1.000000 1.000000 -0.921595 0.352352 0.162824
1608 1 -16.268301 5.340778 2.825652 0 1.000000 1.000000 1.000000 -0.937504 0.307529 0.162825
1609 1 -16.486602 4.981754 2.128633 0 1.000000 1.000000 1.000000 -0.950006 0.287273 0.122319
1610 1 -16.704896 4.197759 2.119228 0 1.000000 1.000000 1.000000 -0.962537 0.241992 0.122321
1611 1 -16.869001 3.820979 1.414401 0 1.000000 1.000000 1.000000 -0.972077 0.220187 0.081142
1612 1 -17.029357 3.034706 1.403588 0 1.000000 1.000000 1.000000 -0.981149 0.175392 0.081144
1613 1 -17.136728 2.650466 0.700298 0 1.000000 1.000000 1.000000 -0.987496 0.152456 0.040111
1614 1 -17.239720 1.874731 0.692831 0 1.000000 1.000000 1.000000 -0.993228 0.109035 0.040113
1615 1 -17.291127 1.493196 -0.000000 0 1.000000 1.000000 1.000000 -0.996344 0.085429 0.000000
1616 1 -17.340384 0.739489 -0.000000 0 1.000000 1.000000 1.000000 -0.999025 0.044137 0.000000
1617 1 -17.339516 0.369745 -0.674566 0 1.000000 1.000000 1.000000 -0.999051 0.020323 -0.038533
1618 1 -13.506295 10.131879 4.023107 0 1.000000 1.000000 1.000000 -0.778170 0.583255 0.232950
1619 1 -13.935532 9.512893 4.067792 0 1.000000 1.000000 1.000000 -0.803395 0.547991 0.232943
1620 1 -14.264641 9.270242 3.435244 0 1.000000 1.000000 1.000000 -0.821899 0.533869 0.198662
1621 1 -14.670495 8.601048 3.464262 0 1.000000 1.000000 1.000000 -0.845661 0.495372 0.198657
1622 1 -14.972733 8.315878 2.801119 0 1.000000 1.000000 1.000000 -0.862734 0.479087 0.161758
1623 1 -15.344505 7.601718 2.816413 0 1.000000 1.000000 1.000000 -0.884409 0.437785 0.161755
1624 1 -15.609568 7.277878 2.128610 0 1.000000 1.000000 1.000000 -0.899461 0.419414 0.122728
1625 1 -15.937352 6.527033 2.133360 0 1.000000 1.000000 1.000000 -0.918480 0.375942 0.122727
1626 1 -16.156122 6.171085 1.428613 0 1.000000 1.000000 1.000000 -0.930980 0.355689 0.082231
1627 1 -16.431944 5.394506 1.427006 0 1.000000 1.000000 1.000000 -0.946892 0.310859 0.082232
1628 1 -16.597585 5.015319 0.714311 0 1.000000 1.000000 1.000000 -0.956434 0.289050 0.041046
1629 1 -16.816349 4.225788 0.711112 0 1.000000 1.000000 1.000000 -0.968962 0.243779 0.041047
1630 1 -16.925121 3.833714 0.000000 0 1.000000 1.000000 1.000000 -0.975311 0.220835 -0.000000
1631 1 -17.085144 3.044666 0.000000 0 1.000000 1.000000 1.000000 -0.984380 0.176059 -0.000000
1632 1 -17.136728 2.650466 -0.700298 0 1.000000 1.000000 1.000000 -0.987496 0.152456 -0.040111
1633 1 -17.239720 1.874731 -0.692831 0 1.000000 1.000000 1.000000 -0.993228 0.109035 -0.040113
1634 1 -17.237007 1.488487 -1.374145 0 1.000000 1.000000 1.000000 -0.993254 0.085254 -0.078597
1635 1 -17.287546 0.737207 -1.355880 0 1.000000 1.000000 1.000000 -0.995939 0.043904 -0.078600
1636 1 -17.235970 0.367463 -2.011634 0 1.000000 1.000000 1.000000 -0.993165 0.020388 -0.114920
1637 1 -12.938611 11.085700 3.313419 0 1.000000 1.000000 1.000000 -0.745958 0.637684 0.192109
1638 1 -13.394769 10.514344 3.359370 0 1.000000 1.000000 1.000000 -0.771853 0.606085 0.192101
1639 1 -13.711979 10.286025 2.722821 0 1.000000 1.000000 1.000000 -0.790431 0.591907 0.157690
1640 1 -14.152614 9.660909 2.754010 0 1.000000 1.000000 1.000000 -0.815562 0.556772 0.157684
1641 1 -14.446395 9.388266 2.087347 0 1.000000 1.000000 1.000000 -0.832664 0.540459 0.120728
1642 1 -14.860660 8.712429 2.105438 0 1.000000 1.000000 1.000000 -0.856388 0.502022 0.120724
1643 1 -15.120724 8.398028 1.414370 0 1.000000 1.000000 1.000000 -0.871446 0.483642 0.081682
1644 1 -15.497860 7.677636 1.422248 0 1.000000 1.000000 1.000000 -0.893112 0.442356 0.081681
1645 1 -15.714654 7.326863 0.714302 0 1.000000 1.000000 1.000000 -0.905612 0.422103 0.041185
1646 1 -16.045132 6.571157 0.715918 0 1.000000 1.000000 1.000000 -0.924631 0.378631 0.041185
1647 1 -16.210961 6.192036 -0.000000 0 1.000000 1.000000 1.000000 -0.934172 0.356822 -0.000000
1648 1 -16.487593 5.412777 0.000000 0 1.000000 1.000000 1.000000 -0.950085 0.311993 -0.000000
1649 1 -16.597585 5.015319 -0.714311 0 1.000000 1.000000 1.000000 -0.956434 0.289050 -0.041046
1650 1 -16.816349 4.225788 -0.711112 0 1.000000 1.000000 1.000000 -0.968962 0.243779 -0.041047
1651 1 -16.869001 3.820979 -1.414401 0 1.000000 1.000000 1.000000 -0.972077 0.220187 -0.081142
1652 1 -17.029357 3.034706 -1.403588 0 1.000000 1.000000 1.000000 -0.981149 0.175392 -0.081144
1653 1 -17.026538 2.633365 -2.087412 0 1.000000 1.000000 1.000000 -0.981176 0.151650 -0.119569
1654 1 -17.131196 1.862881 -2.065436 0 1.000000 1.000000 1.000000 -0.986916 0.108160 -0.119573
1655 1 -17.077635 1.474625 -2.722924 0 1.000000 1.000000 1.000000 -0.984154 0.084732 -0.155761
1656 1 -17.131871 0.730486 -2.687387 0 1.000000 1.000000 1.000000 -0.986848 0.043223 -0.155767
1657 1 -17.034309 0.363024 -3.313560 0 1.000000 1.000000 1.000000 -0.981700 0.020505 -0.189329
1658 1 -12.315831 11.951393 2.605724 0 1.000000 1.000000 1.000000 -0.710667 0.687077 0.151251
1659 1 -12.789738 11.431977 2.648293 0 1.000000 1.000000 1.000000 -0.736490 0.659324 0.151245
1660 1 -13.091834 11.216833 2.011539 0 1.000000 1.000000 1.000000 -0.755171 0.645067 0.116648
1661 1 -13.557917 10.642237 2.040116 0 1.000000 1.000000 1.000000 -0.780920 0.613643 0.116643
1662 1 -13.839975 10.381946 1.374088 0 1.000000 1.000000 1.000000 -0.798070 0.597286 0.079589
1663 1 -14.287818 9.753091 1.390130 0 1.000000 1.000000 1.000000 -0.823132 0.562246 0.079586
1664 1 -14.539905 9.448987 0.700275 0 1.000000 1.000000 1.000000 -0.838207 0.543846 0.040505
1665 1 -14.958547 8.769760 0.706425 0 1.000000 1.000000 1.000000 -0.861906 0.505448 0.040504
1666 1 -15.171034 8.425955 -0.000000 0 1.000000 1.000000 1.000000 -0.874409 0.485189 0.000000
1667 1 -15.550006 7.703450 -0.000000 0 1.000000 1.000000 1.000000 -0.896070 0.443912 0.000000
1668 1 -15.714654 7.326863 -0.714302 0 1.000000 1.000000 1.000000 -0.905612 0.422103 -0.041185
1669 1 -16.045132 6.571157 -0.715918 0 1.000000 1.000000 1.000000 -0.924631 0.378631 -0.041185
1670 1 -16.156122 6.171085 -1.428613 0 1.000000 1.000000 1.000000 -0.930980 0.355689 -0.082231
1671 1 -16.431944 5.394506 -1.427006 0 1.000000 1.000000 1.000000 -0.946892 0.310859 -0.082232
1672 1 -16.486602 4.981754 -2.128633 0 1.000000 1.000000 1.000000 -0.950006 0.287273 -0.122319
1673 1 -16.704896 4.197759 -2.119228 0 1.000000 1.000000 1.000000 -0.962537 0.241992 -0.122321
1674 1 -16.703921 3.783521 -2.801175 0 1.000000 1.000000 1.000000 -0.962563 0.218276 -0.160708
1675 1 -16.865207 3.005400 -2.780173 0 1.000000 1.000000 1.000000 -0.971644 0.173436 -0.160712
1676 1 -16.812365 2.600129 -3.435339 0 1.000000 1.000000 1.000000 -0.968889 0.150075 -0.196803
1677 1 -16.920135 1.839838 -3.400066 0 1.000000 1.000000 1.000000 -0.974644 0.106467 -0.196809
1678 1 -16.821532 1.452355 -4.023240 0 1.000000 1.000000 1.000000 -0.969525 0.083879 -0.230185
1679 1 -16.881471 0.719680 -3.972271 0 1.000000 1.000000 1.000000 -0.972232 0.042143 -0.230194
1680 1 -16.744626 0.356656 -4.560217 0 1.000000 1.000000 1.000000 -0.965220 0.020651 -0.260623
1681 1 -11.653866 12.722777 1.911843 0 1.000000 1.000000 1.000000 -0.673171 0.731096 0.111082
1682 1 -12.136314 12.256856 1.947127 0 1.000000 1.000000 1.000000 -0.698261 0.707173 0.111077
1683 1 -12.421034 12.053358 1.313966 0 1.000000 1.000000 1.000000 -0.717052 0.692833 0.076281
1684 1 -12.902647 11.532752 1.335810 0 1.000000 1.000000 1.000000 -0.742705 0.665260 0.076278
1685 1 -13.170507 11.284162 0.674533 0 1.000000 1.000000 1.000000 -0.759906 0.648855 0.039119
1686 1 -13.641751 10.707952 0.684234 0 1.000000 1.000000 1.000000 -0.785574 0.617530 0.039118
1687 1 -13.883440 10.414519 0.000000 0 1.000000 1.000000 1.000000 -0.800666 0.599111 0.000000
1688 1 -14.333751 9.784408 -0.000000 0 1.000000 1.000000 1.000000 -0.825702 0.564107 0.000000
1689 1 -14.539905 9.448987 -0.700275 0 1.000000 1.000000 1.000000 -0.838207 0.543846 -0.040505
1690 1 -14.958547 8.769760 -0.706425 0 1.000000 1.000000 1.000000 -0.861906 0.505448 -0.040504
1691 1 -15.120724 8.398028 -1.414370 0 1.000000 1.000000 1.000000 -0.871446 0.483642 -0.081682
1692 1 -15.497860 7.677636 -1.422248 0 1.000000 1.000000 1.000000 -0.893112 0.442356 -0.081681
1693 1 -15.609568 7.277878 -2.128610 0 1.000000 1.000000 1.000000 -0.899461 0.419414 -0.122728
1694 1 -15.937352 6.527033 -2.133360 0 1.000000 1.000000 1.000000 -0.918480 0.375942 -0.122727
1695 1 -15.994873 6.109478 -2.828772 0 1.000000 1.000000 1.000000 -0.921595 0.352352 -0.162824
1696 1 -16.268301 5.340778 -2.825652 0 1.000000 1.000000 1.000000 -0.937504 0.307529 -0.162825
1697 1 -16.271127 4.916590 -3.501451 0 1.000000 1.000000 1.000000 -0.937530 0.283815 -0.201213
1698 1 -16.488452 4.143327 -3.486379 0 1.000000 1.000000 1.000000 -0.950060 0.238532 -0.201216
1699 1 -16.439198 3.723457 -4.135304 0 1.000000 1.000000 1.000000 -0.947308 0.215197 -0.237272
1700 1 -16.601824 2.958379 -4.105265 0 1.000000 1.000000 1.000000 -0.956396 0.170313 -0.237277
1701 1 -16.505687 2.552547 -4.721902 0 1.000000 1.000000 1.000000 -0.951293 0.147798 -0.270551
1702 1 -16.617625 1.806815 -4.675150 0 1.000000 1.000000 1.000000 -0.957062 0.104065 -0.270559
1703 1 -16.481544 1.422804 -5.256078 0 1.000000 1.000000 1.000000 -0.950096 0.082716 -0.300791
1704 1 -16.548607 0.705322 -5.192114 0 1.000000 1.000000 1.000000 -0.952816 0.040739 -0.300802
1705 1 -16.380356 0.348665 -5.735779 0 1.000000 1.000000 1.000000 -0.944481 0.020798 -0.327907
1706 1 -10.968560 13.398531 1.241646 0 1.000000 1.000000 1.000000 -0.634342 0.769674 0.072199
1707 1 -11.451039 12.985239 1.266724 0 1.000000 1.000000 1.000000 -0.658163 0.749406 0.072196
1708 1 -11.717098 12.791718 0.640731 0 1.000000 1.000000 1.000000 -0.677048 0.734996 0.037232
1709 1 -12.204646 12.325758 0.652688 0 1.000000 1.000000 1.000000 -0.701982 0.711221 0.037230
1710 1 -12.456704 12.087929 -0.000000 0 1.000000 1.000000 1.000000 -0.719219 0.694783 -0.000000
1711 1 -12.940952 11.566938 0.000000 0 1.000000 1.000000 1.000000 -0.744811 0.667275 -0.000000
1712 1 -13.170507 11.284162 -0.674533 0 1.000000 1.000000 1.000000 -0.759906 0.648855 -0.039119
1713 1 -13.641751 10.707952 -0.684234 0 1.000000 1.000000 1.000000 -0.785574 0.617530 -0.039118
1714 1 -13.839975 10.381946 -1.374088 0 1.000000 1.000000 1.000000 -0.798070 0.597286 -0.079589
1715 1 -14.287818 9.753091 -1.390130 0 1.000000 1.000000 1.000000 -0.823132 0.562246 -0.079586
1716 1 -14.446395 9.388266 -2.087347 0 1.000000 1.000000 1.000000 -0.832664 0.540459 -0.120728
1717 1 -14.860660 8.712429 -2.105438 0 1.000000 1.000000 1.000000 -0.856388 0.502022 -0.120724
1718 1 -14.972733 8.315878 -2.801119 0 1.000000 1.000000 1.000000 -0.862734 0.479087 -0.161758
1719 1 -15.344505 7.601718 -2.816413 0 1.000000 1.000000 1.000000 -0.884409 0.437785 -0.161755
1720 1 -15.405541 7.182772 -3.501417 0 1.000000 1.000000 1.000000 -0.887524 0.414186 -0.201870
1721 1 -15.728125 6.441376 -3.509026 0 1.000000 1.000000 1.000000 -0.906537 0.370729 -0.201868
1722 1 -15.736487 6.010763 -4.174759 0 1.000000 1.000000 1.000000 -0.906562 0.346992 -0.240297
1723 1 -16.006060 5.254677 -4.170303 0 1.000000 1.000000 1.000000 -0.922457 0.302209 -0.240298
1724 1 -15.963131 4.823451 -4.809427 0 1.000000 1.000000 1.000000 -0.919701 0.278852 -0.276391
1725 1 -16.178944 4.065493 -4.789499 0 1.000000 1.000000 1.000000 -0.932220 0.233607 -0.276395
1726 1 -16.088803 3.643964 -5.396435 0 1.000000 1.000000 1.000000 -0.927116 0.211094 -0.309671
1727 1 -16.252919 2.896095 -5.358876 0 1.000000 1.000000 1.000000 -0.936203 0.166206 -0.309677
1728 1 -16.121649 2.492977 -5.930006 0 1.000000 1.000000 1.000000 -0.929252 0.144910 -0.339841
1729 1 -16.238337 1.765418 -5.873961 0 1.000000 1.000000 1.000000 -0.935031 0.101092 -0.339850
1730 1 -16.073187 1.387329 -6.407569 0 1.000000 1.000000 1.000000 -0.926747 0.081277 -0.366789
1731 1 -16.148144 0.688059 -6.333351 0 1.000000 1.000000 1.000000 -0.929478 0.039094 -0.366801
1732 1 -15.956706 0.339393 -6.829344 0 1.000000 1.000000 1.000000 -0.920341 0.020919 -0.390558
1733 1 -10.274479 13.981406 0.602658 0 1.000000 1.000000 1.000000 -0.594984 0.802973 0.035064
1734 1 -10.749694 13.618001 0.615653 0 1.000000 1.000000 1.000000 -0.617143 0.786069 0.035063
1735 1 -10.996684 13.432838 0.000000 0 1.000000 1.000000 1.000000 -0.636085 0.771619 0.000000
1736 1 -11.481608 13.019847 0.000000 0 1.000000 1.000000 1.000000 -0.659808 0.751434 0.000000
1737 1 -11.717098 12.791718 -0.640731 0 1.000000 1.000000 1.000000 -0.677048 0.734996 -0.037232
1738 1 -12.204646 12.325758 -0.652688 0 1.000000 1.000000 1.000000 -0.701982 0.711221 -0.037230
1739 1 -12.421034 12.053358 -1.313966 0 1.000000 1.000000 1.000000 -0.717052 0.692833 -0.076281
1740 1 -12.902647 11.532752 -1.335810 0 1.000000 1.000000 1.000000 -0.742705 0.665260 -0.076278
1741 1 -13.091834 11.216833 -2.011539 0 1.000000 1.000000 1.000000 -0.755171 0.645067 -0.116648
1742 1 -13.557917 10.642237 -2.040116 0 1.000000 1.000000 1.000000 -0.780920 0.613643 -0.116643
1743 1 -13.711979 10.286025 -2.722821 0 1.000000 1.000000 1.000000 -0.790431 0.591907 -0.157690
1744 1 -14.152614 9.660909 -2.754010 0 1.000000 1.000000 1.000000 -0.815562 0.556772 -0.157684
1745 1 -14.264641 9.270242 -3.435244 0 1.000000 1.000000 1.000000 -0.821899 0.533869 -0.198662
1746 1 -14.670495 8.601048 -3.464262 0 1.000000 1.000000 1.000000 -0.845661 0.495372 -0.198657
1747 1 -14.735413 8.184141 -4.135232 0 1.000000 1.000000 1.000000 -0.848774 0.471773 -0.238774
1748 1 -15.098688 7.480024 -4.157093 0 1.000000 1.000000 1.000000 -0.870452 0.430469 -0.238770
1749 1 -15.113909 7.046829 -4.809389 0 1.000000 1.000000 1.000000 -0.870474 0.406696 -0.277259
1750 1 -15.429124 6.318963 -4.819446 0 1.000000 1.000000 1.000000 -0.889462 0.363298 -0.277257
1751 1 -15.394839 5.880241 -5.445745 0 1.000000 1.000000 1.000000 -0.886696 0.339880 -0.313451
1752 1 -15.659273 5.140815 -5.440182 0 1.000000 1.000000 1.000000 -0.902555 0.295200 -0.313452
1753 1 -15.578333 4.707094 -6.034779 0 1.000000 1.000000 1.000000 -0.897433 0.272619 -0.346833
1754 1 -15.792049 3.968200 -6.010960 0 1.000000 1.000000 1.000000 -0.909920 0.227486 -0.346838
1755 1 -15.669469 3.548845 -6.570043 0 1.000000 1.000000 1.000000 -0.902952 0.206142 -0.377073
1756 1 -15.834953 2.821490 -6.526649 0 1.000000 1.000000 1.000000 -0.912021 0.161332 -0.377080
1757 1 -15.677193 2.424053 -7.048300 0 1.000000 1.000000 1.000000 -0.903736 0.141519 -0.404021
1758 1 -15.798739 1.717450 -6.985265 0 1.000000 1.000000 1.000000 -0.909513 0.097698 -0.404031
1759 1 -15.612923 1.347367 -7.469232 0 1.000000 1.000000 1.000000 -0.900413 0.079599 -0.427692
1760 1 -15.695933 0.668580 -7.387530 0 1.000000 1.000000 1.000000 -0.903149 0.037296 -0.427704
1761 1 -15.489163 0.329186 -7.834877 0 1.000000 1.000000 1.000000 -0.893674 0.020992 -0.448226
1762 1 -9.584120 14.477172 0.000000 0 1.000000 1.000000 1.000000 -0.555791 0.831322 0.000000
1763 1 -10.046253 14.159648 0.000000 0 1.000000 1.000000 1.000000 -0.576038 0.817423 0.000000
1764 1 -10.274479 13.981406 -0.602658 0 1.000000 1.000000 1.000000 -0.594984 0.802973 -0.035064
1765 1 -10.749694 13.618001 -0.615653 0 1.000000 1.000000 1.000000 -0.617143 0.786069 -0.035063
1766 1 -10.968560 13.398531 -1.241646 0 1.000000 1.000000 1.000000 -0.634342 0.769674 -0.072199
1767 1 -11.451039 12.985239 -1.266724 0 1.000000 1.000000 1.000000 -0.658163 0.749406 -0.072196
1768 1 -11.653866 12.722777 -1.911843 0 1.000000 1.000000 1.000000 -0.673171 0.731096 -0.111082
1769 1 -12.136314 12.256856 -1.947127 0 1.000000 1.000000 1.000000 -0.698261 0.707173 -0.111077
1770 1 -12.315831 11.951393 -2.605724 0 1.000000 1.000000 1.000000 -0.710667 0.687077 -0.151251
1771 1 -12.789738 11.431977 -2.648293 0 1.000000 1.000000 1.000000 -0.736490 0.659324 -0.151245
1772 1 -12.938611 11.085700 -3.313419 0 1.000000 1.000000 1.000000 -0.745958 0.637684 -0.192109
1773 1 -13.394769 10.514344 -3.359370 0 1.000000 1.000000 1.000000 -0.771853 0.606085 -0.192101
1774 1 -13.506295 10.131879 -4.023107 0 1.000000 1.000000 1.000000 -0.778170 0.583255 -0.232950
1775 1 -13.935532 9.512893 -4.067792 0 1.000000 1.000000 1.000000 -0.803395 0.547991 -0.232943
1776 1 -14.004383 9.101236 -4.721792 0 1.000000 1.000000 1.000000 -0.806503 0.524419 -0.273015
1777 1 -14.398410 8.441677 -4.760214 0 1.000000 1.000000 1.000000 -0.830297 0.485874 -0.273008
1778 1 -14.421288 8.009765 -5.396359 0 1.000000 1.000000 1.000000 -0.830318 0.462071 -0.311548
1779 1 -14.773512 7.319033 -5.423672 0 1.000000 1.000000 1.000000 -0.851972 0.420814 -0.311543
1780 1 -14.749554 6.876987 -6.034741 0 1.000000 1.000000 1.000000 -0.849194 0.397310 -0.347871
1781 1 -15.055666 6.166061 -6.046757 0 1.000000 1.000000 1.000000 -0.868123 0.354049 -0.347868
1782 1 -14.986504 5.724248 -6.626979 0 1.000000 1.000000 1.000000 -0.862970 0.331343 -0.381437
1783 1 -15.244736 5.004708 -6.620564 0 1.000000 1.000000 1.000000 -0.878757 0.286863 -0.381439
1784 1 -15.134200 4.572807 -7.165942 0 1.000000 1.000000 1.000000 -0.871741 0.265380 -0.411874
1785 1 -15.345216 3.855839 -7.139241 0 1.000000 1.000000 1.000000 -0.884167 0.220466 -0.411879
1786 1 -15.198772 3.442092 -7.647622 0 1.000000 1.000000 1.000000 -0.875829 0.200532 -0.438989
1787 1 -15.365265 2.737661 -7.600075 0 1.000000 1.000000 1.000000 -0.884858 0.155910 -0.438997
1788 1 -15.189327 2.348419 -8.070991 0 1.000000 1.000000 1.000000 -0.875720 0.137738 -0.462756
1789 1 -15.315439 1.664727 -8.003182 0 1.000000 1.000000 1.000000 -0.881479 0.094029 -0.462767
1790 1 -15.116699 1.304308 -8.437536 0 1.000000 1.000000 1.000000 -0.872003 0.077727 -0.483290
1791 1 -15.207413 0.647554 -8.350933 0 1.000000 1.000000 1.000000 -0.874736 0.035421 -0.483304
1792 1 -14.992302 0.318368 -8.750622 0 1.000000 1.000000 1.000000 -0.865306 0.021003 -0.500804
1793 1 -8.750622 14.992302 -0.318368 0 1.000000 1.000000 1.000000 -0.500804 0.865306 -0.021003
1794 1 -7.834877 15.489163 -0.329186 0 1.000000 1.000000 1.000000 -0.448226 0.893674 -0.020992
1795 1 -8.350933 15.207413 -0.647554 0 1.000000 1.000000 1.000000 -0.483304 0.874736 -0.035421
1796 1 -8.437536 15.116699 -1.304308 0 1.000000 1.000000 1.000000 -0.483290 0.872003 -0.077727
1797 1 -6.829344 15.956706 -0.339393 0 1.000000 1.000000 1.000000 -0.390558 0.920341 -0.020919
1798 1 -7.387530 15.695933 -0.668580 0 1.000000 1.000000 1.000000 -0.427704 0.903149 -0.037296
1799 1 -7.469232 15.612923 -1.347367 0 1.000000 1.000000 1.000000 -0.427692 0.900413 -0.079599
1800 1 -8.003182 15.315439 -1.664727 0 1.000000 1.000000 1.000000 -0.462767 0.881479 -0.094029
1801 1 -8.070991 15.189327 -2.348419 0 1.000000 1.000000 1.000000 -0.462756 0.875720 -0.137738
1802 1 -5.735779 16.380356 -0.348665 0 1.000000 1.000000 1.000000 -0.327907 0.944481 -0.020798
1803 1 -6.333351 16.148144 -0.688059 0 1.000000 1.000000 1.000000 -0.366801 0.929478 -0.039094
1804 1 -6.407569 16.073187 -1.387329 0 1.000000 1.000000 1.000000 -0.366789 0.926747 -0.081277
1805 1 -6.985265 15.798739 -1.717450 0 1.000000 1.000000 1.000000 -0.404031 0.909513 -0.097698
1806 1 -7.048300 15.677193 -2.424053 0 1.000000 1.000000 1.000000 -0.404021 0.903736 -0.141519
1807 1 -7.600075 15.365265 -2.737661 0 1.000000 1.000000 1.000000 -0.438997 0.884858 -0.155910
1808 1 -7.647622 15.198772 -3.442092 0 1.000000 1.000000 1.000000 -0.438989 0.875829 -0.200532
1809 1 -4.560217 16.744626 -0.356656 0 1.000000 1.000000 1.000000 -0.260623 0.965220 -0.020651
1810 1 -5.192114 16.548607 -0.705322 0 1.000000 1.000000 1.000000 -0.300802 0.952816 -0.040739
1811 1 -5.256078 16.481544 -1.422804 0 1.000000 1.000000 1.000000 -0.300791 0.950096 -0.082716
1812 1 -5.873961 16.238337 -1.765418 0 1.000000 1.000000 1.000000 -0.339850 0.935031 -0.101092
1813 1 -5.930006 16.121649 -2.492977 0 1.000000 1.000000 1.000000 -0.339841 0.929252 -0.144910
1814 1 -6.526649 15.834953 -2.821490 0 1.000000 1.000000 1.000000 -0.377080 0.912021 -0.161332
1815 1 -6.570043 15.669469 -3.548845 0 1.000000 1.000000 1.000000 -0.377073 0.902952 -0.206142
1816 1 -7.139241 15.345216 -3.855839 0 1.000000 1.000000 1.000000 -0.411879 0.884167 -0.220466
1817 1 -7.165942 15.134200 -4.572807 0 1.000000 1.000000 1.000000 -0.411874 0.871741 -0.265380
1818 1 -3.313560 17.034309 -0.363024 0 1.000000 1.000000 1.000000 -0.189329 0.981700 -0.020505
1819 1 -3.972271 16.881471 -0.719680 0 1.000000 1.000000 1.000000 -0.230194 0.972232 -0.042143
1820 1 -4.023240 16.821532 -1.452355 0 1.000000 1.000000 1.000000 -0.230185 0.969525 -0.083879
1821 1 -4.675150 16.617625 -1.806815 0 1.000000 1.000000 1.000000 -0.270559 0.957062 -0.104065
1822 1 -4.721902 16.505687 -2.552547 0 1.000000 1.000000 1.000000 -0.270551 0.951293 -0.147798
1823 1 -5.358876 16.252919 -2.896095 0 1.000000 1.000000 1.000000 -0.309677 0.936203 -0.166206
1824 1 -5.396435 16.088803 -3.643964 0 1.000000 1.000000 1.000000 -0.309671 0.927116 -0.211094
1825 1 -6.010960 15.792049 -3.968200 0 1.000000 1.000000 1.000000 -0.346838 0.909920 -0.227486
1826 1 -6.034779 15.578333 -4.707094 0 1.000000 1.000000 1.000000 -0.346833 0.897433 -0.272619
1827 1 -6.620564 15.244736 -5.004708 0 1.000000 1.000000 1.000000 -0.381439 0.878757 -0.286863
1828 1 -6.626979 14.986504 -5.724248 0 1.000000 1.000000 1.000000 -0.381437 0.862970 -0.331343
1829 1 -2.011634 17.235970 -0.367463 0 1.000000 1.000000 1.000000 -0.114920 0.993165 -0.020388
1830 1 -2.687387 17.131871 -0.730486 0 1.000000 1.000000 1.000000 -0.155767 0.986848 -0.043223
1831 1 -2.722924 17.077635 -1.474625 0 1.000000 1.000000 1.000000 -0.155761 0.984154 -0.084732
1832 1 -3.400066 16.920135 -1.839838 0 1.000000 1.000000 1.000000 -0.196809 0.974644 -0.106467
1833 1 -3.435339 16.812365 -2.600129 0 1.000000 1.000000 1.000000 -0.196803 0.968889 -0.150075
1834 1 -4.105265 16.601824 -2.958379 0 1.000000 1.000000 1.000000 -0.237277 0.956396 -0.170313
1835 1 -4.135304 16.439198 -3.723457 0 1.000000 1.000000 1.000000 -0.237272 0.947308 -0.215197
1836 1 -4.789499 16.178944 -4.065493 0 1.000000 1.000000 1.000000 -0.276395 0.932220 -0.233607
1837 1 -4.809427 15.963131 -4.823451 0 1.000000 1.000000 1.000000 -0.276391 0.919701 -0.278852
1838 1 -5.440182 15.659273 -5.140815 0 1.000000 1.000000 1.000000 -0.313452 0.902555 -0.295200
1839 1 -5.445745 15.394839 -5.880241 0 1.000000 1.000000 1.000000 -0.313451 0.886696 -0.339880
1840 1 -6.046757 15.055666 -6.166061 0 1.000000 1.000000 1.000000 -0.347868 0.868123 -0.354049
1841 1 -6.034741 14.749554 -6.876987 0 1.000000 1.000000 1.000000 -0.347871 0.849194 -0.397310
1842 1 -0.674566 17.339516 -0.369745 0 1.000000 1.000000 1.000000 -0.038533 0.999051 -0.020323
1843 1 -1.355880 17.287546 -0.737207 0 1.000000 1.000000 1.000000 -0.078600 0.995939 -0.043904
1844 1 -1.374145 17.237007 -1.488487 0 1.000000 1.000000 1.000000 -0.078597 0.993254 -0.085254
1845 1 -2.065436 17.131196 -1.862881 0 1.000000 1.000000 1.000000 -0.119573 0.986916 -0.108160
1846 1 -2.087412 17.026538 -2.633365 0 1.000000 1.000000 1.000000 -0.119569 0.981176 -0.151650
1847 1 -2.780173 16.865207 -3.005400 0 1.000000 1.000000 1.000000 -0.160712 0.971644 -0.173436
1848 1 -2.801175 16.703921 -3.783521 0 1.000000 1.000000 1.000000 -0.160708 0.962563 -0.218276
1849 1 -3.486379 16.488452 -4.143327 0 1.000000 1.000000 1.000000 -0.201216 0.950060 -0.238532
1850 1 -3.501451 16.271127 -4.916590 0 1.000000 1.000000 1.000000 -0.201213 0.937530 -0.283815
1851 1 -4.170303 16.006060 -5.254677 0 1.000000 1.000000 1.000000 -0.240298 0.922457 -0.302209
1852 1 -4.174759 15.736487 -6.010763 0 1.000000 1.000000 1.000000 -0.240297 0.906562 -0.346992
1853 1 -4.819446 15.429124 -6.318963 0 1.000000 1.000000 1.000000 -0.277257 0.889462 -0.363298
1854 1 -4.809389 15.113909 -7.046829 0 1.000000 1.000000 1.000000 -0.277259 0.870474 -0.406696
1855 1 -5.423672 14.773512 -7.319033 0 1.000000 1.000000 1.000000 -0.311543 0.851972 -0.420814
1856 1 -5.396359 14.421288 -8.009765 0 1.000000 1.000000 1.000000 -0.311548 0.830318 -0.462071
1857 1 0.674566 17.339516 -0.369745 0 1.000000 1.000000 1.000000 0.038533 0.999051 -0.020323
1858 1 0.000000 17.340384 -0.739489 0 1.000000 1.000000 1.000000 0.000000 0.999025 -0.044137
1859 1 0.000000 17.291127 -1.493196 0 1.000000 1.000000 1.000000 0.000000 0.996344 -0.085429
1860 1 -0.692831 17.239720 -1.874731 0 1.000000 1.000000 1.000000 -0.040113 0.993228 -0.109035
1861 1 -0.700298 17.136728 -2.650466 0 1.000000 1.000000 1.000000 -0.040111 0.987496 -0.152456
1862 1 -1.403588 17.029357 -3.034706 0 1.000000 1.000000 1.000000 -0.081144 0.981149 -0.175392
1863 1 -1.414401 16.869001 -3.820979 0 1.000000 1.000000 1.000000 -0.081142 0.972077 -0.220187
1864 1 -2.119228 16.704896 -4.197759 0 1.000000 1.000000 1.000000 -0.122321 0.962537 -0.241992
1865 1 -2.128633 16.486602 -4.981754 0 1.000000 1.000000 1.000000 -0.122319 0.950006 -0.287273
1866 1 -2.825652 16.268301 -5.340778 0 1.000000 1.000000 1.000000 -0.162825 0.937504 -0.307529
1867 1 -2.828772 15.994873 -6.109478 0 1.000000 1.000000 1.000000 -0.162824 0.921595 -0.352352
1868 1 -3.509026 15.728125 -6.441376 0 1.000000 1.000000 1.000000 -0.201868 0.906537 -0.370729
1869 1 -3.501417 15.405541 -7.182772 0 1.000000 1.000000 1.000000 -0.201870 0.887524 -0.414186
1870 1 -4.157093 15.098688 -7.480024 0 1.000000 1.000000 1.000000 -0.238770 0.870452 -0.430469
1871 1 -4.135232 14.735413 -8.184141 0 1.000000 1.000000 1.000000 -0.238774 0.848774 -0.471773
1872 1 -4.760214 14.398410 -8.441677 0 1.000000 1.000000 1.000000 -0.273008 0.830297 -0.485874
1873 1 -4.721792 14.004383 -9.101236 0 1.000000 1.000000 1.000000 -0.273015 0.806503 -0.524419
1874 1 2.011634 17.235970 -0.367463 0 1.000000 1.000000 1.000000 0.114920 0.993165 -0.020388
1875 1 1.355880 17.287546 -0.737207 0 1.000000 1.000000 1.000000 0.078600 0.995939 -0.043904
1876 1 1.374145 17.237007 -1.488487 0 1.000000 1.000000 1.000000 0.078597 0.993254 -0.085254
1877 1 0.692831 17.239720 -1.874731 0 1.000000 1.000000 1.000000 0.040113 0.993228 -0.109035
1878 1 0.700298 17.136728 -2.650466 0 1.000000 1.000000 1.000000 0.040111 0.987496 -0.152456
1879 1 -0.000000 17.085144 -3.044666 0 1.000000 1.000000 1.000000 0.000000 0.984380 -0.176059
1880 1 -0.000000 16.925121 -3.833714 0 1.000000 1.000000 1.000000 0.000000 0.975311 -0.220835
1881 1 -0.711112 16.816349 -4.225788 0 1.000000 1.000000 1.000000 -0.041047 0.968962 -0.243779
1882 1 -0.714311 16.597585 -5.015319 0 1.000000 1.000000 1.000000 -0.041046 0.956434 -0.289050
1883 1 -1.427006 16.431944 -5.394506 0 1.000000 1.000000 1.000000 -0.082232 0.946892 -0.310859
1884 1 -1.428613 16.156122 -6.171085 0 1.000000 1.000000 1.000000 -0.082231 0.930980 -0.355689
1885 1 -2.133360 15.937352 -6.527033 0 1.000000 1.000000 1.000000 -0.122727 0.918480 -0.375942
1886 1 -2.128610 15.609568 -7.277878 0 1.000000 1.000000 1.000000 -0.122728 0.899461 -0.419414
1887 1 -2.816413 15.344505 -7.601718 0 1.000000 1.000000 1.000000 -0.161755 0.884409 -0.437785
1888 1 -2.801119 14.972733 -8.315878 0 1.000000 1.000000 1.000000 -0.161758 0.862734 -0.479087
1889 1 -3.464262 14.670495 -8.601048 0 1.000000 1.000000 1.000000 -0.198657 0.845661 -0.495372
1890 1 -3.435244 14.264641 -9.270242 0 1.000000 1.000000 1.000000 -0.198662 0.821899 -0.533869
1891 1 -4.067792 13.935532 -9.512893 0 1.000000 1.000000 1.000000 -0.232943 0.803395 -0.547991
1892 1 -4.023107 13.506295 -10.131879 0 1.000000 1.000000 1.000000 -0.232950 0.778170 -0.583255
1893 1 3.313560 17.034309 -0.363024 0 1.000000 1.000000 1.000000 0.189329 0.981700 -0.020505
1894 1 2.687387 17.131871 -0.730486 0 1.000000 1.000000 1.000000 0.155767 0.986848 -0.043223
1895 1 2.722924 17.077635 -1.474625 0 1.000000 1.000000 1.000000 0.155761 0.984154 -0.084732
1896 1 2.065436 17.131196 -1.862881 0 1.000000 1.000000 1.000000 0.119573 0.986916 -0.108160
1897 1 2.087412 17.026538 -2.633365 0 1.000000 1.000000 1.000000 0.119569 0.981176 -0.151650
1898 1 1.403588 17.029357 -3.034706 0 1.000000 1.000000 1.000000 0.081144 0.981149 -0.175392
1899 1 1.414401 16.869001 -3.820979 0 1.000000 1.000000 1.000000 0.081142 0.972077 -0.220187
1900 1 0.711112 16.816349 -4.225788 0 1.000000 1.000000 1.000000 0.041047 0.968962 -0.243779
1901 1 0.714311 16.597585 -5.015319 0 1.000000 1.000000 1.000000 0.041046 0.956434 -0.289050
1902 1 -0.000000 16.487593 -5.412777 0 1.000000 1.000000 1.000000 0.000000 0.950085 -0.311993
1903 1 0.000000 16.210961 -6.192036 0 1.000000 1.000000 1.000000 0.000000 0.934172 -0.356822
1904 1 -0.715918 16.045132 -6.571157 0 1.000000 1.000000 1.000000 -0.041185 0.924631 -0.378631
1905 1 -0.714302 15.714654 -7.326863 0 1.000000 1.000000 1.000000 -0.041185 0.905612 -0.422103
1906 1 -1.422248 15.497860 -7.677636 0 1.000000 1.000000 1.000000 -0.081681 0.893112 -0.442356
1907 1 -1.414370 15.120724 -8.398028 0 1.000000 1.000000 1.000000 -0.081682 0.871446 -0.483642
1908 1 -2.105438 14.860660 -8.712429 0 1.000000 1.000000 1.000000 -0.120724 0.856388 -0.502022
1909 1 -2.087347 14.446395 -9.388266 0 1.000000 1.000000 1.000000 -0.120728 0.832664 -0.540459
1910 1 -2.754010 14.152614 -9.660909 0 1.000000 1.000000 1.000000 -0.157684 0.815562 -0.556772
1911 1 -2.722821 13.711979 -10.286025 0 1.000000 1.000000 1.000000 -0.157690 0.790431 -0.591907
1912 1 -3.359370 13.394769 -10.514344 0 1.000000 1.000000 1.000000 -0.192101 0.771853 -0.606085
1913 1 -3.313419 12.938611 -11.085700 0 1.000000 1.000000 1.000000 -0.192109 0.745958 -0.637684
1914 1 4.560217 16.744626 -0.356656 0 1.000000 1.000000 1.000000 0.260623 0.965220 -0.020651
1915 1 3.972271 16.881471 -0.719680 0 1.000000 1.000000 1.000000 0.230194 0.972232 -0.042143
1916 1 4.023240 16.821532 -1.452355 0 1.000000 1.000000 1.000000 0.230185 0.969525 -0.083879
1917 1 3.400066 16.920135 -1.839838 0 1.000000 1.000000 1.000000 0.196809 0.974644 -0.106467
1918 1 3.435339 16.812365 -2.600129 0 1.000000 1.000000 1.000000 0.196803 0.968889 -0.150075
1919 1 2.780173 16.865207 -3.005400 0 1.000000 1.000000 1.000000 0.160712 0.971644 -0.173436
1920 1 2.801175 16.703921 -3.783521 0 1.000000 1.000000 1.000000 0.160708 0.962563 -0.218276
1921 1 2.119228 16.704896 -4.197759 0 1.000000 1.000000 1.000000 0.122321 0.962537 -0.241992
1922 1 2.128633 16.486602 -4.981754 0 1.000000 1.000000 1.000000 0.122319 0.950006 -0.287273
1923 1 1.427006 16.431944 -5.394506 0 1.000000 1.000000 1.000000 0.082232 0.946892 -0.310859
1924 1 1.428613 16.156122 -6.171085 0 1.000000 1.000000 1.000000 0.082231 0.930980 -0.355689
1925 1 0.715918 16.045132 -6.571157 0 1.000000 1.000000 1.000000 0.041185 0.924631 -0.378631
1926 1 0.714302 15.714654 -7.326863 0 1.000000 1.000000 1.000000 0.041185 0.905612 -0.422103
1927 1 0.000000 15.550006 -7.703450 0 1.000000 1.000000 1.000000 -0.000000 0.896070 -0.443912
1928 1 0.000000 15.171034 -8.425955 0 1.000000 1.000000 1.000000 -0.000000 0.874409 -0.485189
1929 1 -0.706425 14.958547 -8.769760 0 1.000000 1.000000 1.000000 -0.040504 0.861906 -0.505448
1930 1 -0.700275 14.539905 -9.448987 0 1.000000 1.000000 1.000000 -0.040505 0.838207 -0.543846
1931 1 -1.390130 14.287818 -9.753091 0 1.000000 1.000000 1.000000 -0.079586 0.823132 -0.562246
1932 1 -1.374088 13.839975 -10.381946 0 1.000000 1.000000 1.000000 -0.079589 0.798070 -0.597286
1933 1 -2.040116 13.557917 -10.642237 0 1.000000 1.000000 1.000000 -0.116643 0.780920 -0.613643
1934 1 -2.011539 13.091834 -11.216833 0 1.000000 1.000000 1.000000 -0.116648 0.755171 -0.645067
1935 1 -2.648293 12.789738 -11.431977 0 1.000000 1.000000 1.000000 -0.151245 0.736490 -0.659324
1936 1 -2.605724 12.315831 -11.951393 0 1.000000 1.000000 1.000000 -0.151251 0.710667 -0.687077
1937 1 5.735779 16.380356 -0.348665 0 1.000000 1.000000 1.000000 0.327907 0.944481 -0.020798
1938 1 5.192114 16.548607 -0.705322 0 1.000000 1.000000 1.000000 0.300802 0.952816 -0.040739
1939 1 5.256078 16.481544 -1.422804 0 1.000000 1.000000 1.000000 0.300791 0.950096 -0.082716
1940 1 4.675150 16.617625 -1.806815 0 1.000000 1.000000 1.000000 0.270559 0.957062 -0.104065
1941 1 4.721902 16.505687 -2.552547 0 1.000000 1.000000 1.000000 0.270551 0.951293 -0.147798
1942 1 4.105265 16.601824 -2.958379 0 1.000000 1.000000 1.000000 0.237277 0.956396 -0.170313
1943 1 4.135304 16.439198 -3.723457 0 1.000000 1.000000 1.000000 0.237272 0.947308 -0.215197
1944 1 3.486379 16.488452 -4.143327 0 1.000000 1.000000 1.000000 0.201216 0.950060 -0.238532
1945 1 3.501451 16.271127 -4.916590 0 1.000000 1.000000 1.000000 0.201213 0.937530 -0.283815
1946 1 2.825652 16.268301 -5.340778 0 1.000000 1.000000 1.000000 0.162825 0.937504 -0.307529
1947 1 2.828772 15.994873 -6.109478 0 1.000000 1.000000 1.000000 0.162824 0.921595 -0.352352
1948 1 2.133360 15.937352 -6.527033 0 1.000000 1.000000 1.000000 0.122727 0.918480 -0.375942
1949 1 2.128610 15.609568 -7.277878 0 1.000000 1.000000 1.000000 0.122728 0.899461 -0.419414
1950 1 1.422248 15.497860 -7.677636 0 1.000000 1.000000 1.000000 0.081681 0.893112 -0.442356
1951 1 1.414370 15.120724 -8.398028 0 1.000000 1.000000 1.000000 0.081682 0.871446 -0.483642
1952 1 0.706425 14.958547 -8.769760 0 1.000000 1.000000 1.000000 0.040504 0.861906 -0.505448
1953 1 0.700275 14.539905 -9.448987 0 1.000000 1.000000 1.000000 0.040505 0.838207 -0.543846
1954 1 0.000000 14.333751 -9.784408 0 1.000000 1.000000 1.000000 0.000000 0.825702 -0.564107
1955 1 -0.000000 13.883440 -10.414519 0 1.000000 1.000000 1.000000 0.000000 0.800666 -0.599111
1956 1 -0.684234 13.641751 -10.707952 0 1.000000 1.000000 1.000000 -0.039118 0.785574 -0.617530
1957 1 -0.674533 13.170507 -11.284162 0 1.000000 1.000000 1.000000 -0.039119 0.759906 -0.648855
1958 1 -1.335810 12.902647 -11.532752 0 1.000000 1.000000 1.000000 -0.076278 0.742705 -0.665260
1959 1 -1.313966 12.421034 -12.053358 0 1.000000 1.000000 1.000000 -0.076281 0.717052 -0.692833
1960 1 -1.947127 12.136314 -12.256856 0 1.000000 1.000000 1.000000 -0.111077 0.698261 -0.707173
1961 1 -1.911843 11.653866 -12.722777 0 1.000000 1.000000 1.000000 -0.111082 0.673171 -0.731096
1962 1 6.829344 15.956706 -0.339393 0 1.000000 1.000000 1.000000 0.390558 0.920341 -0.020919
1963 1 6.333351 16.148144 -0.688059 0 1.000000 1.000000 1.000000 0.366801 0.929478 -0.039094
1964 1 6.407569 16.073187 -1.387329 0 1.000000 1.000000 1.000000 0.366789 0.926747 -0.081277
1965 1 5.873961 16.238337 -1.765418 0 1.000000 1.000000 1.000000 0.339850 0.935031 -0.101092
1966 1 5.930006 16.121649 -2.492977 0 1.000000 1.000000 1.000000 0.339841 0.929252 -0.144910
1967 1 5.358876 16.252919 -2.896095 0 1.000000 1.000000 1.000000 0.309677 0.936203 -0.166206
1968 1 5.396435 16.088803 -3.643964 0 1.000000 1.000000 1.000000 0.309671 0.927116 -0.211094
1969 1 4.789499 16.178944 -4.065493 0 1.000000 1.000000 1.000000 0.276395 0.932220 -0.233607
1970 1 4.809427 15.963131 -4.823451 0 1.000000 1.000000 1.000000 0.276391 0.919701 -0.278852
1971 1 4.170303 16.006060 -5.254677 0 1.000000 1.000000 1.000000 0.240298 0.922457 -0.302209
1972 1 4.174759 15.736487 -6.010763 0 1.000000 1.000000 1.000000 0.240297 0.906562 -0.346992
1973 1 3.509026 15.728125 -6.441376 0 1.000000 1.000000 1.000000 0.201868 0.906537 -0.370729
1974 1 3.501417 15.405541 -7.182772 0 1.000000 1.000000 1.000000 0.201870 0.887524 -0.414186
1975 1 2.816413 15.344505 -7.601718 0 1.000000 1.000000 1.000000 0.161755 0.884409 -0.437785
1976 1 2.801119 14.972733 -8.315878 0 1.000000 1.000000 1.000000 0.161758 0.862734 -0.479087
1977 1 2.105438 14.860660 -8.712429 0 1.000000 1.000000 1.000000 0.120724 0.856388 -0.502022
1978 1 2.087347 14.446395 -9.388266 0 1.000000 1.000000 1.000000 0.120728 0.832664 -0.540459
1979 1 1.390130 14.287818 -9.753091 0 1.000000 1.000000 1.000000 0.079586 0.823132 -0.562246
1980 1 1.374088 13.839975 -10.381946 0 1.000000 1.000000 1.000000 0.079589 0.798070 -0.597286
1981 1 0.684234 13.641751 -10.707952 0 1.000000 1.000000 1.000000 0.039118 0.785574 -0.617530
1982 1 0.674533 13.170507 -11.284162 0 1.000000 1.000000 1.000000 0.039119 0.759906 -0.648855
1983 1 0.000000 12.940952 -11.566938 0 1.000000 1.000000 1.000000 0.000000 0.744811 -0.667275
1984 1 0.000000 12.456704 -12.087929 0 1.000000 1.000000 1.000000 0.000000 0.719219 -0.694783
1985 1 -0.652688 12.204646 -12.325758 0 1.000000 1.000000 1.000000 -0.037230 0.701982 -0.711221
1986 1 -0.640731 11.717098 -12.791718 0 1.000000 1.000000 1.000000 -0.037232 0.677048 -0.734996
1987 1 -1.266724 11.451039 -12.985239 0 1.000000 1.000000 1.000000 -0.072196 0.658163 -0.749406
1988 1 -1.241646 10.968560 -13.398531 0 1.000000 1.000000 1.000000 -0.072199 0.634342 -0.769674
1989 1 7.834877 15.489163 -0.329186 0 1.000000 1.000000 1.000000 0.448226 0.893674 -0.020992
1990 1 7.387530 15.695933 -0.668580 0 1.000000 1.000000 1.000000 0.427704 0.903149 -0.037296
1991 1 7.469232 15.612923 -1.347367 0 1.000000 1.000000 1.000000 0.427692 0.900413 -0.079599
1992 1 6.985265 15.798739 -1.717450 0 1.000000 1.000000 1.000000 0.404031 0.909513 -0.097698
1993 1 7.048300 15.677193 -2.424053 0 1.000000 1.000000 1.000000 0.404021 0.903736 -0.141519
1994 1 6.526649 15.834953 -2.821490 0 1.000000 1.000000 1.000000 0.377080 0.912021 -0.161332
1995 1 6.570043 15.669469 -3.548845 0 1.000000 1.000000 1.000000 0.377073 0.902952 -0.206142
1996 1 6.010960 15.792049 -3.968200 0 1.000000 1.000000 1.000000 0.346838 0.909920 -0.227486
1997 1 6.034779 15.578333 -4.707094 0 1.000000 1.000000 1.000000 0.346833 0.897433 -0.272619
1998 1 5.440182 15.659273 -5.140815 0 1.000000 1.000000 1.000000 0.313452 0.902555 -0.295200
1999 1 5.445745 15.394839 -5.880241 0 1.000000 1.000000 1.000000 0.313451 0.886696 -0.339880
2000 1 4.819446 15.429124 -6.318963 0 1.000000 1.000000 1.000000 0.277257 0.889462 -0.363298
2001 1 4.809389 15.113909 -7.046829 0 1.000000 1.000000 1.000000 0.277259 0.870474 -0.406696
2002 1 4.157093 15.098688 -7.480024 0 1.000000 1.000000 1.000000 0.238770 0.870452 -0.430469
2003 1 4.135232 14.735413 -8.184141 0 1.000000 1.000000 1.000000 0.238774 0.848774 -0.471773
2004 1 3.464262 14.670495 -8.601048 0 1.000000 1.000000 1.000000 0.198657 0.845661 -0.495372
2005 1 3.435244 14.264641 -9.270242 0 1.000000 1.000000 1.000000 0.198662 0.821899 -0.533869
2006 1 2.754010 14.152614 -9.660909 0 1.000000 1.000000 1.000000 0.157684 0.815562 -0.556772
2007 1 2.722821 13.711979 -10.286025 0 1.000000 1.000000 1.000000 0.157690 0.790431 -0.591907
2008 1 2.040116 13.557917 -10.642237 0 1.000000 1.000000 1.000000 0.116643 0.780920 -0.613643
2009 1 2.011539 13.091834 -11.216833 0 1.000000 1.000000 1.000000 0.116648 0.755171 -0.645067
2010 1 1.335810 12.902647 -11.532752 0 1.000000 1.000000 1.000000 0.076278 0.742705 -0.665260
2011 1 1.313966 12.421034 -12.053358 0 1.000000 1.000000 1.000000 0.076281 0.717052 -0.692833
2012 1 0.652688 12.204646 -12.325758 0 1.000000 1.000000 1.000000 0.037230 0.701982 -0.711221
2013 1 0.640731 11.717098 -12.791718 0 1.000000 1.000000 1.000000 0.037232 0.677048 -0.734996
2014 1 -0.000000 11.481608 -13.019847 0 1.000000 1.000000 1.000000 0.000000 0.659808 -0.751434
2015 1 -0.000000 10.996684 -13.432838 0 1.000000 1.000000 1.000000 0.000000 0.636085 -0.771619
2016 1 -0.615653 10.749694 -13.618001 0 1.000000 1.000000 1.000000 -0.035063 0.617143 -0.786069
2017 1 -0.602658 10.274479 -13.981406 0 1.000000 1.000000 1.000000 -0.035064 0.594984 -0.802973
2018 1 8.750622 14.992302 -0.318368 0 1.000000 1.000000 1.000000 0.500804 0.865306 -0.021003
2019 1 8.350933 15.207413 -0.647554 0 1.000000 1.000000 1.000000 0.483304 0.874736 -0.035421
2020 1 8.437536 15.116699 -1.304308 0 1.000000 1.000000 1.000000 0.483290 0.872003 -0.077727
2021 1 8.003182 15.315439 -1.664727 0 1.000000 1.000000 1.000000 0.462767 0.881479 -0.094029
2022 1 8.070991 15.189327 -2.348419 0 1.000000 1.000000 1.000000 0.462756 0.875720 -0.137738
2023 1 7.600075 15.365265 -2.737661 0 1.000000 1.000000 1.000000 0.438997 0.884858 -0.155910
2024 1 7.647622 15.198772 -3.442092 0 1.000000 1.000000 1.000000 0.438989 0.875829 -0.200532
2025 1 7.139241 15.345216 -3.855839 0 1.000000 1.000000 1.000000 0.411879 0.884167 -0.220466
2026 1 7.165942 15.134200 -4.572807 0 1.000000 1.000000 1.000000 0.411874 0.871741 -0.265380
2027 1 6.620564 15.244736 -5.004708 0 1.000000 1.000000 1.000000 0.381439 0.878757 -0.286863
2028 1 6.626979 14.986504 -5.724248 0 1.000000 1.000000 1.000000 0.381437 0.862970 -0.331343
2029 1 6.046757 15.055666 -6.166061 0 1.000000 1.000000 1.000000 0.347868 0.868123 -0.354049
2030 1 6.034741 14.749554 -6.876987 0 1.000000 1.000000 1.000000 0.347871 0.849194 -0.397310
2031 1 5.423672 14.773512 -7.319033 0 1.000000 1.000000 1.000000 0.311543 0.851972 -0.420814
2032 1 5.396359 14.421288 -8.009765 0 1.000000 1.000000 1.000000 0.311548 0.830318 -0.462071
2033 1 4.760214 14.398410 -8.441677 0 1.000000 1.000000 1.000000 0.273008 0.830297 -0.485874
2034 1 4.721792 14.004383 -9.101236 0 1.000000 1.000000 1.000000 0.273015 0.806503 -0.524419
2035 1 4.067792 13.935532 -9.512893 0 1.000000 1.000000 1.000000 0.232943 0.803395 -0.547991
2036 1 4.023107 13.506295 -10.131879 0 1.000000 1.000000 1.000000 0.232950 0.778170 -0.583255
2037 1 3.359370 13.394769 -10.514344 0 1.000000 1.000000 1.000000 0.192101 0.771853 -0.606085
2038 1 3.313419 12.938611 -11.085700 0 1.000000 1.000000 1.000000 0.192109 0.745958 -0.637684
2039 1 2.648293 12.789738 -11.431977 0 1.000000 1.000000 1.000000 0.151245 0.736490 -0.659324
2040 1 2.605724 12.315831 -11.951393 0 1.000000 1.000000 1.000000 0.151251 0.710667 -0.687077
2041 1 1.947127 12.136314 -12.256856 0 1.000000 1.000000 1.000000 0.111077 0.698261 -0.707173
2042 1 1.911843 11.653866 -12.722777 0 1.000000 1.000000 1.000000 0.111082 0.673171 -0.731096
2043 1 1.266724 11.451039 -12.985239 0 1.000000 1.000000 1.000000 0.072196 0.658163 -0.749406
2044 1 1.241646 10.968560 -13.398531 0 1.000000 1.000000 1.000000 0.072199 0.634342 -0.769674
2045 1 0.615653 10.749694 -13.618001 0 1.000000 1.000000 1.000000 0.035063 0.617143 -0.786069
2046 1 0.602658 10.274479 -13.981406 0 1.000000 1.000000 1.000000 0.035064 0.594984 -0.802973
2047 1 -0.000000 10.046253 -14.159648 0 1.000000 1.000000 1.000000 0.000000 0.576038 -0.817423
2048 1 0.000000 9.584120 -14.477172 0 1.000000 1.000000 1.000000 0.000000 0.555791 -0.831322
2049 1 9.584120 14.477172 0.000000 0 1.000000 1.000000 1.000000 0.555791 0.831322 0.000000
2050 1 10.274479 13.981406 0.602658 0 1.000000 1.000000 1.000000 0.594984 0.802973 0.035064
2051 1 10.046253 14.159648 0.000000 0 1.000000 1.000000 1.000000 0.576038 0.817423 0.000000
2052 1 10.274479 13.981406 -0.602658 0 1.000000 1.000000 1.000000 0.594984 0.802973 -0.035064
2053 1 10.968560 13.398531 1.241646 0 1.000000 1.000000 1.000000 0.634342 0.769674 0.072199
2054 1 10.749694 13.618001 0.615653 0 1.000000 1.000000 1.000000 0.617143 0.786069 0.035063
2055 1 10.996684 13.432838 0.000000 0 1.000000 1.000000 1.000000 0.636085 0.771619 0.000000
2056 1 10.749694 13.618001 -0.615653 0 1.000000 1.000000 1.000000 0.617143 0.786069 -0.035063
2057 1 10.968560 13.398531 -1.241646 0 1.000000 1.000000 1.000000 0.634342 0.769674 -0.072199
2058 1 11.653866 12.722777 1.911843 0 1.000000 1.000000 1.000000 0.673171 0.731096 0.111082
2059 1 11.451039 12.985239 1.266724 0 1.000000 1.000000 1.000000 0.658163 0.749406 0.072196
2060 1 11.717098 12.791718 0.640731 0 1.000000 1.000000 1.000000 0.677048 0.734996 0.037232
2061 1 11.481608 13.019847 0.000000 0 1.000000 1.000000 1.000000 0.659808 0.751434 0.000000
2062 1 11.717098 12.791718 -0.640731 0 1.000000 1.000000 1.000000 0.677048 0.734996 -0.037232
2063 1 11.451039 12.985239 -1.266724 0 1.000000 1.000000 1.000000 0.658163 0.749406 -0.072196
2064 1 11.653866 12.722777 -1.911843 0 1.000000 1.000000 1.000000 0.673171 0.731096 -0.111082
2065 1 12.315831 11.951393 2.605724 0 1.000000 1.000000 1.000000 0.710667 0.687077 0.151251
2066 1 12.136314 12.256856 1.947127 0 1.000000 1.000000 1.000000 0.698261 0.707173 0.111077
2067 1 12.421034 12.053358 1.313966 0 1.000000 1.000000 1.000000 0.717052 0.692833 0.076281
2068 1 12.204646 12.325758 0.652688 0 1.000000 1.000000 1.000000 0.701982 0.711221 0.037230
2069 1 12.456704 12.087929 0.000000 0 1.000000 1.000000 1.000000 0.719219 0.694783 0.000000
2070 1 12.204646 12.325758 -0.652688 0 1.000000 1.000000 1.000000 0.701982 0.711221 -0.037230
2071 1 12.421034 12.053358 -1.313966 0 1.000000 1.000000 1.000000 0.717052 0.692833 -0.076281
2072 1 12.136314 12.256856 -1.947127 0 1.000000 1.000000 1.000000 0.698261 0.707173 -0.111077
2073 1 12.315831 11.951393 -2.605724 0 1.000000 1.000000 1.000000 0.710667 0.687077 -0.151251
2074 1 12.938611 11.085700 3.313419 0 1.000000 1.000000 1.000000 0.745958 0.637684 0.192109
2075 1 12.789738 11.431977 2.648293 0 1.000000 1.000000 1.000000 0.736490 0.659324 0.151245
2076 1 13.091834 11.216833 2.011539 0 1.000000 1.000000 1.000000 0.755171 0.645067 0.116648
2077 1 12.902647 11.532752 1.335810 0 1.000000 1.000000 1.000000 0.742705 0.665260 0.076278
2078 1 13.170507 11.284162 0.674533 0 1.000000 1.000000 1.000000 0.759906 0.648855 0.039119
2079 1 12.940952 11.566938 0.000000 0 1.000000 1.000000 1.000000 0.744811 0.667275 0.000000
2080 1 13.170507 11.284162 -0.674533 0 1.000000 1.000000 1.000000 0.759906 0.648855 -0.039119
2081 1 12.902647 11.532752 -1.335810 0 1.000000 1.000000 1.000000 0.742705 0.665260 -0.076278
2082 1 13.091834 11.216833 -2.011539 0 1.000000 1.000000 1.000000 0.755171 0.645067 -0.116648
2083 1 12.789738 11.431977 -2.648293 0 1.000000 1.000000 1.000000 0.736490 0.659324 -0.151245
2084 1 12.938611 11.085700 -3.313419 0 1.000000 1.000000 1.000000 0.745958 0.637684 -0.192109
2085 1 13.506295 10.131879 4.023107 0 1.000000 1.000000 1.000000 0.778170 0.583255 0.232950
2086 1 13.394769 10.514344 3.359370 0 1.000000 1.000000 1.000000 0.771853 0.606085 0.192101
2087 1 13.711979 10.286025 2.722821 0 1.000000 1.000000 1.000000 0.790431 0.591907 0.157690
2088 1 13.557917 10.642237 2.040116 0 1.000000 1.000000 1.000000 0.780920 0.613643 0.116643
2089 1 13.839975 10.381946 1.374088 0 1.000000 1.000000 1.000000 0.798070 0.597286 0.079589
2090 1 13.641751 10.707952 0.684234 0 1.000000 1.000000 1.000000 0.785574 0.617530 0.039118
2091 1 13.883440 10.414519 0.000000 0 1.000000 1.000000 1.000000 0.800666 0.599111 0.000000
2092 1 13.641751 10.707952 -0.684234 0 1.000000 1.000000 1.000000 0.785574 0.617530 -0.039118
2093 1 13.839975 10.381946 -1.374088 0 1.000000 1.000000 1.000000 0.798070 0.597286 -0.079589
2094 1 13.557917 10.642237 -2.040116 0 1.000000 1.000000 1.000000 0.780920 0.613643 -0.116643
2095 1 13.711979 10.286025 -2.722821 0 1.000000 1.000000 1.000000 0.790431 0.591907 -0.157690
2096 1 13.394769 10.514344 -3.359370 0 1.000000 1.000000 1.000000 0.771853 0.606085 -0.192101
2097 1 13.506295 10.131879 -4.023107 0 1.000000 1.000000 1.000000 0.778170 0.583255 -0.232950
2098 1 14.004383 9.101236 4.721792 0 1.000000 1.000000 1.000000 0.806503 0.524419 0.273015
2099 1 13.935532 9.512893 4.067792 0 1.000000 1.000000 1.000000 0.803395 0.547991 0.232943
2100 1 14.264641 9.270242 3.435244 0 1.000000 1.000000 1.000000 0.821899 0.533869 0.198662
2101 1 14.152614 9.660909 2.754010 0 1.000000 1.000000 1.000000 0.815562 0.556772 0.157684
2102 1 14.446395 9.388266 2.087347 0 1.000000 1.000000 1.000000 0.832664 0.540459 0.120728
2103 1 14.287818 9.753091 1.390130 0 1.000000 1.000000 1.000000 0.823132 0.562246 0.079586
2104 1 14.539905 9.448987 0.700275 0 1.000000 1.000000 1.000000 0.838207 0.543846 0.040505
2105 1 14.333751 9.784408 0.000000 0 1.000000 1.000000 1.000000 0.825702 0.564107 0.000000
2106 1 14.539905 9.448987 -0.700275 0 1.000000 1.000000 1.000000 0.838207 0.543846 -0.040505
2107 1 14.287818 9.753091 -1.390130 0 1.000000 1.000000 1.000000 0.823132 0.562246 -0.079586
2108 1 14.446395 9.388266 -2.087347 0 1.000000 1.000000 1.000000 0.832664 0.540459 -0.120728
2109 1 14.152614 9.660909 -2.754010 0 1.000000 1.000000 1.000000 0.815562 0.556772 -0.157684
2110 1 14.264641 9.270242 -3.435244 0 1.000000 1.000000 1.000000 0.821899 0.533869 -0.198662
2111 1 13.935532 9.512893 -4.067792 0 1.000000 1.000000 1.000000 0.803395 0.547991 -0.232943
2112 1 14.004383 9.101236 -4.721792 0 1.000000 1.000000 1.000000 0.806503 0.524419 -0.273015
2113 1 14.421288 8.009765 5.396359 0 1.000000 1.000000 1.000000 0.830318 0.462071 0.311548
2114 1 14.398410 8.441677 4.760214 0 1.000000 1.000000 1.000000 0.830297 0.485874 0.273008
2115 1 14.735413 8.184141 4.135232 0 1.000000 1.000000 1.000000 0.848774 0.471773 0.238774
2116 1 14.670495 8.601048 3.464262 0 1.000000 1.000000 1.000000 0.845661 0.495372 0.198657
2117 1 14.972733 8.315878 2.801119 0 1.000000 1.000000 1.000000 0.862734 0.479087 0.161758
2118 1 14.860660 8.712429 2.105438 0 1.000000 1.000000 1.000000 0.856388 0.502022 0.120724
2119 1 15.120724 8.398028 1.414370 0 1.000000 1.000000 1.000000 0.871446 0.483642 0.081682
2120 1 14.958547 8.769760 0.706425 0 1.000000 1.000000 1.000000 0.861906 0.505448 0.040504
2121 1 15.171034 8.425955 0.000000 0 1.000000 1.000000 1.000000 0.874409 0.485189 0.000000
2122 1 14.958547 8.769760 -0.706425 0 1.000000 1.000000 1.000000 0.861906 0.505448 -0.040504
2123 1 15.120724 8.398028 -1.414370 0 1.000000 1.000000 1.000000 0.871446 0.483642 -0.081682
2124 1 14.860660 8.712429 -2.105438 0 1.000000 1.000000 1.000000 0.856388 0.502022 -0.120724
2125 1 14.972733 8.315878 -2.801119 0 1.000000 1.000000 1.000000 0.862734 0.479087 -0.161758
2126 1 14.670495 8.601048 -3.464262 0 1.000000 1.000000 1.000000 0.845661 0.495372 -0.198657
2127 1 14.735413 8.184141 -4.135232 0 1.000000 1.000000 1.000000 0.848774 0.471773 -0.238774
2128 1 14.398410 8.441677 -4.760214 0 1.000000 1.000000 1.000000 0.830297 0.485874 -0.273008
2129 1 14.421288 8.009765 -5.396359 0 1.000000 1.000000 1.000000 0.830318 0.462071 -0.311548
2130 1 14.749554 6.876987 6.034741 0 1.000000 1.000000 1.000000 0.849194 0.397310 0.347871
2131 1 14.773512 7.319033 5.423672 0 1.000000 1.000000 1.000000 0.851972 0.420814 0.311543
2132 1 15.113909 7.046829 4.809389 0 1.000000 1.000000 1.000000 0.870474 0.406696 0.277259
2133 1 15.098688 7.480024 4.157093 0 1.000000 1.000000 1.000000 0.870452 0.430469 0.238770
2134 1 15.405541 7.182772 3.501417 0 1.000000 1.000000 1.000000 0.887524 0.414186 0.201870
2135 1 15.344505 7.601718 2.816413 0 1.000000 1.000000 1.000000 0.884409 0.437785 0.161755
2136 1 15.609568 7.277878 2.128610 0 1.000000 1.000000 1.000000 0.899461 0.419414 0.122728
2137 1 15.497860 7.677636 1.422248 0 1.000000 1.000000 1.000000 0.893112 0.442356 0.081681
2138 1 15.714654 7.326863 0.714302 0 1.000000 1.000000 1.000000 0.905612 0.422103 0.041185
2139 1 15.550006 7.703450 0.000000 0 1.000000 1.000000 1.000000 0.896070 0.443912 0.000000
2140 1 15.714654 7.326863 -0.714302 0 1.000000 1.000000 1.000000 0.905612 0.422103 -0.041185
2141 1 15.497860 7.677636 -1.422248 0 1.000000 1.000000 1.000000 0.893112 0.442356 -0.081681
2142 1 15.609568 7.277878 -2.128610 0 1.000000 1.000000 1.000000 0.899461 0.419414 -0.122728
2143 1 15.344505 7.601718 -2.816413 0 1.000000 1.000000 1.000000 0.884409 0.437785 -0.161755
2144 1 15.405541 7.182772 -3.501417 0 1.000000 1.000000 1.000000 0.887524 0.414186 -0.201870
2145 1 15.098688 7.480024 -4.157093 0 1.000000 1.000000 1.000000 0.870452 0.430469 -0.238770
2146 1 15.113909 7.046829 -4.809389 0 1.000000 1.000000 1.000000 0.870474 0.406696 -0.277259
2147 1 14.773512 7.319033 -5.423672 0 1.000000 1.000000 1.000000 0.851972 0.420814 -0.311543
2148 1 14.749554 6.876987 -6.034741 0 1.000000 1.000000 1.000000 0.849194 0.397310 -0.347871
2149 1 14.986504 5.724248 6.626979 0 1.000000 1.000000 1.000000 0.862970 0.331343 0.381437
2150 1 15.055666 6.166061 6.046757 0 1.000000 1.000000 1.000000 0.868123 0.354049 0.347868
2151 1 15.394839 5.880241 5.445745 0 1.000000 1.000000 1.000000 0.886696 0.339880 0.313451
2152 1 15.429124 6.318963 4.819446 0 1.000000 1.000000 1.000000 0.889462 0.363298 0.277257
2153 1 15.736487 6.010763 4.174759 0 1.000000 1.000000 1.000000 0.906562 0.346992 0.240297
2154 1 15.728125 6.441376 3.509026 0 1.000000 1.000000 1.000000 0.906537 0.370729 0.201868
2155 1 15.994873 6.109478 2.828772 0 1.000000 1.000000 1.000000 0.921595 0.352352 0.162824
2156 1 15.937352 6.527033 2.133360 0 1.000000 1.000000 1.000000 0.918480 0.375942 0.122727
2157 1 16.156122 6.171085 1.428613 0 1.000000 1.000000 1.000000 0.930980 0.355689 0.082231
2158 1 16.045132 6.571157 0.715918 0 1.000000 1.000000 1.000000 0.924631 0.378631 0.041185
2159 1 16.210961 6.192036 0.000000 0 1.000000 1.000000 1.000000 0.934172 0.356822 0.000000
2160 1 16.045132 6.571157 -0.715918 0 1.000000 1.000000 1.000000 0.924631 0.378631 -0.041185
2161 1 16.156122 6.171085 -1.428613 0 1.000000 1.000000 1.000000 0.930980 0.355689 -0.082231
2162 1 15.937352 6.527033 -2.133360 0 1.000000 1.000000 1.000000 0.918480 0.375942 -0.122727
2163 1 15.994873 6.109478 -2.828772 0 1.000000 1.000000 1.000000 0.921595 0.352352 -0.162824
2164 1 15.728125 6.441376 -3.509026 0 1.000000 1.000000 1.000000 0.906537 0.370729 -0.201868
2165 1 15.736487 6.010763 -4.174759 0 1.000000 1.000000 1.000000 0.906562 0.346992 -0.240297
2166 1 15.429124 6.318963 -4.819446 0 1.000000 1.000000 1.000000 0.889462 0.363298 -0.277257
2167 1 15.394839 5.880241 -5.445745 0 1.000000 1.000000 1.000000 0.886696 0.339880 -0.313451
2168 1 15.055666 6.166061 -6.046757 0 1.000000 1.000000 1.000000 0.868123 0.354049 -0.347868
2169 1 14.986504 5.724248 -6.626979 0 1.000000 1.000000 1.000000 0.862970 0.331343 -0.381437
2170 1 15.134200 4.572807 7.165942 0 1.000000 1.000000 1.000000 0.871741 0.265380 0.411874
2171 1 15.244736 5.004708 6.620564 0 1.000000 1.000000 1.000000 0.878757 0.286863 0.381439
2172 1 15.578333 4.707094 6.034779 0 1.000000 1.000000 1.000000 0.897433 0.272619 0.346833
2173 1 15.659273 5.140815 5.440182 0 1.000000 1.000000 1.000000 0.902555 0.295200 0.313452
2174 1 15.963131 4.823451 4.809427 0 1.000000 1.000000 1.000000 0.919701 0.278852 0.276391
2175 1 16.006060 5.254677 4.170303 0 1.000000 1.000000 1.000000 0.922457 0.302209 0.240298
2176 1 16.271127 4.916590 3.501451 0 1.000000 1.000000 1.000000 0.937530 0.283815 0.201213
2177 1 16.268301 5.340778 2.825652 0 1.000000 1.000000 1.000000 0.937504 0.307529 0.162825
2178 1 16.486602 4.981754 2.128633 0 1.000000 1.000000 1.000000 0.950006 0.287273 0.122319
2179 1 16.431944 5.394506 1.427006 0 1.000000 1.000000 1.000000 0.946892 0.310859 0.082232
2180 1 16.597585 5.015319 0.714311 0 1.000000 1.000000 1.000000 0.956434 0.289050 0.041046
2181 1 16.487593 5.412777 0.000000 0 1.000000 1.000000 1.000000 0.950085 0.311993 0.000000
2182 1 16.597585 5.015319 -0.714311 0 1.000000 1.000000 1.000000 0.956434 0.289050 -0.041046
2183 1 16.431944 5.394506 -1.427006 0 1.000000 1.000000 1.000000 0.946892 0.310859 -0.082232
2184 1 16.486602 4.981754 -2.128633 0 1.000000 1.000000 1.000000 0.950006 0.287273 -0.122319
2185 1 16.268301 5.340778 -2.825652 0 1.000000 1.000000 1.000000 0.937504 0.307529 -0.162825
2186 1 16.271127 4.916590 -3.501451 0 1.000000 1.000000 1.000000 0.937530 0.283815 -0.201213
2187 1 16.006060 5.254677 -4.170303 0 1.000000 1.000000 1.000000 0.922457 0.302209 -0.240298
2188 1 15.963131 4.823451 -4.809427 0 1.000000 1.000000 1.000000 0.919701 0.278852 -0.276391
2189 1 15.659273 5.140815 -5.440182 0 1.000000 1.000000 1.000000 0.902555 0.295200 -0.313452
2190 1 15.578333 4.707094 -6.034779 0 1.000000 1.000000 1.000000 0.897433 0.272619 -0.346833
2191 1 15.244736 5.004708 -6.620564 0 1.000000 1.000000 1.000000 0.878757 0.286863 -0.381439
2192 1 15.134200 4.572807 -7.165942 0 1.000000 1.000000 1.000000 0.871741 0.265380 -0.411874
2193 1 15.198772 3.442092 7.647622 0 1.000000 1.000000 1.000000 0.875829 0.200532 0.438989
2194 1 15.345216 3.855839 7.139241 0 1.000000 1.000000 1.000000 0.884167 0.220466 0.411879
2195 1 15.669469 3.548845 6.570043 0 1.000000 1.000000 1.000000 0.902952 0.206142 0.377073
2196 1 15.792049 3.968200 6.010960 0 1.000000 1.000000 1.000000 0.909920 0.227486 0.346838
2197 1 16.088803 3.643964 5.396435 0 1.000000 1.000000 1.000000 0.927116 0.211094 0.309671
2198 1 16.178944 4.065493 4.789499 0 1.000000 1.000000 1.000000 0.932220 0.233607 0.276395
2199 1 16.439198 3.723457 4.135304 0 1.000000 1.000000 1.000000 0.947308 0.215197 0.237272
2200 1 16.488452 4.143327 3.486379 0 1.000000 1.000000 1.000000 0.950060 0.238532 0.201216
2201 1 16.703921 3.783521 2.801175 0 1.000000 1.000000 1.000000 0.962563 0.218276 0.160708
2202 1 16.704896 4.197759 2.119228 0 1.000000 1.000000 1.000000 0.962537 0.241992 0.122321
2203 1 16.869001 3.820979 1.414401 0 1.000000 1.000000 1.000000 0.972077 0.220187 0.081142
2204 1 16.816349 4.225788 0.711112 0 1.000000 1.000000 1.000000 0.968962 0.243779 0.041047
2205 1 16.925121 3.833714 0.000000 0 1.000000 1.000000 1.000000 0.975311 0.220835 0.000000
2206 1 16.816349 4.225788 -0.711112 0 1.000000 1.000000 1.000000 0.968962 0.243779 -0.041047
2207 1 16.869001 3.820979 -1.414401 0 1.000000 1.000000 1.000000 0.972077 0.220187 -0.081142
2208 1 16.704896 4.197759 -2.119228 0 1.000000 1.000000 1.000000 0.962537 0.241992 -0.122321
2209 1 16.703921 3.783521 -2.801175 0 1.000000 1.000000 1.000000 0.962563 0.218276 -0.160708
2210 1 16.488452 4.143327 -3.486379 0 1.000000 1.000000 1.000000 0.950060 0.238532 -0.201216
2211 1 16.439198 3.723457 -4.135304 0 1.000000 1.000000 1.000000 0.947308 0.215197 -0.237272
2212 1 16.178944 4.065493 -4.789499 0 1.000000 1.000000 1.000000 0.932220 0.233607 -0.276395
2213 1 16.088803 3.643964 -5.396435 0 1.000000 1.000000 1.000000 0.927116 0.211094 -0.309671
2214 1 15.792049 3.968200 -6.010960 0 1.000000 1.000000 1.000000 0.909920 0.227486 -0.346838
2215 1 15.669469 3.548845 -6.570043 0 1.000000 1.000000 1.000000 0.902952 0.206142 -0.377073
2216 1 15.345216 3.855839 -7.139241 0 1.000000 1.000000 1.000000 0.884167 0.220466 -0.411879
2217 1 15.198772 3.442092 -7.647622 0 1.000000 1.000000 1.000000 0.875829 0.200532 -0.438989
2218 1 15.189327 2.348419 8.070991 0 1.000000 1.000000 1.000000 0.875720 0.137738 0.462756
2219 1 15.365265 2.737661 7.600075 0 1.000000 1.000000 1.000000 0.884858 0.155910 0.438997
2220 1 15.677193 2.424053 7.048300 0 1.000000 1.000000 1.000000 0.903736 0.141519 0.404021
2221 1 15.834953 2.821490 6.526649 0 1.000000 1.000000 1.000000 0.912021 0.161332 0.377080
2222 1 16.121649 2.492977 5.930006 0 1.000000 1.000000 1.000000 0.929252 0.144910 0.339841
2223 1 16.252919 2.896095 5.358876 0 1.000000 1.000000 1.000000 0.936203 0.166206 0.309677
2224 1 16.505687 2.552547 4.721902 0 1.000000 1.000000 1.000000 0.951293 0.147798 0.270551
2225 1 16.601824 2.958379 4.105265 0 1.000000 1.000000 1.000000 0.956396 0.170313 0.237277
2226 1 16.812365 2.600129 3.435339 0 1.000000 1.000000 1.000000 0.968889 0.150075 0.196803
2227 1 16.865207 3.005400 2.780173 0 1.000000 1.000000 1.000000 0.971644 0.173436 0.160712
2228 1 17.026538 2.633365 2.087412 0 1.000000 1.000000 1.000000 0.981176 0.151650 0.119569
2229 1 17.029357 3.034706 1.403588 0 1.000000 1.000000 1.000000 0.981149 0.175392 0.081144
2230 1 17.136728 2.650466 0.700298 0 1.000000 1.000000 1.000000 0.987496 0.152456 0.040111
2231 1 17.085144 3.044666 0.000000 0 1.000000 1.000000 1.000000 0.984380 0.176059 0.000000
2232 1 17.136728 2.650466 -0.700298 0 1.000000 1.000000 1.000000 0.987496 0.152456 -0.040111
2233 1 17.029357 3.034706 -1.403588 0 1.000000 1.000000 1.000000 0.981149 0.175392 -0.081144
2234 1 17.026538 2.633365 -2.087412 0 1.000000 1.000000 1.000000 0.981176 0.151650 -0.119569
2235 1 16.865207 3.005400 -2.780173 0 1.000000 1.000000 1.000000 0.971644 0.173436 -0.160712
2236 1 16.812365 2.600129 -3.435339 0 1.000000 1.000000 1.000000 0.968889 0.150075 -0.196803
2237 1 16.601824 2.958379 -4.105265 0 1.000000 1.000000 1.000000 0.956396 0.170313 -0.237277
2238 1 16.505687 2.552547 -4.721902 0 1.000000 1.000000 1.000000 0.951293 0.147798 -0.270551
2239 1 16.252919 2.896095 -5.358876 0 1.000000 1.000000 1.000000 0.936203 0.166206 -0.309677
2240 1 16.121649 2.492977 -5.930006 0 1.000000 1.000000 1.000000 0.929252 0.144910 -0.339841
2241 1 15.834953 2.821490 -6.526649 0 1.000000 1.000000 1.000000 0.912021 0.161332 -0.377080
2242 1 15.677193 2.424053 -7.048300 0 1.000000 1.000000 1.000000 0.903736 0.141519 -0.404021
2243 1 15.365265 2.737661 -7.600075 0 1.000000 1.000000 1.000000 0.884858 0.155910 -0.438997
2244 1 15.189327 2.348419 -8.070991 0 1.000000 1.000000 1.000000 0.875720 0.137738 -0.462756
2245 1 15.116699 1.304308 8.437536 0 1.000000 1.000000 1.000000 0.872003 0.077727 0.483290
2246 1 15.315439 1.664727 8.003182 0 1.000000 1.000000 1.000000 0.881479 0.094029 0.462767
2247 1 15.612923 1.347367 7.469232 0 1.000000 1.000000 1.000000 0.900413 0.079599 0.427692
2248 1 15.798739 1.717450 6.985265 0 1.000000 1.000000 1.000000 0.909513 0.097698 0.404031
2249 1 16.073187 1.387329 6.407569 0 1.000000 1.000000 1.000000 0.926747 0.081277 0.366789
2250 1 16.238337 1.765418 5.873961 0 1.000000 1.000000 1.000000 0.935031 0.101092 0.339850
2251 1 16.481544 1.422804 5.256078 0 1.000000 1.000000 1.000000 0.950096 0.082716 0.300791
2252 1 16.617625 1.806815 4.675150 0 1.000000 1.000000 1.000000 0.957062 0.104065 0.270559
2253 1 16.821532 1.452355 4.023240 0 1.000000 1.000000 1.000000 0.969525 0.083879 0.230185
2254 1 16.920135 1.839838 3.400066 0 1.000000 1.000000 1.000000 0.974644 0.106467 0.196809
2255 1 17.077635 1.474625 2.722924 0 1.000000 1.000000 1.000000 0.984154 0.084732 0.155761
2256 1 17.131196 1.862881 2.065436 0 1.000000 1.000000 1.000000 0.986916 0.108160 0.119573
2257 1 17.237007 1.488487 1.374145 0 1.000000 1.000000 1.000000 0.993254 0.085254 0.078597
2258 1 17.239720 1.874731 0.692831 0 1.000000 1.000000 1.000000 0.993228 0.109035 0.040113
2259 1 17.291127 1.493196 0.000000 0 1.000000 1.000000 1.000000 0.996344 0.085429 0.000000
2260 1 17.239720 1.874731 -0.692831 0 1.000000 1.000000 1.000000 0.993228 0.109035 -0.040113
2261 1 17.237007 1.488487 -1.374145 0 1.000000 1.000000 1.000000 0.993254 0.085254 -0.078597
2262 1 17.131196 1.862881 -2.065436 0 1.000000 1.000000 1.000000 0.986916 0.108160 -0.119573
2263 1 17.077635 1.474625 -2.722924 0 1.000000 1.000000 1.000000 0.984154 0.084732 -0.155761
2264 1 16.920135 1.839838 -3.400066 0 1.000000 1.000000 1.000000 0.974644 0.106467 -0.196809
2265 1 16.821532 1.452355 -4.023240 0 1.000000 1.000000 1.000000 0.969525 0.083879 -0.230185
2266 1 16.617625 1.806815 -4.675150 0 1.000000 1.000000 1.000000 0.957062 0.104065 -0.270559
2267 1 16.481544 1.422804 -5.256078 0 1.000000 1.000000 1.000000 0.950096 0.082716 -0.300791
2268 1 16.238337 1.765418 -5.873961 0 1.000000 1.000000 1.000000 0.935031 0.101092 -0.339850
2269 1 16.073187 1.387329 -6.407569 0 1.000000 1.000000 1.000000 0.926747 0.081277 -0.366789
2270 1 15.798739 1.717450 -6.985265 0 1.000000 1.000000 1.000000 0.909513 0.097698 -0.404031
2271 1 15.612923 1.347367 -7.469232 0 1.000000 1.000000 1.000000 0.900413 0.079599 -0.427692
2272 1 15.315439 1.664727 -8.003182 0 1.000000 1.000000 1.000000 0.881479 0.094029 -0.462767
2273 1 15.116699 1.304308 -8.437536 0 1.000000 1.000000 1.000000 0.872003 0.077727 -0.483290
2274 1 14.992302 0.318368 8.750622 0 1.000000 1.000000 1.000000 0.865306 0.021003 0.500804
2275 1 15.207413 0.647554 8.350933 0 1.000000 1.000000 1.000000 0.874736 0.035421 0.483304
2276 1 15.489163 0.329186 7.834877 0 1.000000 1.000000 1.000000 0.893674 0.020992 0.448226
2277 1 15.695933 0.668580 7.387530 0 1.000000 1.000000 1.000000 0.903149 0.037296 0.427704
2278 1 15.956706 0.339393 6.829344 0 1.000000 1.000000 1.000000 0.920341 0.020919 0.390558
2279 1 16.148144 0.688059 6.333351 0 1.000000 1.000000 1.000000 0.929478 0.039094 0.366801
2280 1 16.380356 0.348665 5.735779 0 1.000000 1.000000 1.000000 0.944481 0.020798 0.327907
2281 1 16.548607 0.705322 5.192114 0 1.000000 1.000000 1.000000 0.952816 0.040739 0.300802
2282 1 16.744626 0.356656 4.560217 0 1.000000 1.000000 1.000000 0.965220 0.020651 0.260623
2283 1 16.881471 0.719680 3.972271 0 1.000000 1.000000 1.000000 0.972232 0.042143 0.230194
2284 1 17.034309 0.363024 3.313560 0 1.000000 1.000000 1.000000 0.981700 0.020505 0.189329
2285 1 17.131871 0.730486 2.687387 0 1.000000 1.000000 1.000000 0.986848 0.043223 0.155767
2286 1 17.235970 0.367463 2.011634 0 1.000000 1.000000 1.000000 0.993165 0.020388 0.114920
2287 1 17.287546 0.737207 1.355880 0 1.000000 1.000000 1.000000 0.995939 0.043904 0.078600
2288 1 17.339516 0.369745 0.674566 0 1.000000 1.000000 1.000000 0.999051 0.020323 0.038533
2289 1 17.340384 0.739489 0.000000 0 1.000000 1.000000 1.000000 0.999025 0.044137 0.000000
2290 1 17.339516 0.369745 -0.674566 0 1.000000 1.000000 1.000000 0.999051 0.020323 -0.038533
2291 1 17.287546 0.737207 -1.355880 0 1.000000 1.000000 1.000000 0.995939 0.043904 -0.078600
2292 1 17.235970 0.367463 -2.011634 0 1.000000 1.000000 1.000000 0.993165 0.020388 -0.114920
2293 1 17.131871 0.730486 -2.687387 0 1.000000 1.000000 1.000000 0.986848 0.043223 -0.155767
2294 1 17.034309 0.363024 -3.313560 0 1.000000 1.000000 1.000000 0.981700 0.020505 -0.189329
2295 1 16.881471 0.719680 -3.972271 0 1.000000 1.000000 1.000000 0.972232 0.042143 -0.230194
2296 1 16.744626 0.356656 -4.560217 0 1.000000 1.000000 1.000000 0.965220 0.020651 -0.260623
2297 1 16.548607 0.705322 -5.192114 0 1.000000 1.000000 1.000000 0.952816 0.040739 -0.300802
2298 1 16.380356 0.348665 -5.735779 0 1.000000 1.000000 1.000000 0.944481 0.020798 -0.327907
2299 1 16.148144 0.688059 -6.333351 0 1.000000 1.000000 1.000000 0.929478 0.039094 -0.366801
2300 1 15.956706 0.339393 -6.829344 0 1.000000 1.000000 1.000000 0.920341 0.020919 -0.390558
2301 1 15.695933 0.668580 -7.387530 0 1.000000 1.000000 1.000000 0.903149 0.037296 -0.427704
2302 1 15.489163 0.329186 -7.834877 0 1.000000 1.000000 1.000000 0.893674 0.020992 -0.448226
2303 1 15.207413 0.647554 -8.350933 0 1.000000 1.000000 1.000000 0.874736 0.035421 -0.483304
2304 1 14.992302 0.318368 -8.750622 0 1.000000 1.000000 1.000000 0.865306 0.021003 -0.500804
2305 1 14.673934 -0.515130 9.265752 0 1.000000 1.000000 1.000000 0.844302 -0.033984 0.534788
2306 1 14.184854 -1.135293 9.945292 0 1.000000 1.000000 1.000000 0.815946 -0.069030 0.573991
2307 1 14.559859 -1.047765 9.398698 0 1.000000 1.000000 1.000000 0.839315 -0.057313 0.540617
2308 1 14.787513 -1.507757 8.970171 0 1.000000 1.000000 1.000000 0.851011 -0.090701 0.517257
2309 1 13.608287 -1.790796 10.629166 0 1.000000 1.000000 1.000000 0.782602 -0.106046 0.613423
2310 1 14.031206 -1.697438 10.081114 0 1.000000 1.000000 1.000000 0.809120 -0.095409 0.579847
2311 1 14.265557 -2.180085 9.649317 0 1.000000 1.000000 1.000000 0.820814 -0.128794 0.556486
2312 1 14.646859 -2.077932 9.084967 0 1.000000 1.000000 1.000000 0.844183 -0.117079 0.523114
2313 1 14.849933 -2.558176 8.620141 0 1.000000 1.000000 1.000000 0.854801 -0.150667 0.496603
2314 1 12.938264 -2.475995 11.305201 0 1.000000 1.000000 1.000000 0.743949 -0.144733 0.652374
2315 1 13.410482 -2.380027 10.762980 0 1.000000 1.000000 1.000000 0.773568 -0.135452 0.619068
2316 1 13.649134 -2.885476 10.329769 0 1.000000 1.000000 1.000000 0.785228 -0.168740 0.595771
2317 1 14.081289 -2.778892 9.764158 0 1.000000 1.000000 1.000000 0.811815 -0.158079 0.562110
2318 1 14.289865 -3.281469 9.293045 0 1.000000 1.000000 1.000000 0.822460 -0.191751 0.535529
2319 1 14.677206 -3.162905 8.713378 0 1.000000 1.000000 1.000000 0.845764 -0.180071 0.502253
2320 1 14.850107 -3.657579 8.211774 0 1.000000 1.000000 1.000000 0.855031 -0.213385 0.472640
2321 1 12.171819 -3.182806 11.959174 0 1.000000 1.000000 1.000000 0.699840 -0.184664 0.690017
2322 1 12.692768 -3.088361 11.430992 0 1.000000 1.000000 1.000000 0.732351 -0.176994 0.657522
2323 1 12.932699 -3.616111 10.998230 0 1.000000 1.000000 1.000000 0.743954 -0.210119 0.634336
2324 1 13.416847 -3.509195 10.439228 0 1.000000 1.000000 1.000000 0.773699 -0.200800 0.600890
2325 1 13.628673 -4.033721 9.963727 0 1.000000 1.000000 1.000000 0.784343 -0.234469 0.574309
2326 1 14.069535 -3.912578 9.383156 0 1.000000 1.000000 1.000000 0.810929 -0.223810 0.540651
2327 1 14.246665 -4.428187 8.872189 0 1.000000 1.000000 1.000000 0.820235 -0.257263 0.510910
2328 1 14.639895 -4.291751 8.280475 0 1.000000 1.000000 1.000000 0.843428 -0.245643 0.477795
2329 1 14.777543 -4.793233 7.743023 0 1.000000 1.000000 1.000000 0.851091 -0.278143 0.445288
2330 1 11.310061 -3.900803 12.575587 0 1.000000 1.000000 1.000000 0.650356 -0.225286 0.725453
2331 1 11.876763 -3.812759 12.070058 0 1.000000 1.000000 1.000000 0.685369 -0.219434 0.694347
2332 1 12.114438 -4.361500 11.639478 0 1.000000 1.000000 1.000000 0.696906 -0.252366 0.671292
2333 1 12.649425 -4.259297 11.095833 0 1.000000 1.000000 1.000000 0.729576 -0.244659 0.638639
2334 1 12.861723 -4.804641 10.617960 0 1.000000 1.000000 1.000000 0.740199 -0.278261 0.612108
2335 1 13.356824 -4.685981 10.044856 0 1.000000 1.000000 1.000000 0.769996 -0.268928 0.578605
2336 1 13.536256 -5.221525 9.526543 0 1.000000 1.000000 1.000000 0.779318 -0.302438 0.548812
2337 1 13.985234 -5.084873 8.934447 0 1.000000 1.000000 1.000000 0.805854 -0.291802 0.515219
2338 1 14.125977 -5.604699 8.384739 0 1.000000 1.000000 1.000000 0.813554 -0.324459 0.482552
2339 1 14.525056 -5.449494 7.785030 0 1.000000 1.000000 1.000000 0.836614 -0.312908 0.449627
2340 1 14.623480 -5.948609 7.214363 0 1.000000 1.000000 1.000000 0.842465 -0.344016 0.414615
2341 1 10.358984 -4.617674 13.138832 0 1.000000 1.000000 1.000000 0.595855 -0.265939 0.757781
2342 1 10.965810 -4.541322 12.664283 0 1.000000 1.000000 1.000000 0.632798 -0.262037 0.728631
2343 1 11.197393 -5.108814 12.237355 0 1.000000 1.000000 1.000000 0.644274 -0.294790 0.705698
2344 1 11.779319 -5.017036 11.718079 0 1.000000 1.000000 1.000000 0.679444 -0.288911 0.674453
2345 1 11.988914 -5.581185 11.239846 0 1.000000 1.000000 1.000000 0.690037 -0.322415 0.647995
2346 1 12.536331 -5.470992 10.683372 0 1.000000 1.000000 1.000000 0.722789 -0.314690 0.615261
2347 1 12.715741 -6.024680 10.159983 0 1.000000 1.000000 1.000000 0.732110 -0.348197 0.585468
2348 1 13.220565 -5.893872 9.576258 0 1.000000 1.000000 1.000000 0.761907 -0.338866 0.551967
2349 1 13.363002 -6.430419 9.016524 0 1.000000 1.000000 1.000000 0.769626 -0.371604 0.519218
2350 1 13.819436 -6.277898 8.417102 0 1.000000 1.000000 1.000000 0.796087 -0.361001 0.485720
2351 1 13.920214 -6.791610 7.831738 0 1.000000 1.000000 1.000000 0.801964 -0.392247 0.450551
2352 1 14.325179 -6.617526 7.228709 0 1.000000 1.000000 1.000000 0.824900 -0.380762 0.417804
2353 1 14.382091 -7.104091 6.629309 0 1.000000 1.000000 1.000000 0.828806 -0.409911 0.380860
2354 1 9.329751 -5.320051 13.634638 0 1.000000 1.000000 1.000000 0.536980 -0.305899 0.786180
2355 1 9.968513 -5.260619 13.198325 0 1.000000 1.000000 1.000000 0.575125 -0.303981 0.759491
2356 1 10.190178 -5.843667 12.776154 0 1.000000 1.000000 1.000000 0.586559 -0.336606 0.736645
2357 1 10.812233 -5.768215 12.289733 0 1.000000 1.000000 1.000000 0.623618 -0.332690 0.707402
2358 1 11.015775 -6.348220 11.813030 0 1.000000 1.000000 1.000000 0.634184 -0.366103 0.681014
2359 1 11.610530 -6.252968 11.282418 0 1.000000 1.000000 1.000000 0.669435 -0.360211 0.649696
2360 1 11.787331 -6.822140 10.756385 0 1.000000 1.000000 1.000000 0.678748 -0.393684 0.619930
2361 1 12.345125 -6.704044 10.190424 0 1.000000 1.000000 1.000000 0.711528 -0.385954 0.587170
2362 1 12.487606 -7.254934 9.623316 0 1.000000 1.000000 1.000000 0.719253 -0.418717 0.554392
2363 1 13.000660 -7.112116 9.033142 0 1.000000 1.000000 1.000000 0.749021 -0.409398 0.520923
2364 1 13.103122 -7.638272 8.435632 0 1.000000 1.000000 1.000000 0.754911 -0.440717 0.485672
2365 1 13.566243 -7.470287 7.833651 0 1.000000 1.000000 1.000000 0.781302 -0.430145 0.452263
2366 1 13.625422 -7.966765 7.217812 0 1.000000 1.000000 1.000000 0.785221 -0.459386 0.415203
2367 1 14.036305 -7.774652 6.616499 0 1.000000 1.000000 1.000000 0.808068 -0.447948 0.382581
2368 1 14.051543 -8.238280 5.994618 0 1.000000 1.000000 1.000000 0.809995 -0.474632 0.344432
2369 1 8.238280 -5.994618 14.051543 0 1.000000 1.000000 1.000000 0.474632 -0.344432 0.809995
2370 1 8.898707 -5.956733 13.658921 0 1.000000 1.000000 1.000000 0.513152 -0.344424 0.786160
2371 1 9.106986 -6.551273 13.242218 0 1.000000 1.000000 1.000000 0.524571 -0.377001 0.763345
2372 1 9.759696 -6.497640 12.795764 0 1.000000 1.000000 1.000000 0.562760 -0.375079 0.736625
2373 1 9.953956 -7.089663 12.322267 0 1.000000 1.000000 1.000000 0.573310 -0.408437 0.710278
2374 1 10.587981 -7.015696 11.825954 0 1.000000 1.000000 1.000000 0.610420 -0.404515 0.680995
2375 1 10.759523 -7.596845 11.299745 0 1.000000 1.000000 1.000000 0.619725 -0.437953 0.651259
2376 1 11.364118 -7.498541 10.760788 0 1.000000 1.000000 1.000000 0.655008 -0.432056 0.619913
2377 1 11.504848 -8.060647 10.189280 0 1.000000 1.000000 1.000000 0.662733 -0.464818 0.587136
2378 1 12.070543 -7.935136 9.617769 0 1.000000 1.000000 1.000000 0.695512 -0.457089 0.554377
2379 1 12.173893 -8.470973 9.011246 0 1.000000 1.000000 1.000000 0.701407 -0.488435 0.519094
2380 1 12.693419 -8.316928 8.419283 0 1.000000 1.000000 1.000000 0.731145 -0.479127 0.485659
2381 1 12.755075 -8.820850 7.789961 0 1.000000 1.000000 1.000000 0.735068 -0.508409 0.448548
2382 1 13.223957 -8.638671 7.190471 0 1.000000 1.000000 1.000000 0.761416 -0.497856 0.415192
2383 1 13.242218 -9.106986 6.551273 0 1.000000 1.000000 1.000000 0.763345 -0.524571 0.377001
2384 1 13.658921 -8.898707 5.956733 0 1.000000 1.000000 1.000000 0.786160 -0.513152 0.344424
2385 1 13.634638 -9.329751 5.320051 0 1.000000 1.000000 1.000000 0.786180 -0.536980 0.305899
2386 1 7.104091 -6.629309 14.382091 0 1.000000 1.000000 1.000000 0.409911 -0.380860 0.828806
2387 1 7.774652 -6.616499 14.036305 0 1.000000 1.000000 1.000000 0.447948 -0.382581 0.808068
2388 1 7.966765 -7.217812 13.625422 0 1.000000 1.000000 1.000000 0.459386 -0.415203 0.785221
2389 1 8.638671 -7.190471 13.223957 0 1.000000 1.000000 1.000000 0.497856 -0.415192 0.761416
2390 1 8.820850 -7.789961 12.755075 0 1.000000 1.000000 1.000000 0.508409 -0.448548 0.735068
2391 1 9.483425 -7.742786 12.299839 0 1.000000 1.000000 1.000000 0.546595 -0.446625 0.708350
2392 1 9.647243 -8.331690 11.775853 0 1.000000 1.000000 1.000000 0.555897 -0.480047 0.678626
2393 1 10.289316 -8.259716 11.272073 0 1.000000 1.000000 1.000000 0.593020 -0.476124 0.649333
2394 1 10.426501 -8.829259 10.699335 0 1.000000 1.000000 1.000000 0.600745 -0.508877 0.616563
2395 1 11.037438 -8.728494 10.155500 0 1.000000 1.000000 1.000000 0.636034 -0.502980 0.585212
2396 1 11.140803 -9.270722 9.543570 0 1.000000 1.000000 1.000000 0.641930 -0.534331 0.549923
2397 1 11.711564 -9.138713 8.970828 0 1.000000 1.000000 1.000000 0.674701 -0.526605 0.517170
2398 1 11.775853 -9.647243 8.331690 0 1.000000 1.000000 1.000000 0.678626 -0.555897 0.480047
2399 1 12.299839 -9.483425 7.742786 0 1.000000 1.000000 1.000000 0.708350 -0.546595 0.446625
2400 1 12.322267 -9.953956 7.089663 0 1.000000 1.000000 1.000000 0.710278 -0.573310 0.408437
2401 1 12.795764 -9.759696 6.497640 0 1.000000 1.000000 1.000000 0.736625 -0.562760 0.375079
2402 1 12.776154 -10.190178 5.843667 0 1.000000 1.000000 1.000000 0.736645 -0.586559 0.336606
2403 1 13.198325 -9.968513 5.260619 0 1.000000 1.000000 1.000000 0.759491 -0.575125 0.303981
2404 1 13.138832 -10.358984 4.617674 0 1.000000 1.000000 1.000000 0.757781 -0.595855 0.265939
2405 1 5.948609 -7.214363 14.623480 0 1.000000 1.000000 1.000000 0.344016 -0.414615 0.842465
2406 1 6.617526 -7.228709 14.325179 0 1.000000 1.000000 1.000000 0.380762 -0.417804 0.824900
2407 1 6.791610 -7.831738 13.920214 0 1.000000 1.000000 1.000000 0.392247 -0.450551 0.801964
2408 1 7.470287 -7.833651 13.566243 0 1.000000 1.000000 1.000000 0.430145 -0.452263 0.781302
2409 1 7.638272 -8.435632 13.103122 0 1.000000 1.000000 1.000000 0.440717 -0.485672 0.754911
2410 1 8.316928 -8.419283 12.693419 0 1.000000 1.000000 1.000000 0.479127 -0.485659 0.731145
2411 1 8.470973 -9.011246 12.173893 0 1.000000 1.000000 1.000000 0.488435 -0.519094 0.701407
2412 1 9.138713 -8.970828 11.711564 0 1.000000 1.000000 1.000000 0.526605 -0.517170 0.674701
2413 1 9.270722 -9.543570 11.140803 0 1.000000 1.000000 1.000000 0.534331 -0.549923 0.641930
2414 1 9.916437 -9.473975 10.632355 0 1.000000 1.000000 1.000000 0.571453 -0.546000 0.612638
2415 1 10.018925 -10.018925 10.018925 0 1.000000 1.000000 1.000000 0.577350 -0.577350 0.577350
2416 1 10.632355 -9.916437 9.473975 0 1.000000 1.000000 1.000000 0.612638 -0.571453 0.546000
2417 1 10.699335 -10.426501 8.829259 0 1.000000 1.000000 1.000000 0.616563 -0.600745 0.508877
2418 1 11.272073 -10.289316 8.259716 0 1.000000 1.000000 1.000000 0.649333 -0.593020 0.476124
2419 1 11.299745 -10.759523 7.596845 0 1.000000 1.000000 1.000000 0.651259 -0.619725 0.437953
2420 1 11.825954 -10.587981 7.015696 0 1.000000 1.000000 1.000000 0.680995 -0.610420 0.404515
2421 1 11.813030 -11.015775 6.348220 0 1.000000 1.000000 1.000000 0.681014 -0.634184 0.366103
2422 1 12.289733 -10.812233 5.768215 0 1.000000 1.000000 1.000000 0.707402 -0.623618 0.332690
2423 1 12.237355 -11.197393 5.108814 0 1.000000 1.000000 1.000000 0.705698 -0.644274 0.294790
2424 1 12.664283 -10.965810 4.541322 0 1.000000 1.000000 1.000000 0.728631 -0.632798 0.262037
2425 1 12.575587 -11.310061 3.900803 0 1.000000 1.000000 1.000000 0.725453 -0.650356 0.225286
2426 1 4.793233 -7.743023 14.777543 0 1.000000 1.000000 1.000000 0.278143 -0.445288 0.851091
2427 1 5.449494 -7.785030 14.525056 0 1.000000 1.000000 1.000000 0.312908 -0.449627 0.836614
2428 1 5.604699 -8.384739 14.125977 0 1.000000 1.000000 1.000000 0.324459 -0.482552 0.813554
2429 1 6.277898 -8.417102 13.819436 0 1.000000 1.000000 1.000000 0.361001 -0.485720 0.796087
2430 1 6.430419 -9.016524 13.363002 0 1.000000 1.000000 1.000000 0.371604 -0.519218 0.769626
2431 1 7.112116 -9.033142 13.000660 0 1.000000 1.000000 1.000000 0.409398 -0.520923 0.749021
2432 1 7.254934 -9.623316 12.487606 0 1.000000 1.000000 1.000000 0.418717 -0.554392 0.719253
2433 1 7.935136 -9.617769 12.070543 0 1.000000 1.000000 1.000000 0.457089 -0.554377 0.695512
2434 1 8.060647 -10.189280 11.504848 0 1.000000 1.000000 1.000000 0.464818 -0.587136 0.662733
2435 1 8.728494 -10.155500 11.037438 0 1.000000 1.000000 1.000000 0.502980 -0.585212 0.636034
2436 1 8.829259 -10.699335 10.426501 0 1.000000 1.000000 1.000000 0.508877 -0.616563 0.600745
2437 1 9.473975 -10.632355 9.916437 0 1.000000 1.000000 1.000000 0.546000 -0.612638 0.571453
2438 1 9.543570 -11.140803 9.270722 0 1.000000 1.000000 1.000000 0.549923 -0.641930 0.534331
2439 1 10.155500 -11.037438 8.728494 0 1.000000 1.000000 1.000000 0.585212 -0.636034 0.502980
2440 1 10.189280 -11.504848 8.060647 0 1.000000 1.000000 1.000000 0.587136 -0.662733 0.464818
2441 1 10.760788 -11.364118 7.498541 0 1.000000 1.000000 1.000000 0.619913 -0.655008 0.432056
2442 1 10.756385 -11.787331 6.822140 0 1.000000 1.000000 1.000000 0.619930 -0.678748 0.393684
2443 1 11.282418 -11.610530 6.252968 0 1.000000 1.000000 1.000000 0.649696 -0.669435 0.360211
2444 1 11.239846 -11.988914 5.581185 0 1.000000 1.000000 1.000000 0.647995 -0.690037 0.322415
2445 1 11.718079 -11.779319 5.017036 0 1.000000 1.000000 1.000000 0.674453 -0.679444 0.288911
2446 1 11.639478 -12.114438 4.361500 0 1.000000 1.000000 1.000000 0.671292 -0.696906 0.252366
2447 1 12.070058 -11.876763 3.812759 0 1.000000 1.000000 1.000000 0.694347 -0.685369 0.219434
2448 1 11.959174 -12.171819 3.182806 0 1.000000 1.000000 1.000000 0.690017 -0.699840 0.184664
2449 1 3.657579 -8.211774 14.850107 0 1.000000 1.000000 1.000000 0.213385 -0.472640 0.855031
2450 1 4.291751 -8.280475 14.639895 0 1.000000 1.000000 1.000000 0.245643 -0.477795 0.843428
2451 1 4.428187 -8.872189 14.246665 0 1.000000 1.000000 1.000000 0.257263 -0.510910 0.820235
2452 1 5.084873 -8.934447 13.985234 0 1.000000 1.000000 1.000000 0.291802 -0.515219 0.805854
2453 1 5.221525 -9.526543 13.536256 0 1.000000 1.000000 1.000000 0.302438 -0.548812 0.779318
2454 1 5.893872 -9.576258 13.220565 0 1.000000 1.000000 1.000000 0.338866 -0.551967 0.761907
2455 1 6.024680 -10.159983 12.715741 0 1.000000 1.000000 1.000000 0.348197 -0.585468 0.732110
2456 1 6.704044 -10.190424 12.345125 0 1.000000 1.000000 1.000000 0.385954 -0.587170 0.711528
2457 1 6.822140 -10.756385 11.787331 0 1.000000 1.000000 1.000000 0.393684 -0.619930 0.678748
2458 1 7.498541 -10.760788 11.364118 0 1.000000 1.000000 1.000000 0.432056 -0.619913 0.655008
2459 1 7.596845 -11.299745 10.759523 0 1.000000 1.000000 1.000000 0.437953 -0.651259 0.619725
2460 1 8.259716 -11.272073 10.289316 0 1.000000 1.000000 1.000000 0.476124 -0.649333 0.593020
2461 1 8.331690 -11.775853 9.647243 0 1.000000 1.000000 1.000000 0.480047 -0.678626 0.555897
2462 1 8.970828 -11.711564 9.138713 0 1.000000 1.000000 1.000000 0.517170 -0.674701 0.526605
2463 1 9.011246 -12.173893 8.470973 0 1.000000 1.000000 1.000000 0.519094 -0.701407 0.488435
2464 1 9.617769 -12.070543 7.935136 0 1.000000 1.000000 1.000000 0.554377 -0.695512 0.457089
2465 1 9.623316 -12.487606 7.254934 0 1.000000 1.000000 1.000000 0.554392 -0.719253 0.418717
2466 1 10.190424 -12.345125 6.704044 0 1.000000 1.000000 1.000000 0.587170 -0.711528 0.385954
2467 1 10.159983 -12.715741 6.024680 0 1.000000 1.000000 1.000000 0.585468 -0.732110 0.348197
2468 1 10.683372 -12.536331 5.470992 0 1.000000 1.000000 1.000000 0.615261 -0.722789 0.314690
2469 1 10.617960 -12.861723 4.804641 0 1.000000 1.000000 1.000000 0.612108 -0.740199 0.278261
2470 1 11.095833 -12.649425 4.259297 0 1.000000 1.000000 1.000000 0.638639 -0.729576 0.244659
2471 1 10.998230 -12.932699 3.616111 0 1.000000 1.000000 1.000000 0.634336 -0.743954 0.210119
2472 1 11.430992 -12.692768 3.088361 0 1.000000 1.000000 1.000000 0.657522 -0.732351 0.176994
2473 1 11.305201 -12.938264 2.475995 0 1.000000 1.000000 1.000000 0.652374 -0.743949 0.144733
2474 1 2.558176 -8.620141 14.849933 0 1.000000 1.000000 1.000000 0.150667 -0.496603 0.854801
2475 1 3.162905 -8.713378 14.677206 0 1.000000 1.000000 1.000000 0.180071 -0.502253 0.845764
2476 1 3.281469 -9.293045 14.289865 0 1.000000 1.000000 1.000000 0.191751 -0.535529 0.822460
2477 1 3.912578 -9.383156 14.069535 0 1.000000 1.000000 1.000000 0.223810 -0.540651 0.810929
2478 1 4.033721 -9.963727 13.628673 0 1.000000 1.000000 1.000000 0.234469 -0.574309 0.784343
2479 1 4.685981 -10.044856 13.356824 0 1.000000 1.000000 1.000000 0.268928 -0.578605 0.769996
2480 1 4.804641 -10.617960 12.861723 0 1.000000 1.000000 1.000000 0.278261 -0.612108 0.740199
2481 1 5.470992 -10.683372 12.536331 0 1.000000 1.000000 1.000000 0.314690 -0.615261 0.722789
2482 1 5.581185 -11.239846 11.988914 0 1.000000 1.000000 1.000000 0.322415 -0.647995 0.690037
2483 1 6.252968 -11.282418 11.610530 0 1.000000 1.000000 1.000000 0.360211 -0.649696 0.669435
2484 1 6.348220 -11.813030 11.015775 0 1.000000 1.000000 1.000000 0.366103 -0.681014 0.634184
2485 1 7.015696 -11.825954 10.587981 0 1.000000 1.000000 1.000000 0.404515 -0.680995 0.610420
2486 1 7.089663 -12.322267 9.953956 0 1.000000 1.000000 1.000000 0.408437 -0.710278 0.573310
2487 1 7.742786 -12.299839 9.483425 0 1.000000 1.000000 1.000000 0.446625 -0.708350 0.546595
2488 1 7.789961 -12.755075 8.820850 0 1.000000 1.000000 1.000000 0.448548 -0.735068 0.508409
2489 1 8.419283 -12.693419 8.316928 0 1.000000 1.000000 1.000000 0.485659 -0.731145 0.479127
2490 1 8.435632 -13.103122 7.638272 0 1.000000 1.000000 1.000000 0.485672 -0.754911 0.440717
2491 1 9.033142 -13.000660 7.112116 0 1.000000 1.000000 1.000000 0.520923 -0.749021 0.409398
2492 1 9.016524 -13.363002 6.430419 0 1.000000 1.000000 1.000000 0.519218 -0.769626 0.371604
2493 1 9.576258 -13.220565 5.893872 0 1.000000 1.000000 1.000000 0.551967 -0.761907 0.338866
2494 1 9.526543 -13.536256 5.221525 0 1.000000 1.000000 1.000000 0.548812 -0.779318 0.302438
2495 1 10.044856 -13.356824 4.685981 0 1.000000 1.000000 1.000000 0.578605 -0.769996 0.268928
2496 1 9.963727 -13.628673 4.033721 0 1.000000 1.000000 1.000000 0.574309 -0.784343 0.234469
2497 1 10.439228 -13.416847 3.509195 0 1.000000 1.000000 1.000000 0.600890 -0.773699 0.200800
2498 1 10.329769 -13.649134 2.885476 0 1.000000 1.000000 1.000000 0.595771 -0.785228 0.168740
2499 1 10.762980 -13.410482 2.380027 0 1.000000 1.000000 1.000000 0.619068 -0.773568 0.135452
2500 1 10.629166 -13.608287 1.790796 0 1.000000 1.000000 1.000000 0.613423 -0.782602 0.106046
2501 1 1.507757 -8.970171 14.787513 0 1.000000 1.000000 1.000000 0.090701 -0.517257 0.851011
2502 1 2.077932 -9.084967 14.646859 0 1.000000 1.000000 1.000000 0.117079 -0.523114 0.844183
2503 1 2.180085 -9.649317 14.265557 0 1.000000 1.000000 1.000000 0.128794 -0.556486 0.820814
2504 1 2.778892 -9.764158 14.081289 0 1.000000 1.000000 1.000000 0.158079 -0.562110 0.811815
2505 1 2.885476 -10.329769 13.649134 0 1.000000 1.000000 1.000000 0.168740 -0.595771 0.785228
2506 1 3.509195 -10.439228 13.416847 0 1.000000 1.000000 1.000000 0.200800 -0.600890 0.773699
2507 1 3.616111 -10.998230 12.932699 0 1.000000 1.000000 1.000000 0.210119 -0.634336 0.743954
2508 1 4.259297 -11.095833 12.649425 0 1.000000 1.000000 1.000000 0.244659 -0.638639 0.729576
2509 1 4.361500 -11.639478 12.114438 0 1.000000 1.000000 1.000000 0.252366 -0.671292 0.696906
2510 1 5.017036 -11.718079 11.779319 0 1.000000 1.000000 1.000000 0.288911 -0.674453 0.679444
2511 1 5.108814 -12.237355 11.197393 0 1.000000 1.000000 1.000000 0.294790 -0.705698 0.644274
2512 1 5.768215 -12.289733 10.812233 0 1.000000 1.000000 1.000000 0.332690 -0.707402 0.623618
2513 1 5.843667 -12.776154 10.190178 0 1.000000 1.000000 1.000000 0.336606 -0.736645 0.586559
2514 1 6.497640 -12.795764 9.759696 0 1.000000 1.000000 1.000000 0.375079 -0.736625 0.562760
2515 1 6.551273 -13.242218 9.106986 0 1.000000 1.000000 1.000000 0.377001 -0.763345 0.524571
2516 1 7.190471 -13.223957 8.638671 0 1.000000 1.000000 1.000000 0.415192 -0.761416 0.497856
2517 1 7.217812 -13.625422 7.966765 0 1.000000 1.000000 1.000000 0.415203 -0.785221 0.459386
2518 1 7.833651 -13.566243 7.470287 0 1.000000 1.000000 1.000000 0.452263 -0.781302 0.430145
2519 1 7.831738 -13.920214 6.791610 0 1.000000 1.000000 1.000000 0.450551 -0.801964 0.392247
2520 1 8.417102 -13.819436 6.277898 0 1.000000 1.000000 1.000000 0.485720 -0.796087 0.361001
2521 1 8.384739 -14.125977 5.604699 0 1.000000 1.000000 1.000000 0.482552 -0.813554 0.324459
2522 1 8.934447 -13.985234 5.084873 0 1.000000 1.000000 1.000000 0.515219 -0.805854 0.291802
2523 1 8.872189 -14.246665 4.428187 0 1.000000 1.000000 1.000000 0.510910 -0.820235 0.257263
2524 1 9.383156 -14.069535 3.912578 0 1.000000 1.000000 1.000000 0.540651 -0.810929 0.223810
2525 1 9.293045 -14.289865 3.281469 0 1.000000 1.000000 1.000000 0.535529 -0.822460 0.191751
2526 1 9.764158 -14.081289 2.778892 0 1.000000 1.000000 1.000000 0.562110 -0.811815 0.158079
2527 1 9.649317 -14.265557 2.180085 0 1.000000 1.000000 1.000000 0.556486 -0.820814 0.128794
2528 1 10.081114 -14.031206 1.697438 0 1.000000 1.000000 1.000000 0.579847 -0.809120 0.095409
2529 1 9.945292 -14.184854 1.135293 0 1.000000 1.000000 1.000000 0.573991 -0.815946 0.069030
2530 1 0.515130 -9.265752 14.673934 0 1.000000 1.000000 1.000000 0.033984 -0.534788 0.844302
2531 1 1.047765 -9.398698 14.559859 0 1.000000 1.000000 1.000000 0.057313 -0.540617 0.839315
2532 1 1.135293 -9.945292 14.184854 0 1.000000 1.000000 1.000000 0.069030 -0.573991 0.815946
2533 1 1.697438 -10.081114 14.031206 0 1.000000 1.000000 1.000000 0.095409 -0.579847 0.809120
2534 1 1.790796 -10.629166 13.608287 0 1.000000 1.000000 1.000000 0.106046 -0.613423 0.782602
2535 1 2.380027 -10.762980 13.410482 0 1.000000 1.000000 1.000000 0.135452 -0.619068 0.773568
2536 1 2.475995 -11.305201 12.938264 0 1.000000 1.000000 1.000000 0.144733 -0.652374 0.743949
2537 1 3.088361 -11.430992 12.692768 0 1.000000 1.000000 1.000000 0.176994 -0.657522 0.732351
2538 1 3.182806 -11.959174 12.171819 0 1.000000 1.000000 1.000000 0.184664 -0.690017 0.699840
2539 1 3.812759 -12.070058 11.876763 0 1.000000 1.000000 1.000000 0.219434 -0.694347 0.685369
2540 1 3.900803 -12.575587 11.310061 0 1.000000 1.000000 1.000000 0.225286 -0.725453 0.650356
2541 1 4.541322 -12.664283 10.965810 0 1.000000 1.000000 1.000000 0.262037 -0.728631 0.632798
2542 1 4.617674 -13.138832 10.358984 0 1.000000 1.000000 1.000000 0.265939 -0.757781 0.595855
2543 1 5.260619 -13.198325 9.968513 0 1.000000 1.000000 1.000000 0.303981 -0.759491 0.575125
2544 1 5.320051 -13.634638 9.329751 0 1.000000 1.000000 1.000000 0.305899 -0.786180 0.536980
2545 1 5.956733 -13.658921 8.898707 0 1.000000 1.000000 1.000000 0.344424 -0.786160 0.513152
2546 1 5.994618 -14.051543 8.238280 0 1.000000 1.000000 1.000000 0.344432 -0.809995 0.474632
2547 1 6.616499 -14.036305 7.774652 0 1.000000 1.000000 1.000000 0.382581 -0.808068 0.447948
2548 1 6.629309 -14.382091 7.104091 0 1.000000 1.000000 1.000000 0.380860 -0.828806 0.409911
2549 1 7.228709 -14.325179 6.617526 0 1.000000 1.000000 1.000000 0.417804 -0.824900 0.380762
2550 1 7.214363 -14.623480 5.948609 0 1.000000 1.000000 1.000000 0.414615 -0.842465 0.344016
2551 1 7.785030 -14.525056 5.449494 0 1.000000 1.000000 1.000000 0.449627 -0.836614 0.312908
2552 1 7.743023 -14.777543 4.793233 0 1.000000 1.000000 1.000000 0.445288 -0.851091 0.278143
2553 1 8.280475 -14.639895 4.291751 0 1.000000 1.000000 1.000000 0.477795 -0.843428 0.245643
2554 1 8.211774 -14.850107 3.657579 0 1.000000 1.000000 1.000000 0.472640 -0.855031 0.213385
2555 1 8.713378 -14.677206 3.162905 0 1.000000 1.000000 1.000000 0.502253 -0.845764 0.180071
2556 1 8.620141 -14.849933 2.558176 0 1.000000 1.000000 1.000000 0.496603 -0.854801 0.150667
2557 1 9.084967 -14.646859 2.077932 0 1.000000 1.000000 1.000000 0.523114 -0.844183 0.117079
2558 1 8.970171 -14.787513 1.507757 0 1.000000 1.000000 1.000000 0.517257 -0.851011 0.090701
2559 1 9.398698 -14.559859 1.047765 0 1.000000 1.000000 1.000000 0.540617 -0.839315 0.057313
2560 1 9.265752 -14.673934 0.515130 0 1.000000 1.000000 1.000000 0.534788 -0.844302 0.033984
2561 1 0.318368 8.750622 -14.992302 0 1.000000 1.000000 1.000000 0.021003 0.500804 -0.865306
2562 1 1.304308 8.437536 -15.116699 0 1.000000 1.000000 1.000000 0.077727 0.483290 -0.872003
2563 1 0.647554 8.350933 -15.207413 0 1.000000 1.000000 1.000000 0.035421 0.483304 -0.874736
2564 1 0.329186 7.834877 -15.489163 0 1.000000 1.000000 1.000000 0.020992 0.448226 -0.893674
2565 1 2.348419 8.070991 -15.189327 0 1.000000 1.000000 1.000000 0.137738 0.462756 -0.875720
2566 1 1.664727 8.003182 -15.315439 0 1.000000 1.000000 1.000000 0.094029 0.462767 -0.881479
2567 1 1.347367 7.469232 -15.612923 0 1.000000 1.000000 1.000000 0.079599 0.427692 -0.900413
2568 1 0.668580 7.387530 -15.695933 0 1.000000 1.000000 1.000000 0.037296 0.427704 -0.903149
2569 1 0.339393 6.829344 -15.956706 0 1.000000 1.000000 1.000000 0.020919 0.390558 -0.920341
2570 1 3.442092 7.647622 -15.198772 0 1.000000 1.000000 1.000000 0.200532 0.438989 -0.875829
2571 1 2.737661 7.600075 -15.365265 0 1.000000 1.000000 1.000000 0.155910 0.438997 -0.884858
2572 1 2.424053 7.048300 -15.677193 0 1.000000 1.000000 1.000000 0.141519 0.404021 -0.903736
2573 1 1.717450 6.985265 -15.798739 0 1.000000 1.000000 1.000000 0.097698 0.404031 -0.909513
2574 1 1.387329 6.407569 -16.073187 0 1.000000 1.000000 1.000000 0.081277 0.366789 -0.926747
2575 1 0.688059 6.333351 -16.148144 0 1.000000 1.000000 1.000000 0.039094 0.366801 -0.929478
2576 1 0.348665 5.735779 -16.380356 0 1.000000 1.000000 1.000000 0.020798 0.327907 -0.944481
2577 1 4.572807 7.165942 -15.134200 0 1.000000 1.000000 1.000000 0.265380 0.411874 -0.871741
2578 1 3.855839 7.139241 -15.345216 0 1.000000 1.000000 1.000000 0.220466 0.411879 -0.884167
2579 1 3.548845 6.570043 -15.669469 0 1.000000 1.000000 1.000000 0.206142 0.377073 -0.902952
2580 1 2.821490 6.526649 -15.834953 0 1.000000 1.000000 1.000000 0.161332 0.377080 -0.912021
2581 1 2.492977 5.930006 -16.121649 0 1.000000 1.000000 1.000000 0.144910 0.339841 -0.929252
2582 1 1.765418 5.873961 -16.238337 0 1.000000 1.000000 1.000000 0.101092 0.339850 -0.935031
2583 1 1.422804 5.256078 -16.481544 0 1.000000 1.000000 1.000000 0.082716 0.300791 -0.950096
2584 1 0.705322 5.192114 -16.548607 0 1.000000 1.000000 1.000000 0.040739 0.300802 -0.952816
2585 1 0.356656 4.560217 -16.744626 0 1.000000 1.000000 1.000000 0.020651 0.260623 -0.965220
2586 1 5.724248 6.626979 -14.986504 0 1.000000 1.000000 1.000000 0.331343 0.381437 -0.862970
2587 1 5.004708 6.620564 -15.244736 0 1.000000 1.000000 1.000000 0.286863 0.381439 -0.878757
2588 1 4.707094 6.034779 -15.578333 0 1.000000 1.000000 1.000000 0.272619 0.346833 -0.897433
2589 1 3.968200 6.010960 -15.792049 0 1.000000 1.000000 1.000000 0.227486 0.346838 -0.909920
2590 1 3.643964 5.396435 -16.088803 0 1.000000 1.000000 1.000000 0.211094 0.309671 -0.927116
2591 1 2.896095 5.358876 -16.252919 0 1.000000 1.000000 1.000000 0.166206 0.309677 -0.936203
2592 1 2.552547 4.721902 -16.505687 0 1.000000 1.000000 1.000000 0.147798 0.270551 -0.951293
2593 1 1.806815 4.675150 -16.617625 0 1.000000 1.000000 1.000000 0.104065 0.270559 -0.957062
2594 1 1.452355 4.023240 -16.821532 0 1.000000 1.000000 1.000000 0.083879 0.230185 -0.969525
2595 1 0.719680 3.972271 -16.881471 0 1.000000 1.000000 1.000000 0.042143 0.230194 -0.972232
2596 1 0.363024 3.313560 -17.034309 0 1.000000 1.000000 1.000000 0.020505 0.189329 -0.981700
2597 1 6.876987 6.034741 -14.749554 0 1.000000 1.000000 1.000000 0.397310 0.347871 -0.849194
2598 1 6.166061 6.046757 -15.055666 0 1.000000 1.000000 1.000000 0.354049 0.347868 -0.868123
2599 1 5.880241 5.445745 -15.394839 0 1.000000 1.000000 1.000000 0.339880 0.313451 -0.886696
2600 1 5.140815 5.440182 -15.659273 0 1.000000 1.000000 1.000000 0.295200 0.313452 -0.902555
2601 1 4.823451 4.809427 -15.963131 0 1.000000 1.000000 1.000000 0.278852 0.276391 -0.919701
2602 1 4.065493 4.789499 -16.178944 0 1.000000 1.000000 1.000000 0.233607 0.276395 -0.932220
2603 1 3.723457 4.135304 -16.439198 0 1.000000 1.000000 1.000000 0.215197 0.237272 -0.947308
2604 1 2.958379 4.105265 -16.601824 0 1.000000 1.000000 1.000000 0.170313 0.237277 -0.956396
2605 1 2.600129 3.435339 -16.812365 0 1.000000 1.000000 1.000000 0.150075 0.196803 -0.968889
2606 1 1.839838 3.400066 -16.920135 0 1.000000 1.000000 1.000000 0.106467 0.196809 -0.974644
2607 1 1.474625 2.722924 -17.077635 0 1.000000 1.000000 1.000000 0.084732 0.155761 -0.984154
2608 1 0.730486 2.687387 -17.131871 0 1.000000 1.000000 1.000000 0.043223 0.155767 -0.986848
2609 1 0.367463 2.011634 -17.235970 0 1.000000 1.000000 1.000000 0.020388 0.114920 -0.993165
2610 1 8.009765 5.396359 -14.421288 0 1.000000 1.000000 1.000000 0.462071 0.311548 -0.830318
2611 1 7.319033 5.423672 -14.773512 0 1.000000 1.000000 1.000000 0.420814 0.311543 -0.851972
2612 1 7.046829 4.809389 -15.113909 0 1.000000 1.000000 1.000000 0.406696 0.277259 -0.870474
2613 1 6.318963 4.819446 -15.429124 0 1.000000 1.000000 1.000000 0.363298 0.277257 -0.889462
2614 1 6.010763 4.174759 -15.736487 0 1.000000 1.000000 1.000000 0.346992 0.240297 -0.906562
2615 1 5.254677 4.170303 -16.006060 0 1.000000 1.000000 1.000000 0.302209 0.240298 -0.922457
2616 1 4.916590 3.501451 -16.271127 0 1.000000 1.000000 1.000000 0.283815 0.201213 -0.937530
2617 1 4.143327 3.486379 -16.488452 0 1.000000 1.000000 1.000000 0.238532 0.201216 -0.950060
2618 1 3.783521 2.801175 -16.703921 0 1.000000 1.000000 1.000000 0.218276 0.160708 -0.962563
2619 1 3.005400 2.780173 -16.865207 0 1.000000 1.000000 1.000000 0.173436 0.160712 -0.971644
2620 1 2.633365 2.087412 -17.026538 0 1.000000 1.000000 1.000000 0.151650 0.119569 -0.981176
2621 1 1.862881 2.065436 -17.131196 0 1.000000 1.000000 1.000000 0.108160 0.119573 -0.986916
2622 1 1.488487 1.374145 -17.237007 0 1.000000 1.000000 1.000000 0.085254 0.078597 -0.993254
2623 1 0.737207 1.355880 -17.287546 0 1.000000 1.000000 1.000000 0.043904 0.078600 -0.995939
2624 1 0.369745 0.674566 -17.339516 0 1.000000 1.000000 1.000000 0.020323 0.038533 -0.999051
2625 1 9.101236 4.721792 -14.004383 0 1.000000 1.000000 1.000000 0.524419 0.273015 -0.806503
2626 1 8.441677 4.760214 -14.398410 0 1.000000 1.000000 1.000000 0.485874 0.273008 -0.830297
2627 1 8.184141 4.135232 -14.735413 0 1.000000 1.000000 1.000000 0.471773 0.238774 -0.848774
2628 1 7.480024 4.157093 -15.098688 0 1.000000 1.000000 1.000000 0.430469 0.238770 -0.870452
2629 1 7.182772 3.501417 -15.405541 0 1.000000 1.000000 1.000000 0.414186 0.201870 -0.887524
2630 1 6.441376 3.509026 -15.728125 0 1.000000 1.000000 1.000000 0.370729 0.201868 -0.906537
2631 1 6.109478 2.828772 -15.994873 0 1.000000 1.000000 1.000000 0.352352 0.162824 -0.921595
2632 1 5.340778 2.825652 -16.268301 0 1.000000 1.000000 1.000000 0.307529 0.162825 -0.937504
2633 1 4.981754 2.128633 -16.486602 0 1.000000 1.000000 1.000000 0.287273 0.122319 -0.950006
2634 1 4.197759 2.119228 -16.704896 0 1.000000 1.000000 1.000000 0.241992 0.122321 -0.962537
2635 1 3.820979 1.414401 -16.869001 0 1.000000 1.000000 1.000000 0.220187 0.081142 -0.972077
2636 1 3.034706 1.403588 -17.029357 0 1.000000 1.000000 1.000000 0.175392 0.081144 -0.981149
2637 1 2.650466 0.700298 -17.136728 0 1.000000 1.000000 1.000000 0.152456 0.040111 -0.987496
2638 1 1.874731 0.692831 -17.239720 0 1.000000 1.000000 1.000000 0.109035 0.040113 -0.993228
2639 1 1.493196 -0.000000 -17.291127 0 1.000000 1.000000 1.000000 0.085429 0.000000 -0.996344
2640 1 0.739489 -0.000000 -17.340384 0 1.000000 1.000000 1.000000 0.044137 0.000000 -0.999025
2641 1 0.369745 -0.674566 -17.339516 0 1.000000 1.000000 1.000000 0.020323 -0.038533 -0.999051
2642 1 10.131879 4.023107 -13.506295 0 1.000000 1.000000 1.000000 0.583255 0.232950 -0.778170
2643 1 9.512893 4.067792 -13.935532 0 1.000000 1.000000 1.000000 0.547991 0.232943 -0.803395
2644 1 9.270242 3.435244 -14.264641 0 1.000000 1.000000 1.000000 0.533869 0.198662 -0.821899
2645 1 8.601048 3.464262 -14.670495 0 1.000000 1.000000 1.000000 0.495372 0.198657 -0.845661
2646 1 8.315878 2.801119 -14.972733 0 1.000000 1.000000 1.000000 0.479087 0.161758 -0.862734
2647 1 7.601718 2.816413 -15.344505 0 1.000000 1.000000 1.000000 0.437785 0.161755 -0.884409
2648 1 7.277878 2.128610 -15.609568 0 1.000000 1.000000 1.000000 0.419414 0.122728 -0.899461
2649 1 6.527033 2.133360 -15.937352 0 1.000000 1.000000 1.000000 0.375942 0.122727 -0.918480
2650 1 6.171085 1.428613 -16.156122 0 1.000000 1.000000 1.000000 0.355689 0.082231 -0.930980
2651 1 5.394506 1.427006 -16.431944 0 1.000000 1.000000 1.000000 0.310859 0.082232 -0.946892
2652 1 5.015319 0.714311 -16.597585 0 1.000000 1.000000 1.000000 0.289050 0.041046 -0.956434
2653 1 4.225788 0.711112 -16.816349 0 1.000000 1.000000 1.000000 0.243779 0.041047 -0.968962
2654 1 3.833714 0.000000 -16.925121 0 1.000000 1.000000 1.000000 0.220835 -0.000000 -0.975311
2655 1 3.044666 0.000000 -17.085144 0 1.000000 1.000000 1.000000 0.176059 -0.000000 -0.984380
2656 1 2.650466 -0.700298 -17.136728 0 1.000000 1.000000 1.000000 0.152456 -0.040111 -0.987496
2657 1 1.874731 -0.692831 -17.239720 0 1.000000 1.000000 1.000000 0.109035 -0.040113 -0.993228
2658 1 1.488487 -1.374145 -17.237007 0 1.000000 1.000000 1.000000 0.085254 -0.078597 -0.993254
2659 1 0.737207 -1.355880 -17.287546 0 1.000000 1.000000 1.000000 0.043904 -0.078600 -0.995939
2660 1 0.367463 -2.011634 -17.235970 0 1.000000 1.000000 1.000000 0.020388 -0.114920 -0.993165
2661 1 11.085700 3.313419 -12.938611 0 1.000000 1.000000 1.000000 0.637684 0.192109 -0.745958
2662 1 10.514344 3.359370 -13.394769 0 1.000000 1.000000 1.000000 0.606085 0.192101 -0.771853
2663 1 10.286025 2.722821 -13.711979 0 1.000000 1.000000 1.000000 0.591907 0.157690 -0.790431
2664 1 9.660909 2.754010 -14.152614 0 1.000000 1.000000 1.000000 0.556772 0.157684 -0.815562
2665 1 9.388266 2.087347 -14.446395 0 1.000000 1.000000 1.000000 0.540459 0.120728 -0.832664
2666 1 8.712429 2.105438 -14.860660 0 1.000000 1.000000 1.000000 0.502022 0.120724 -0.856388
2667 1 8.398028 1.414370 -15.120724 0 1.000000 1.000000 1.000000 0.483642 0.081682 -0.871446
2668 1 7.677636 1.422248 -15.497860 0 1.000000 1.000000 1.000000 0.442356 0.081681 -0.893112
2669 1 7.326863 0.714302 -15.714654 0 1.000000 1.000000 1.000000 0.422103 0.041185 -0.905612
2670 1 6.571157 0.715918 -16.045132 0 1.000000 1.000000 1.000000 0.378631 0.041185 -0.924631
2671 1 6.192036 -0.000000 -16.210961 0 1.000000 1.000000 1.000000 0.356822 0.000000 -0.934172
2672 1 5.412777 0.000000 -16.487593 0 1.000000 1.000000 1.000000 0.311993 0.000000 -0.950085
2673 1 5.015319 -0.714311 -16.597585 0 1.000000 1.000000 1.000000 0.289050 -0.041046 -0.956434
2674 1 4.225788 -0.711112 -16.816349 0 1.000000 1.000000 1.000000 0.243779 -0.041047 -0.968962
2675 1 3.820979 -1.414401 -16.869001 0 1.000000 1.000000 1.000000 0.220187 -0.081142 -0.972077
2676 1 3.034706 -1.403588 -17.029357 0 1.000000 1.000000 1.000000 0.175392 -0.081144 -0.981149
2677 1 2.633365 -2.087412 -17.026538 0 1.000000 1.000000 1.000000 0.151650 -0.119569 -0.981176
2678 1 1.862881 -2.065436 -17.131196 0 1.000000 1.000000 1.000000 0.108160 -0.119573 -0.986916
2679 1 1.474625 -2.722924 -17.077635 0 1.000000 1.000000 1.000000 0.084732 -0.155761 -0.984154
2680 1 0.730486 -2.687387 -17.131871 0 1.000000 1.000000 1.000000 0.043223 -0.155767 -0.986848
2681 1 0.363024 -3.313560 -17.034309 0 1.000000 1.000000 1.000000 0.020505 -0.189329 -0.981700
2682 1 11.951393 2.605724 -12.315831 0 1.000000 1.000000 1.000000 0.687077 0.151251 -0.710667
2683 1 11.431977 2.648293 -12.789738 0 1.000000 1.000000 1.000000 0.659324 0.151245 -0.736490
2684 1 11.216833 2.011539 -13.091834 0 1.000000 1.000000 1.000000 0.645067 0.116648 -0.755171
2685 1 10.642237 2.040116 -13.557917 0 1.000000 1.000000 1.000000 0.613643 0.116643 -0.780920
2686 1 10.381946 1.374088 -13.839975 0 1.000000 1.000000 1.000000 0.597286 0.079589 -0.798070
2687 1 9.753091 1.390130 -14.287818 0 1.000000 1.000000 1.000000 0.562246 0.079586 -0.823132
2688 1 9.448987 0.700275 -14.539905 0 1.000000 1.000000 1.000000 0.543846 0.040505 -0.838207
2689 1 8.769760 0.706425 -14.958547 0 1.000000 1.000000 1.000000 0.505448 0.040504 -0.861906
2690 1 8.425955 -0.000000 -15.171034 0 1.000000 1.000000 1.000000 0.485189 0.000000 -0.874409
2691 1 7.703450 -0.000000 -15.550006 0 1.000000 1.000000 1.000000 0.443912 0.000000 -0.896070
2692 1 7.326863 -0.714302 -15.714654 0 1.000000 1.000000 1.000000 0.422103 -0.041185 -0.905612
2693 1 6.571157 -0.715918 -16.045132 0 1.000000 1.000000 1.000000 0.378631 -0.041185 -0.924631
2694 1 6.171085 -1.428613 -16.156122 0 1.000000 1.000000 1.000000 0.355689 -0.082231 -0.930980
2695 1 5.394506 -1.427006 -16.431944 0 1.000000 1.000000 1.000000 0.310859 -0.082232 -0.946892
2696 1 4.981754 -2.128633 -16.486602 0 1.000000 1.000000 1.000000 0.287273 -0.122319 -0.950006
2697 1 4.197759 -2.119228 -16.704896 0 1.000000 1.000000 1.000000 0.241992 -0.122321 -0.962537
2698 1 3.783521 -2.801175 -16.703921 0 1.000000 1.000000 1.000000 0.218276 -0.160708 -0.962563
2699 1 3.005400 -2.780173 -16.865207 0 1.000000 1.000000 1.000000 0.173436 -0.160712 -0.971644
2700 1 2.600129 -3.435339 -16.812365 0 1.000000 1.000000 1.000000 0.150075 -0.196803 -0.968889
2701 1 1.839838 -3.400066 -16.920135 0 1.000000 1.000000 1.000000 0.106467 -0.196809 -0.974644
2702 1 1.452355 -4.023240 -16.821532 0 1.000000 1.000000 1.000000 0.083879 -0.230185 -0.969525
2703 1 0.719680 -3.972271 -16.881471 0 1.000000 1.000000 1.000000 0.042143 -0.230194 -0.972232
2704 1 0.356656 -4.560217 -16.744626 0 1.000000 1.000000 1.000000 0.020651 -0.260623 -0.965220
2705 1 12.722777 1.911843 -11.653866 0 1.000000 1.000000 1.000000 0.731096 0.111082 -0.673171
2706 1 12.256856 1.947127 -12.136314 0 1.000000 1.000000 1.000000 0.707173 0.111077 -0.698261
2707 1 12.053358 1.313966 -12.421034 0 1.000000 1.000000 1.000000 0.692833 0.076281 -0.717052
2708 1 11.532752 1.335810 -12.902647 0 1.000000 1.000000 1.000000 0.665260 0.076278 -0.742705
2709 1 11.284162 0.674533 -13.170507 0 1.000000 1.000000 1.000000 0.648855 0.039119 -0.759906
2710 1 10.707952 0.684234 -13.641751 0 1.000000 1.000000 1.000000 0.617530 0.039118 -0.785574
2711 1 10.414519 0.000000 -13.883440 0 1.000000 1.000000 1.000000 0.599111 -0.000000 -0.800666
2712 1 9.784408 -0.000000 -14.333751 0 1.000000 1.000000 1.000000 0.564107 -0.000000 -0.825702
2713 1 9.448987 -0.700275 -14.539905 0 1.000000 1.000000 1.000000 0.543846 -0.040505 -0.838207
2714 1 8.769760 -0.706425 -14.958547 0 1.000000 1.000000 1.000000 0.505448 -0.040504 -0.861906
2715 1 8.398028 -1.414370 -15.120724 0 1.000000 1.000000 1.000000 0.483642 -0.081682 -0.871446
2716 1 7.677636 -1.422248 -15.497860 0 1.000000 1.000000 1.000000 0.442356 -0.081681 -0.893112
2717 1 7.277878 -2.128610 -15.609568 0 1.000000 1.000000 1.000000 0.419414 -0.122728 -0.899461
2718 1 6.527033 -2.133360 -15.937352 0 1.000000 1.000000 1.000000 0.375942 -0.122727 -0.918480
2719 1 6.109478 -2.828772 -15.994873 0 1.000000 1.000000 1.000000 0.352352 -0.162824 -0.921595
2720 1 5.340778 -2.825652 -16.268301 0 1.000000 1.000000 1.000000 0.307529 -0.162825 -0.937504
2721 1 4.916590 -3.501451 -16.271127 0 1.000000 1.000000 1.000000 0.283815 -0.201213 -0.937530
2722 1 4.143327 -3.486379 -16.488452 0 1.000000 1.000000 1.000000 0.238532 -0.201216 -0.950060
2723 1 3.723457 -4.135304 -16.439198 0 1.000000 1.000000 1.000000 0.215197 -0.237272 -0.947308
2724 1 2.958379 -4.105265 -16.601824 0 1.000000 1.000000 1.000000 0.170313 -0.237277 -0.956396
2725 1 2.552547 -4.721902 -16.505687 0 1.000000 1.000000 1.000000 0.147798 -0.270551 -0.951293
2726 1 1.806815 -4.675150 -16.617625 0 1.000000 1.000000 1.000000 0.104065 -0.270559 -0.957062
2727 1 1.422804 -5.256078 -16.481544 0 1.000000 1.000000 1.000000 0.082716 -0.300791 -0.950096
2728 1 0.705322 -5.192114 -16.548607 0 1.000000 1.000000 1.000000 0.040739 -0.300802 -0.952816
2729 1 0.348665 -5.735779 -16.380356 0 1.000000 1.000000 1.000000 0.020798 -0.327907 -0.944481
2730 1 13.398531 1.241646 -10.968560 0 1.000000 1.000000 1.000000 0.769674 0.072199 -0.634342
2731 1 12.985239 1.266724 -11.451039 0 1.000000 1.000000 1.000000 0.749406 0.072196 -0.658163
2732 1 12.791718 0.640731 -11.717098 0 1.000000 1.000000 1.000000 0.734996 0.037232 -0.677048
2733 1 12.325758 0.652688 -12.204646 0 1.000000 1.000000 1.000000 0.711221 0.037230 -0.701982
2734 1 12.087929 -0.000000 -12.456704 0 1.000000 1.000000 1.000000 0.694783 -0.000000 -0.719219
2735 1 11.566938 0.000000 -12.940952 0 1.000000 1.000000 1.000000 0.667275 -0.000000 -0.744811
2736 1 11.284162 -0.674533 -13.170507 0 1.000000 1.000000 1.000000 0.648855 -0.039119 -0.759906
2737 1 10.707952 -0.684234 -13.641751 0 1.000000 1.000000 1.000000 0.617530 -0.039118 -0.785574
2738 1 10.381946 -1.374088 -13.839975 0 1.000000 1.000000 1.000000 0.597286 -0.079589 -0.798070
2739 1 9.753091 -1.390130 -14.287818 0 1.000000 1.000000 1.000000 0.562246 -0.079586 -0.823132
2740 1 9.388266 -2.087347 -14.446395 0 1.000000 1.000000 1.000000 0.540459 -0.120728 -0.832664
2741 1 8.712429 -2.105438 -14.860660 0 1.000000 1.000000 1.000000 0.502022 -0.120724 -0.856388
2742 1 8.315878 -2.801119 -14.972733 0 1.000000 1.000000 1.000000 0.479087 -0.161758 -0.862734
2743 1 7.601718 -2.816413 -15.344505 0 1.000000 1.000000 1.000000 0.437785 -0.161755 -0.884409
2744 1 7.182772 -3.501417 -15.405541 0 1.000000 1.000000 1.000000 0.414186 -0.201870 -0.887524
2745 1 6.441376 -3.509026 -15.728125 0 1.000000 1.000000 1.000000 0.370729 -0.201868 -0.906537
2746 1 6.010763 -4.174759 -15.736487 0 1.000000 1.000000 1.000000 0.346992 -0.240297 -0.906562
2747 1 5.254677 -4.170303 -16.006060 0 1.000000 1.000000 1.000000 0.302209 -0.240298 -0.922457
2748 1 4.823451 -4.809427 -15.963131 0 1.000000 1.000000 1.000000 0.278852 -0.276391 -0.919701
2749 1 4.065493 -4.789499 -16.178944 0 1.000000 1.000000 1.000000 0.233607 -0.276395 -0.932220
2750 1 3.643964 -5.396435 -16.088803 0 1.000000 1.000000 1.000000 0.211094 -0.309671 -0.927116
2751 1 2.896095 -5.358876 -16.252919 0 1.000000 1.000000 1.000000 0.166206 -0.309677 -0.936203
2752 1 2.492977 -5.930006 -16.121649 0 1.000000 1.000000 1.000000 0.144910 -0.339841 -0.929252
2753 1 1.765418 -5.873961 -16.238337 0 1.000000 1.000000 1.000000 0.101092 -0.339850 -0.935031
2754 1 1.387329 -6.407569 -16.073187 0 1.000000 1.000000 1.000000 0.081277 -0.366789 -0.926747
2755 1 0.688059 -6.333351 -16.148144 0 1.000000 1.000000 1.000000 0.039094 -0.366801 -0.929478
2756 1 0.339393 -6.829344 -15.956706 0 1.000000 1.000000 1.000000 0.020919 -0.390558 -0.920341
2757 1 13.981406 0.602658 -10.274479 0 1.000000 1.000000 1.000000 0.802973 0.035064 -0.594984
2758 1 13.618001 0.615653 -10.749694 0 1.000000 1.000000 1.000000 0.786069 0.035063 -0.617143
2759 1 13.432838 0.000000 -10.996684 0 1.000000 1.000000 1.000000 0.771619 -0.000000 -0.636085
2760 1 13.019847 0.000000 -11.481608 0 1.000000 1.000000 1.000000 0.751434 -0.000000 -0.659808
2761 1 12.791718 -0.640731 -11.717098 0 1.000000 1.000000 1.000000 0.734996 -0.037232 -0.677048
2762 1 12.325758 -0.652688 -12.204646 0 1.000000 1.000000 1.000000 0.711221 -0.037230 -0.701982
2763 1 12.053358 -1.313966 -12.421034 0 1.000000 1.000000 1.000000 0.692833 -0.076281 -0.717052
2764 1 11.532752 -1.335810 -12.902647 0 1.000000 1.000000 1.000000 0.665260 -0.076278 -0.742705
2765 1 11.216833 -2.011539 -13.091834 0 1.000000 1.000000 1.000000 0.645067 -0.116648 -0.755171
2766 1 10.642237 -2.040116 -13.557917 0 1.000000 1.000000 1.000000 0.613643 -0.116643 -0.780920
2767 1 10.286025 -2.722821 -13.711979 0 1.000000 1.000000 1.000000 0.591907 -0.157690 -0.790431
2768 1 9.660909 -2.754010 -14.152614 0 1.000000 1.000000 1.000000 0.556772 -0.157684 -0.815562
2769 1 9.270242 -3.435244 -14.264641 0 1.000000 1.000000 1.000000 0.533869 -0.198662 -0.821899
2770 1 8.601048 -3.464262 -14.670495 0 1.000000 1.000000 1.000000 0.495372 -0.198657 -0.845661
2771 1 8.184141 -4.135232 -14.735413 0 1.000000 1.000000 1.000000 0.471773 -0.238774 -0.848774
2772 1 7.480024 -4.157093 -15.098688 0 1.000000 1.000000 1.000000 0.430469 -0.238770 -0.870452
2773 1 7.046829 -4.809389 -15.113909 0 1.000000 1.000000 1.000000 0.406696 -0.277259 -0.870474
2774 1 6.318963 -4.819446 -15.429124 0 1.000000 1.000000 1.000000 0.363298 -0.277257 -0.889462
2775 1 5.880241 -5.445745 -15.394839 0 1.000000 1.000000 1.000000 0.339880 -0.313451 -0.886696
2776 1 5.140815 -5.440182 -15.659273 0 1.000000 1.000000 1.000000 0.295200 -0.313452 -0.902555
2777 1 4.707094 -6.034779 -15.578333 0 1.000000 1.000000 1.000000 0.272619 -0.346833 -0.897433
2778 1 3.968200 -6.010960 -15.792049 0 1.000000 1.000000 1.000000 0.227486 -0.346838 -0.909920
2779 1 3.548845 -6.570043 -15.669469 0 1.000000 1.000000 1.000000 0.206142 -0.377073 -0.902952
2780 1 2.821490 -6.526649 -15.834953 0 1.000000 1.000000 1.000000 0.161332 -0.377080 -0.912021
2781 1 2.424053 -7.048300 -15.677193 0 1.000000 1.000000 1.000000 0.141519 -0.404021 -0.903736
2782 1 1.717450 -6.985265 -15.798739 0 1.000000 1.000000 1.000000 0.097698 -0.404031 -0.909513
2783 1 1.347367 -7.469232 -15.612923 0 1.000000 1.000000 1.000000 0.079599 -0.427692 -0.900413
2784 1 0.668580 -7.387530 -15.695933 0 1.000000 1.000000 1.000000 0.037296 -0.427704 -0.903149
2785 1 0.329186 -7.834877 -15.489163 0 1.000000 1.000000 1.000000 0.020992 -0.448226 -0.893674
2786 1 14.477172 0.000000 -9.584120 0 1.000000 1.000000 1.000000 0.831322 0.000000 -0.555791
2787 1 14.159648 0.000000 -10.046253 0 1.000000 1.000000 1.000000 0.817423 0.000000 -0.576038
2788 1 13.981406 -0.602658 -10.274479 0 1.000000 1.000000 1.000000 0.802973 -0.035064 -0.594984
2789 1 13.618001 -0.615653 -10.749694 0 1.000000 1.000000 1.000000 0.786069 -0.035063 -0.617143
2790 1 13.398531 -1.241646 -10.968560 0 1.000000 1.000000 1.000000 0.769674 -0.072199 -0.634342
2791 1 12.985239 -1.266724 -11.451039 0 1.000000 1.000000 1.000000 0.749406 -0.072196 -0.658163
2792 1 12.722777 -1.911843 -11.653866 0 1.000000 1.000000 1.000000 0.731096 -0.111082 -0.673171
2793 1 12.256856 -1.947127 -12.136314 0 1.000000 1.000000 1.000000 0.707173 -0.111077 -0.698261
2794 1 11.951393 -2.605724 -12.315831 0 1.000000 1.000000 1.000000 0.687077 -0.151251 -0.710667
2795 1 11.431977 -2.648293 -12.789738 0 1.000000 1.000000 1.000000 0.659324 -0.151245 -0.736490
2796 1 11.085700 -3.313419 -12.938611 0 1.000000 1.000000 1.000000 0.637684 -0.192109 -0.745958
2797 1 10.514344 -3.359370 -13.394769 0 1.000000 1.000000 1.000000 0.606085 -0.192101 -0.771853
2798 1 10.131879 -4.023107 -13.506295 0 1.000000 1.000000 1.000000 0.583255 -0.232950 -0.778170
2799 1 9.512893 -4.067792 -13.935532 0 1.000000 1.000000 1.000000 0.547991 -0.232943 -0.803395
2800 1 9.101236 -4.721792 -14.004383 0 1.000000 1.000000 1.000000 0.524419 -0.273015 -0.806503
2801 1 8.441677 -4.760214 -14.398410 0 1.000000 1.000000 1.000000 0.485874 -0.273008 -0.830297
2802 1 8.009765 -5.396359 -14.421288 0 1.000000 1.000000 1.000000 0.462071 -0.311548 -0.830318
2803 1 7.319033 -5.423672 -14.773512 0 1.000000 1.000000 1.000000 0.420814 -0.311543 -0.851972
2804 1 6.876987 -6.034741 -14.749554 0 1.000000 1.000000 1.000000 0.397310 -0.347871 -0.849194
2805 1 6.166061 -6.046757 -15.055666 0 1.000000 1.000000 1.000000 0.354049 -0.347868 -0.868123
2806 1 5.724248 -6.626979 -14.986504 0 1.000000 1.000000 1.000000 0.331343 -0.381437 -0.862970
2807 1 5.004708 -6.620564 -15.244736 0 1.000000 1.000000 1.000000 0.286863 -0.381439 -0.878757
2808 1 4.572807 -7.165942 -15.134200 0 1.000000 1.000000 1.000000 0.265380 -0.411874 -0.871741
2809 1 3.855839 -7.139241 -15.345216 0 1.000000 1.000000 1.000000 0.220466 -0.411879 -0.884167
2810 1 3.442092 -7.647622 -15.198772 0 1.000000 1.000000 1.000000 0.200532 -0.438989 -0.875829
2811 1 2.737661 -7.600075 -15.365265 0 1.000000 1.000000 1.000000 0.155910 -0.438997 -0.884858
2812 1 2.348419 -8.070991 -15.189327 0 1.000000 1.000000 1.000000 0.137738 -0.462756 -0.875720
2813 1 1.664727 -8.003182 -15.315439 0 1.000000 1.000000 1.000000 0.094029 -0.462767 -0.881479
2814 1 1.304308 -8.437536 -15.116699 0 1.000000 1.000000 1.000000 0.077727 -0.483290 -0.872003
2815 1 0.647554 -8.350933 -15.207413 0 1.000000 1.000000 1.000000 0.035421 -0.483304 -0.874736
2816 1 0.318368 -8.750622 -14.992302 0 1.000000 1.000000 1.000000 0.021003 -0.500804 -0.865306
2817 1 14.673934 -0.515130 -9.265752 0 1.000000 1.000000 1.000000 0.844302 -0.033984 -0.534788
2818 1 14.787513 -1.507757 -8.970171 0 1.000000 1.000000 1.000000 0.851011 -0.090701 -0.517257
2819 1 14.559859 -1.047765 -9.398698 0 1.000000 1.000000 1.000000 0.839315 -0.057313 -0.540617
2820 1 14.184854 -1.135293 -9.945292 0 1.000000 1.000000 1.000000 0.815946 -0.069030 -0.573991
2821 1 14.849933 -2.558176 -8.620141 0 1.000000 1.000000 1.000000 0.854801 -0.150667 -0.496603
2822 1 14.646859 -2.077932 -9.084967 0 1.000000 1.000000 1.000000 0.844183 -0.117079 -0.523114
2823 1 14.265557 -2.180085 -9.649317 0 1.000000 1.000000 1.000000 0.820814 -0.128794 -0.556486
2824 1 14.031206 -1.697438 -10.081114 0 1.000000 1.000000 1.000000 0.809120 -0.095409 -0.579847
2825 1 13.608287 -1.790796 -10.629166 0 1.000000 1.000000 1.000000 0.782602 -0.106046 -0.613423
2826 1 14.850107 -3.657579 -8.211774 0 1.000000 1.000000 1.000000 0.855031 -0.213385 -0.472640
2827 1 14.677206 -3.162905 -8.713378 0 1.000000 1.000000 1.000000 0.845764 -0.180071 -0.502253
2828 1 14.289865 -3.281469 -9.293045 0 1.000000 1.000000 1.000000 0.822460 -0.191751 -0.535529
2829 1 14.081289 -2.778892 -9.764158 0 1.000000 1.000000 1.000000 0.811815 -0.158079 -0.562110
2830 1 13.649134 -2.885476 -10.329769 0 1.000000 1.000000 1.000000 0.785228 -0.168740 -0.595771
2831 1 13.410482 -2.380027 -10.762980 0 1.000000 1.000000 1.000000 0.773568 -0.135452 -0.619068
2832 1 12.938264 -2.475995 -11.305201 0 1.000000 1.000000 1.000000 0.743949 -0.144733 -0.652374
2833 1 14.777543 -4.793233 -7.743023 0 1.000000 1.000000 1.000000 0.851091 -0.278143 -0.445288
2834 1 14.639895 -4.291751 -8.280475 0 1.000000 1.000000 1.000000 0.843428 -0.245643 -0.477795
2835 1 14.246665 -4.428187 -8.872189 0 1.000000 1.000000 1.000000 0.820235 -0.257263 -0.510910
2836 1 14.069535 -3.912578 -9.383156 0 1.000000 1.000000 1.000000 0.810929 -0.223810 -0.540651
2837 1 13.628673 -4.033721 -9.963727 0 1.000000 1.000000 1.000000 0.784343 -0.234469 -0.574309
2838 1 13.416847 -3.509195 -10.439228 0 1.000000 1.000000 1.000000 0.773699 -0.200800 -0.600890
2839 1 12.932699 -3.616111 -10.998230 0 1.000000 1.000000 1.000000 0.743954 -0.210119 -0.634336
2840 1 12.692768 -3.088361 -11.430992 0 1.000000 1.000000 1.000000 0.732351 -0.176994 -0.657522
2841 1 12.171819 -3.182806 -11.959174 0 1.000000 1.000000 1.000000 0.699840 -0.184664 -0.690017
2842 1 14.623480 -5.948609 -7.214363 0 1.000000 1.000000 1.000000 0.842465 -0.344016 -0.414615
2843 1 14.525056 -5.449494 -7.785030 0 1.000000 1.000000 1.000000 0.836614 -0.312908 -0.449627
2844 1 14.125977 -5.604699 -8.384739 0 1.000000 1.000000 1.000000 0.813554 -0.324459 -0.482552
2845 1 13.985234 -5.084873 -8.934447 0 1.000000 1.000000 1.000000 0.805854 -0.291802 -0.515219
2846 1 13.536256 -5.221525 -9.526543 0 1.000000 1.000000 1.000000 0.779318 -0.302438 -0.548812
2847 1 13.356824 -4.685981 -10.044856 0 1.000000 1.000000 1.000000 0.769996 -0.268928 -0.578605
2848 1 12.861723 -4.804641 -10.617960 0 1.000000 1.000000 1.000000 0.740199 -0.278261 -0.612108
2849 1 12.649425 -4.259297 -11.095833 0 1.000000 1.000000 1.000000 0.729576 -0.244659 -0.638639
2850 1 12.114438 -4.361500 -11.639478 0 1.000000 1.000000 1.000000 0.696906 -0.252366 -0.671292
2851 1 11.876763 -3.812759 -12.070058 0 1.000000 1.000000 1.000000 0.685369 -0.219434 -0.694347
2852 1 11.310061 -3.900803 -12.575587 0 1.000000 1.000000 1.000000 0.650356 -0.225286 -0.725453
2853 1 14.382091 -7.104091 -6.629309 0 1.000000 1.000000 1.000000 0.828806 -0.409911 -0.380860
2854 1 14.325179 -6.617526 -7.228709 0 1.000000 1.000000 1.000000 0.824900 -0.380762 -0.417804
2855 1 13.920214 -6.791610 -7.831738 0 1.000000 1.000000 1.000000 0.801964 -0.392247 -0.450551
2856 1 13.819436 -6.277898 -8.417102 0 1.000000 1.000000 1.000000 0.796087 -0.361001 -0.485720
2857 1 13.363002 -6.430419 -9.016524 0 1.000000 1.000000 1.000000 0.769626 -0.371604 -0.519218
2858 1 13.220565 -5.893872 -9.576258 0 1.000000 1.000000 1.000000 0.761907 -0.338866 -0.551967
2859 1 12.715741 -6.024680 -10.159983 0 1.000000 1.000000 1.000000 0.732110 -0.348197 -0.585468
2860 1 12.536331 -5.470992 -10.683372 0 1.000000 1.000000 1.000000 0.722789 -0.314690 -0.615261
2861 1 11.988914 -5.581185 -11.239846 0 1.000000 1.000000 1.000000 0.690037 -0.322415 -0.647995
2862 1 11.779319 -5.017036 -11.718079 0 1.000000 1.000000 1.000000 0.679444 -0.288911 -0.674453
2863 1 11.197393 -5.108814 -12.237355 0 1.000000 1.000000 1.000000 0.644274 -0.294790 -0.705698
2864 1 10.965810 -4.541322 -12.664283 0 1.000000 1.000000 1.000000 0.632798 -0.262037 -0.728631
2865 1 10.358984 -4.617674 -13.138832 0 1.000000 1.000000 1.000000 0.595855 -0.265939 -0.757781
2866 1 14.051543 -8.238280 -5.994618 0 1.000000 1.000000 1.000000 0.809995 -0.474632 -0.344432
2867 1 14.036305 -7.774652 -6.616499 0 1.000000 1.000000 1.000000 0.808068 -0.447948 -0.382581
2868 1 13.625422 -7.966765 -7.217812 0 1.000000 1.000000 1.000000 0.785221 -0.459386 -0.415203
2869 1 13.566243 -7.470287 -7.833651 0 1.000000 1.000000 1.000000 0.781302 -0.430145 -0.452263
2870 1 13.103122 -7.638272 -8.435632 0 1.000000 1.000000 1.000000 0.754911 -0.440717 -0.485672
2871 1 13.000660 -7.112116 -9.033142 0 1.000000 1.000000 1.000000 0.749021 -0.409398 -0.520923
2872 1 12.487606 -7.254934 -9.623316 0 1.000000 1.000000 1.000000 0.719253 -0.418717 -0.554392
2873 1 12.345125 -6.704044 -10.190424 0 1.000000 1.000000 1.000000 0.711528 -0.385954 -0.587170
2874 1 11.787331 -6.822140 -10.756385 0 1.000000 1.000000 1.000000 0.678748 -0.393684 -0.619930
2875 1 11.610530 -6.252968 -11.282418 0 1.000000 1.000000 1.000000 0.669435 -0.360211 -0.649696
2876 1 11.015775 -6.348220 -11.813030 0 1.000000 1.000000 1.000000 0.634184 -0.366103 -0.681014
2877 1 10.812233 -5.768215 -12.289733 0 1.000000 1.000000 1.000000 0.623618 -0.332690 -0.707402
2878 1 10.190178 -5.843667 -12.776154 0 1.000000 1.000000 1.000000 0.586559 -0.336606 -0.736645
2879 1 9.968513 -5.260619 -13.198325 0 1.000000 1.000000 1.000000 0.575125 -0.303981 -0.759491
2880 1 9.329751 -5.320051 -13.634638 0 1.000000 1.000000 1.000000 0.536980 -0.305899 -0.786180
2881 1 13.634638 -9.329751 -5.320051 0 1.000000 1.000000 1.000000 0.786180 -0.536980 -0.305899
2882 1 13.658921 -8.898707 -5.956733 0 1.000000 1.000000 1.000000 0.786160 -0.513152 -0.344424
2883 1 13.242218 -9.106986 -6.551273 0 1.000000 1.000000 1.000000 0.763345 -0.524571 -0.377001
2884 1 13.223957 -8.638671 -7.190471 0 1.000000 1.000000 1.000000 0.761416 -0.497856 -0.415192
2885 1 12.755075 -8.820850 -7.789961 0 1.000000 1.000000 1.000000 0.735068 -0.508409 -0.448548
2886 1 12.693419 -8.316928 -8.419283 0 1.000000 1.000000 1.000000 0.731145 -0.479127 -0.485659
2887 1 12.173893 -8.470973 -9.011246 0 1.000000 1.000000 1.000000 0.701407 -0.488435 -0.519094
2888 1 12.070543 -7.935136 -9.617769 0 1.000000 1.000000 1.000000 0.695512 -0.457089 -0.554377
2889 1 11.504848 -8.060647 -10.189280 0 1.000000 1.000000 1.000000 0.662733 -0.464818 -0.587136
2890 1 11.364118 -7.498541 -10.760788 0 1.000000 1.000000 1.000000 0.655008 -0.432056 -0.619913
2891 1 10.759523 -7.596845 -11.299745 0 1.000000 1.000000 1.000000 0.619725 -0.437953 -0.651259
2892 1 10.587981 -7.015696 -11.825954 0 1.000000 1.000000 1.000000 0.610420 -0.404515 -0.680995
2893 1 9.953956 -7.089663 -12.322267 0 1.000000 1.000000 1.000000 0.573310 -0.408437 -0.710278
2894 1 9.759696 -6.497640 -12.795764 0 1.000000 1.000000 1.000000 0.562760 -0.375079 -0.736625
2895 1 9.106986 -6.551273 -13.242218 0 1.000000 1.000000 1.000000 0.524571 -0.377001 -0.763345
2896 1 8.898707 -5.956733 -13.658921 0 1.000000 1.000000 1.000000 0.513152 -0.344424 -0.786160
2897 1 8.238280 -5.994618 -14.051543 0 1.000000 1.000000 1.000000 0.474632 -0.344432 -0.809995
2898 1 13.138832 -10.358984 -4.617674 0 1.000000 1.000000 1.000000 0.757781 -0.595855 -0.265939
2899 1 13.198325 -9.968513 -5.260619 0 1.000000 1.000000 1.000000 0.759491 -0.575125 -0.303981
2900 1 12.776154 -10.190178 -5.843667 0 1.000000 1.000000 1.000000 0.736645 -0.586559 -0.336606
2901 1 12.795764 -9.759696 -6.497640 0 1.000000 1.000000 1.000000 0.736625 -0.562760 -0.375079
2902 1 12.322267 -9.953956 -7.089663 0 1.000000 1.000000 1.000000 0.710278 -0.573310 -0.408437
2903 1 12.299839 -9.483425 -7.742786 0 1.000000 1.000000 1.000000 0.708350 -0.546595 -0.446625
2904 1 11.775853 -9.647243 -8.331690 0 1.000000 1.000000 1.000000 0.678626 -0.555897 -0.480047
2905 1 11.711564 -9.138713 -8.970828 0 1.000000 1.000000 1.000000 0.674701 -0.526605 -0.517170
2906 1 11.140803 -9.270722 -9.543570 0 1.000000 1.000000 1.000000 0.641930 -0.534331 -0.549923
2907 1 11.037438 -8.728494 -10.155500 0 1.000000 1.000000 1.000000 0.636034 -0.502980 -0.585212
2908 1 10.426501 -8.829259 -10.699335 0 1.000000 1.000000 1.000000 0.600745 -0.508877 -0.616563
2909 1 10.289316 -8.259716 -11.272073 0 1.000000 1.000000 1.000000 0.593020 -0.476124 -0.649333
2910 1 9.647243 -8.331690 -11.775853 0 1.000000 1.000000 1.000000 0.555897 -0.480047 -0.678626
2911 1 9.483425 -7.742786 -12.299839 0 1.000000 1.000000 1.000000 0.546595 -0.446625 -0.708350
2912 1 8.820850 -7.789961 -12.755075 0 1.000000 1.000000 1.000000 0.508409 -0.448548 -0.735068
2913 1 8.638671 -7.190471 -13.223957 0 1.000000 1.000000 1.000000 0.497856 -0.415192 -0.761416
2914 1 7.966765 -7.217812 -13.625422 0 1.000000 1.000000 1.000000 0.459386 -0.415203 -0.785221
2915 1 7.774652 -6.616499 -14.036305 0 1.000000 1.000000 1.000000 0.447948 -0.382581 -0.808068
2916 1 7.104091 -6.629309 -14.382091 0 1.000000 1.000000 1.000000 0.409911 -0.380860 -0.828806
2917 1 12.575587 -11.310061 -3.900803 0 1.000000 1.000000 1.000000 0.725453 -0.650356 -0.225286
2918 1 12.664283 -10.965810 -4.541322 0 1.000000 1.000000 1.000000 0.728631 -0.632798 -0.262037
2919 1 12.237355 -11.197393 -5.108814 0 1.000000 1.000000 1.000000 0.705698 -0.644274 -0.294790
2920 1 12.289733 -10.812233 -5.768215 0 1.000000 1.000000 1.000000 0.707402 -0.623618 -0.332690
2921 1 11.813030 -11.015775 -6.348220 0 1.000000 1.000000 1.000000 0.681014 -0.634184 -0.366103
2922 1 11.825954 -10.587981 -7.015696 0 1.000000 1.000000 1.000000 0.680995 -0.610420 -0.404515
2923 1 11.299745 -10.759523 -7.596845 0 1.000000 1.000000 1.000000 0.651259 -0.619725 -0.437953
2924 1 11.272073 -10.289316 -8.259716 0 1.000000 1.000000 1.000000 0.649333 -0.593020 -0.476124
2925 1 10.699335 -10.426501 -8.829259 0 1.000000 1.000000 1.000000 0.616563 -0.600745 -0.508877
2926 1 10.632355 -9.916437 -9.473975 0 1.000000 1.000000 1.000000 0.612638 -0.571453 -0.546000
2927 1 10.018925 -10.018925 -10.018925 0 1.000000 1.000000 1.000000 0.577350 -0.577350 -0.577350
2928 1 9.916437 -9.473975 -10.632355 0 1.000000 1.000000 1.000000 0.571453 -0.546000 -0.612638
2929 1 9.270722 -9.543570 -11.140803 0 1.000000 1.000000 1.000000 0.534331 -0.549923 -0.641930
2930 1 9.138713 -8.970828 -11.711564 0 1.000000 1.000000 1.000000 0.526605 -0.517170 -0.674701
2931 1 8.470973 -9.011246 -12.173893 0 1.000000 1.000000 1.000000 0.488435 -0.519094 -0.701407
2932 1 8.316928 -8.419283 -12.693419 0 1.000000 1.000000 1.000000 0.479127 -0.485659 -0.731145
2933 1 7.638272 -8.435632 -13.103122 0 1.000000 1.000000 1.000000 0.440717 -0.485672 -0.754911
2934 1 7.470287 -7.833651 -13.566243 0 1.000000 1.000000 1.000000 0.430145 -0.452263 -0.781302
2935 1 6.791610 -7.831738 -13.920214 0 1.000000 1.000000 1.000000 0.392247 -0.450551 -0.801964
2936 1 6.617526 -7.228709 -14.325179 0 1.000000 1.000000 1.000000 0.380762 -0.417804 -0.824900
2937 1 5.948609 -7.214363 -14.623480 0 1.000000 1.000000 1.000000 0.344016 -0.414615 -0.842465
2938 1 11.959174 -12.171819 -3.182806 0 1.000000 1.000000 1.000000 0.690017 -0.699840 -0.184664
2939 1 12.070058 -11.876763 -3.812759 0 1.000000 1.000000 1.000000 0.694347 -0.685369 -0.219434
2940 1 11.639478 -12.114438 -4.361500 0 1.000000 1.000000 1.000000 0.671292 -0.696906 -0.252366
2941 1 11.718079 -11.779319 -5.017036 0 1.000000 1.000000 1.000000 0.674453 -0.679444 -0.288911
2942 1 11.239846 -11.988914 -5.581185 0 1.000000 1.000000 1.000000 0.647995 -0.690037 -0.322415
2943 1 11.282418 -11.610530 -6.252968 0 1.000000 1.000000 1.000000 0.649696 -0.669435 -0.360211
2944 1 10.756385 -11.787331 -6.822140 0 1.000000 1.000000 1.000000 0.619930 -0.678748 -0.393684
2945 1 10.760788 -11.364118 -7.498541 0 1.000000 1.000000 1.000000 0.619913 -0.655008 -0.432056
2946 1 10.189280 -11.504848 -8.060647 0 1.000000 1.000000 1.000000 0.587136 -0.662733 -0.464818
2947 1 10.155500 -11.037438 -8.728494 0 1.000000 1.000000 1.000000 0.585212 -0.636034 -0.502980
2948 1 9.543570 -11.140803 -9.270722 0 1.000000 1.000000 1.000000 0.549923 -0.641930 -0.534331
2949 1 9.473975 -10.632355 -9.916437 0 1.000000 1.000000 1.000000 0.546000 -0.612638 -0.571453
2950 1 8.829259 -10.699335 -10.426501 0 1.000000 1.000000 1.000000 0.508877 -0.616563 -0.600745
2951 1 8.728494 -10.155500 -11.037438 0 1.000000 1.000000 1.000000 0.502980 -0.585212 -0.636034
2952 1 8.060647 -10.189280 -11.504848 0 1.000000 1.000000 1.000000 0.464818 -0.587136 -0.662733
2953 1 7.935136 -9.617769 -12.070543 0 1.000000 1.000000 1.000000 0.457089 -0.554377 -0.695512
2954 1 7.254934 -9.623316 -12.487606 0 1.000000 1.000000 1.000000 0.418717 -0.554392 -0.719253
2955 1 7.112116 -9.033142 -13.000660 0 1.000000 1.000000 1.000000 0.409398 -0.520923 -0.749021
2956 1 6.430419 -9.016524 -13.363002 0 1.000000 1.000000 1.000000 0.371604 -0.519218 -0.769626
2957 1 6.277898 -8.417102 -13.819436 0 1.000000 1.000000 1.000000 0.361001 -0.485720 -0.796087
2958 1 5.604699 -8.384739 -14.125977 0 1.000000 1.000000 1.000000 0.324459 -0.482552 -0.813554
2959 1 5.449494 -7.785030 -14.525056 0 1.000000 1.000000 1.000000 0.312908 -0.449627 -0.836614
2960 1 4.793233 -7.743023 -14.777543 0 1.000000 1.000000 1.000000 0.278143 -0.445288 -0.851091
2961 1 11.305201 -12.938264 -2.475995 0 1.000000 1.000000 1.000000 0.652374 -0.743949 -0.144733
2962 1 11.430992 -12.692768 -3.088361 0 1.000000 1.000000 1.000000 0.657522 -0.732351 -0.176994
2963 1 10.998230 -12.932699 -3.616111 0 1.000000 1.000000 1.000000 0.634336 -0.743954 -0.210119
2964 1 11.095833 -12.649425 -4.259297 0 1.000000 1.000000 1.000000 0.638639 -0.729576 -0.244659
2965 1 10.617960 -12.861723 -4.804641 0 1.000000 1.000000 1.000000 0.612108 -0.740199 -0.278261
2966 1 10.683372 -12.536331 -5.470992 0 1.000000 1.000000 1.000000 0.615261 -0.722789 -0.314690
2967 1 10.159983 -12.715741 -6.024680 0 1.000000 1.000000 1.000000 0.585468 -0.732110 -0.348197
2968 1 10.190424 -12.345125 -6.704044 0 1.000000 1.000000 1.000000 0.587170 -0.711528 -0.385954
2969 1 9.623316 -12.487606 -7.254934 0 1.000000 1.000000 1.000000 0.554392 -0.719253 -0.418717
2970 1 9.617769 -12.070543 -7.935136 0 1.000000 1.000000 1.000000 0.554377 -0.695512 -0.457089
2971 1 9.011246 -12.173893 -8.470973 0 1.000000 1.000000 1.000000 0.519094 -0.701407 -0.488435
2972 1 8.970828 -11.711564 -9.138713 0 1.000000 1.000000 1.000000 0.517170 -0.674701 -0.526605
2973 1 8.331690 -11.775853 -9.647243 0 1.000000 1.000000 1.000000 0.480047 -0.678626 -0.555897
2974 1 8.259716 -11.272073 -10.289316 0 1.000000 1.000000 1.000000 0.476124 -0.649333 -0.593020
2975 1 7.596845 -11.299745 -10.759523 0 1.000000 1.000000 1.000000 0.437953 -0.651259 -0.619725
2976 1 7.498541 -10.760788 -11.364118 0 1.000000 1.000000 1.000000 0.432056 -0.619913 -0.655008
2977 1 6.822140 -10.756385 -11.787331 0 1.000000 1.000000 1.000000 0.393684 -0.619930 -0.678748
2978 1 6.704044 -10.190424 -12.345125 0 1.000000 1.000000 1.000000 0.385954 -0.587170 -0.711528
2979 1 6.024680 -10.159983 -12.715741 0 1.000000 1.000000 1.000000 0.348197 -0.585468 -0.732110
2980 1 5.893872 -9.576258 -13.220565 0 1.000000 1.000000 1.000000 0.338866 -0.551967 -0.761907
2981 1 5.221525 -9.526543 -13.536256 0 1.000000 1.000000 1.000000 0.302438 -0.548812 -0.779318
2982 1 5.084873 -8.934447 -13.985234 0 1.000000 1.000000 1.000000 0.291802 -0.515219 -0.805854
2983 1 4.428187 -8.872189 -14.246665 0 1.000000 1.000000 1.000000 0.257263 -0.510910 -0.820235
2984 1 4.291751 -8.280475 -14.639895 0 1.000000 1.000000 1.000000 0.245643 -0.477795 -0.843428
2985 1 3.657579 -8.211774 -14.850107 0 1.000000 1.000000 1.000000 0.213385 -0.472640 -0.855031
2986 1 10.629166 -13.608287 -1.790796 0 1.000000 1.000000 1.000000 0.613423 -0.782602 -0.106046
2987 1 10.762980 -13.410482 -2.380027 0 1.000000 1.000000 1.000000 0.619068 -0.773568 -0.135452
2988 1 10.329769 -13.649134 -2.885476 0 1.000000 1.000000 1.000000 0.595771 -0.785228 -0.168740
2989 1 10.439228 -13.416847 -3.509195 0 1.000000 1.000000 1.000000 0.600890 -0.773699 -0.200800
2990 1 9.963727 -13.628673 -4.033721 0 1.000000 1.000000 1.000000 0.574309 -0.784343 -0.234469
2991 1 10.044856 -13.356824 -4.685981 0 1.000000 1.000000 1.000000 0.578605 -0.769996 -0.268928
2992 1 9.526543 -13.536256 -5.221525 0 1.000000 1.000000 1.000000 0.548812 -0.779318 -0.302438
2993 1 9.576258 -13.220565 -5.893872 0 1.000000 1.000000 1.000000 0.551967 -0.761907 -0.338866
2994 1 9.016524 -13.363002 -6.430419 0 1.000000 1.000000 1.000000 0.519218 -0.769626 -0.371604
2995 1 9.033142 -13.000660 -7.112116 0 1.000000 1.000000 1.000000 0.520923 -0.749021 -0.409398
2996 1 8.435632 -13.103122 -7.638272 0 1.000000 1.000000 1.000000 0.485672 -0.754911 -0.440717
2997 1 8.419283 -12.693419 -8.316928 0 1.000000 1.000000 1.000000 0.485659 -0.731145 -0.479127
2998 1 7.789961 -12.755075 -8.820850 0 1.000000 1.000000 1.000000 0.448548 -0.735068 -0.508409
2999 1 7.742786 -12.299839 -9.483425 0 1.000000 1.000000 1.000000 0.446625 -0.708350 -0.546595
3000 1 7.089663 -12.322267 -9.953956 0 1.000000 1.000000 1.000000 0.408437 -0.710278 -0.573310
3001 1 7.015696 -11.825954 -10.587981 0 1.000000 1.000000 1.000000 0.404515 -0.680995 -0.610420
3002 1 6.348220 -11.813030 -11.015775 0 1.000000 1.000000 1.000000 0.366103 -0.681014 -0.634184
3003 1 6.252968 -11.282418 -11.610530 0 1.000000 1.000000 1.000000 0.360211 -0.649696 -0.669435
3004 1 5.581185 -11.239846 -11.988914 0 1.000000 1.000000 1.000000 0.322415 -0.647995 -0.690037
3005 1 5.470992 -10.683372 -12.536331 0 1.000000 1.000000 1.000000 0.314690 -0.615261 -0.722789
3006 1 4.804641 -10.617960 -12.861723 0 1.000000 1.000000 1.000000 0.278261 -0.612108 -0.740199
3007 1 4.685981 -10.044856 -13.356824 0 1.000000 1.000000 1.000000 0.268928 -0.578605 -0.769996
3008 1 4.033721 -9.963727 -13.628673 0 1.000000 1.000000 1.000000 0.234469 -0.574309 -0.784343
3009 1 3.912578 -9.383156 -14.069535 0 1.000000 1.000000 1.000000 0.223810 -0.540651 -0.810929
3010 1 3.281469 -9.293045 -14.289865 0 1.000000 1.000000 1.000000 0.191751 -0.535529 -0.822460
3011 1 3.162905 -8.713378 -14.677206 0 1.000000 1.000000 1.000000 0.180071 -0.502253 -0.845764
3012 1 2.558176 -8.620141 -14.849933 0 1.000000 1.000000 1.000000 0.150667 -0.496603 -0.854801
3013 1 9.945292 -14.184854 -1.135293 0 1.000000 1.000000 1.000000 0.573991 -0.815946 -0.069030
3014 1 10.081114 -14.031206 -1.697438 0 1.000000 1.000000 1.000000 0.579847 -0.809120 -0.095409
3015 1 9.649317 -14.265557 -2.180085 0 1.000000 1.000000 1.000000 0.556486 -0.820814 -0.128794
3016 1 9.764158 -14.081289 -2.778892 0 1.000000 1.000000 1.000000 0.562110 -0.811815 -0.158079
3017 1 9.293045 -14.289865 -3.281469 0 1.000000 1.000000 1.000000 0.535529 -0.822460 -0.191751
3018 1 9.383156 -14.069535 -3.912578 0 1.000000 1.000000 1.000000 0.540651 -0.810929 -0.223810
3019 1 8.872189 -14.246665 -4.428187 0 1.000000 1.000000 1.000000 0.510910 -0.820235 -0.257263
3020 1 8.934447 -13.985234 -5.084873 0 1.000000 1.000000 1.000000 0.515219 -0.805854 -0.291802
3021 1 8.384739 -14.125977 -5.604699 0 1.000000 1.000000 1.000000 0.482552 -0.813554 -0.324459
3022 1 8.417102 -13.819436 -6.277898 0 1.000000 1.000000 1.000000 0.485720 -0.796087 -0.361001
3023 1 7.831738 -13.920214 -6.791610 0 1.000000 1.000000 1.000000 0.450551 -0.801964 -0.392247
3024 1 7.833651 -13.566243 -7.470287 0 1.000000 1.000000 1.000000 0.452263 -0.781302 -0.430145
3025 1 7.217812 -13.625422 -7.966765 0 1.000000 1.000000 1.000000 0.415203 -0.785221 -0.459386
3026 1 7.190471 -13.223957 -8.638671 0 1.000000 1.000000 1.000000 0.415192 -0.761416 -0.497856
3027 1 6.551273 -13.242218 -9.106986 0 1.000000 1.000000 1.000000 0.377001 -0.763345 -0.524571
3028 1 6.497640 -12.795764 -9.759696 0 1.000000 1.000000 1.000000 0.375079 -0.736625 -0.562760
3029 1 5.843667 -12.776154 -10.190178 0 1.000000 1.000000 1.000000 0.336606 -0.736645 -0.586559
3030 1 5.768215 -12.289733 -10.812233 0 1.000000 1.000000 1.000000 0.332690 -0.707402 -0.623618
3031 1 5.108814 -12.237355 -11.197393 0 1.000000 1.000000 1.000000 0.294790 -0.705698 -0.644274
3032 1 5.017036 -11.718079 -11.779319 0 1.000000 1.000000 1.000000 0.288911 -0.674453 -0.679444
3033 1 4.361500 -11.639478 -12.114438 0 1.000000 1.000000 1.000000 0.252366 -0.671292 -0.696906
3034 1 4.259297 -11.095833 -12.649425 0 1.000000 1.000000 1.000000 0.244659 -0.638639 -0.729576
3035 1 3.616111 -10.998230 -12.932699 0 1.000000 1.000000 1.000000 0.210119 -0.634336 -0.743954
3036 1 3.509195 -10.439228 -13.416847 0 1.000000 1.000000 1.000000 0.200800 -0.600890 -0.773699
3037 1 2.885476 -10.329769 -13.649134 0 1.000000 1.000000 1.000000 0.168740 -0.595771 -0.785228
3038 1 2.778892 -9.764158 -14.081289 0 1.000000 1.000000 1.000000 0.158079 -0.562110 -0.811815
3039 1 2.180085 -9.649317 -14.265557 0 1.000000 1.000000 1.000000 0.128794 -0.556486 -0.820814
3040 1 2.077932 -9.084967 -14.646859 0 1.000000 1.000000 1.000000 0.117079 -0.523114 -0.844183
3041 1 1.507757 -8.970171 -14.787513 0 1.000000 1.000000 1.000000 0.090701 -0.517257 -0.851011
3042 1 9.265752 -14.673934 -0.515130 0 1.000000 1.000000 1.000000 0.534788 -0.844302 -0.033984
3043 1 9.398698 -14.559859 -1.047765 0 1.000000 1.000000 1.000000 0.540617 -0.839315 -0.057313
3044 1 8.970171 -14.787513 -1.507757 0 1.000000 1.000000 1.000000 0.517257 -0.851011 -0.090701
3045 1 9.084967 -14.646859 -2.077932 0 1.000000 1.000000 1.000000 0.523114 -0.844183 -0.117079
3046 1 8.620141 -14.849933 -2.558176 0 1.000000 1.000000 1.000000 0.496603 -0.854801 -0.150667
3047 1 8.713378 -14.677206 -3.162905 0 1.000000 1.000000 1.000000 0.502253 -0.845764 -0.180071
3048 1 8.211774 -14.850107 -3.657579 0 1.000000 1.000000 1.000000 0.472640 -0.855031 -0.213385
3049 1 8.280475 -14.639895 -4.291751 0 1.000000 1.000000 1.000000 0.477795 -0.843428 -0.245643
3050 1 7.743023 -14.777543 -4.793233 0 1.000000 1.000000 1.000000 0.445288 -0.851091 -0.278143
3051 1 7.785030 -14.525056 -5.449494 0 1.000000 1.000000 1.000000 0.449627 -0.836614 -0.312908
3052 1 7.214363 -14.623480 -5.948609 0 1.000000 1.000000 1.000000 0.414615 -0.842465 -0.344016
3053 1 7.228709 -14.325179 -6.617526 0 1.000000 1.000000 1.000000 0.417804 -0.824900 -0.380762
3054 1 6.629309 -14.382091 -7.104091 0 1.000000 1.000000 1.000000 0.380860 -0.828806 -0.409911
3055 1 6.616499 -14.036305 -7.774652 0 1.000000 1.000000 1.000000 0.382581 -0.808068 -0.447948
3056 1 5.994618 -14.051543 -8.238280 0 1.000000 1.000000 1.000000 0.344432 -0.809995 -0.474632
3057 1 5.956733 -13.658921 -8.898707 0 1.000000 1.000000 1.000000 0.344424 -0.786160 -0.513152
3058 1 5.320051 -13.634638 -9.329751 0 1.000000 1.000000 1.000000 0.305899 -0.786180 -0.536980
3059 1 5.260619 -13.198325 -9.968513 0 1.000000 1.000000 1.000000 0.303981 -0.759491 -0.575125
3060 1 4.617674 -13.138832 -10.358984 0 1.000000 1.000000 1.000000 0.265939 -0.757781 -0.595855
3061 1 4.541322 -12.664283 -10.965810 0 1.000000 1.000000 1.000000 0.262037 -0.728631 -0.632798
3062 1 3.900803 -12.575587 -11.310061 0 1.000000 1.000000 1.000000 0.225286 -0.725453 -0.650356
3063 1 3.812759 -12.070058 -11.876763 0 1.000000 1.000000 1.000000 0.219434 -0.694347 -0.685369
3064 1 3.182806 -11.959174 -12.171819 0 1.000000 1.000000 1.000000 0.184664 -0.690017 -0.699840
3065 1 3.088361 -11.430992 -12.692768 0 1.000000 1.000000 1.000000 0.176994 -0.657522 -0.732351
3066 1 2.475995 -11.305201 -12.938264 0 1.000000 1.000000 1.000000 0.144733 -0.652374 -0.743949
3067 1 2.380027 -10.762980 -13.410482 0 1.000000 1.000000 1.000000 0.135452 -0.619068 -0.773568
3068 1 1.790796 -10.629166 -13.608287 0 1.000000 1.000000 1.000000 0.106046 -0.613423 -0.782602
3069 1 1.697438 -10.081114 -14.031206 0 1.000000 1.000000 1.000000 0.095409 -0.579847 -0.809120
3070 1 1.135293 -9.945292 -14.184854 0 1.000000 1.000000 1.000000 0.069030 -0.573991 -0.815946
3071 1 1.047765 -9.398698 -14.559859 0 1.000000 1.000000 1.000000 0.057313 -0.540617 -0.839315
3072 1 0.515130 -9.265752 -14.673934 0 1.000000 1.000000 1.000000 0.033984 -0.534788 -0.844302
3073 1 8.750622 -14.992302 -0.318368 0 1.000000 1.000000 1.000000 0.500804 -0.865306 -0.021003
3074 1 7.834877 -15.489163 -0.329186 0 1.000000 1.000000 1.000000 0.448226 -0.893674 -0.020992
3075 1 8.350933 -15.207413 -0.647554 0 1.000000 1.000000 1.000000 0.483304 -0.874736 -0.035421
3076 1 8.437536 -15.116699 -1.304308 0 1.000000 1.000000 1.000000 0.483290 -0.872003 -0.077727
3077 1 6.829344 -15.956706 -0.339393 0 1.000000 1.000000 1.000000 0.390558 -0.920341 -0.020919
3078 1 7.387530 -15.695933 -0.668580 0 1.000000 1.000000 1.000000 0.427704 -0.903149 -0.037296
3079 1 7.469232 -15.612923 -1.347367 0 1.000000 1.000000 1.000000 0.427692 -0.900413 -0.079599
3080 1 8.003182 -15.315439 -1.664727 0 1.000000 1.000000 1.000000 0.462767 -0.881479 -0.094029
3081 1 8.070991 -15.189327 -2.348419 0 1.000000 1.000000 1.000000 0.462756 -0.875720 -0.137738
3082 1 5.735779 -16.380356 -0.348665 0 1.000000 1.000000 1.000000 0.327907 -0.944481 -0.020798
3083 1 6.333351 -16.148144 -0.688059 0 1.000000 1.000000 1.000000 0.366801 -0.929478 -0.039094
3084 1 6.407569 -16.073187 -1.387329 0 1.000000 1.000000 1.000000 0.366789 -0.926747 -0.081277
3085 1 6.985265 -15.798739 -1.717450 0 1.000000 1.000000 1.000000 0.404031 -0.909513 -0.097698
3086 1 7.048300 -15.677193 -2.424053 0 1.000000 1.000000 1.000000 0.404021 -0.903736 -0.141519
3087 1 7.600075 -15.365265 -2.737661 0 1.000000 1.000000 1.000000 0.438997 -0.884858 -0.155910
3088 1 7.647622 -15.198772 -3.442092 0 1.000000 1.000000 1.000000 0.438989 -0.875829 -0.200532
3089 1 4.560217 -16.744626 -0.356656 0 1.000000 1.000000 1.000000 0.260623 -0.965220 -0.020651
3090 1 5.192114 -16.548607 -0.705322 0 1.000000 1.000000 1.000000 0.300802 -0.952816 -0.040739
3091 1 5.256078 -16.481544 -1.422804 0 1.000000 1.000000 1.000000 0.300791 -0.950096 -0.082716
3092 1 5.873961 -16.238337 -1.765418 0 1.000000 1.000000 1.000000 0.339850 -0.935031 -0.101092
3093 1 5.930006 -16.121649 -2.492977 0 1.000000 1.000000 1.000000 0.339841 -0.929252 -0.144910
3094 1 6.526649 -15.834953 -2.821490 0 1.000000 1.000000 1.000000 0.377080 -0.912021 -0.161332
3095 1 6.570043 -15.669469 -3.548845 0 1.000000 1.000000 1.000000 0.377073 -0.902952 -0.206142
3096 1 7.139241 -15.345216 -3.855839 0 1.000000 1.000000 1.000000 0.411879 -0.884167 -0.220466
3097 1 7.165942 -15.134200 -4.572807 0 1.000000 1.000000 1.000000 0.411874 -0.871741 -0.265380
3098 1 3.313560 -17.034309 -0.363024 0 1.000000 1.000000 1.000000 0.189329 -0.981700 -0.020505
3099 1 3.972271 -16.881471 -0.719680 0 1.000000 1.000000 1.000000 0.230194 -0.972232 -0.042143
3100 1 4.023240 -16.821532 -1.452355 0 1.000000 1.000000 1.000000 0.230185 -0.969525 -0.083879
3101 1 4.675150 -16.617625 -1.806815 0 1.000000 1.000000 1.000000 0.270559 -0.957062 -0.104065
3102 1 4.721902 -16.505687 -2.552547 0 1.000000 1.000000 1.000000 0.270551 -0.951293 -0.147798
3103 1 5.358876 -16.252919 -2.896095 0 1.000000 1.000000 1.000000 0.309677 -0.936203 -0.166206
3104 1 5.396435 -16.088803 -3.643964 0 1.000000 1.000000 1.000000 0.309671 -0.927116 -0.211094
3105 1 6.010960 -15.792049 -3.968200 0 1.000000 1.000000 1.000000 0.346838 -0.909920 -0.227486
3106 1 6.034779 -15.578333 -4.707094 0 1.000000 1.000000 1.000000 0.346833 -0.897433 -0.272619
3107 1 6.620564 -15.244736 -5.004708 0 1.000000 1.000000 1.000000 0.381439 -0.878757 -0.286863
3108 1 6.626979 -14.986504 -5.724248 0 1.000000 1.000000 1.000000 0.381437 -0.862970 -0.331343
3109 1 2.011634 -17.235970 -0.367463 0 1.000000 1.000000 1.000000 0.114920 -0.993165 -0.020388
3110 1 2.687387 -17.131871 -0.730486 0 1.000000 1.000000 1.000000 0.155767 -0.986848 -0.043223
3111 1 2.722924 -17.077635 -1.474625 0 1.000000 1.000000 1.000000 0.155761 -0.984154 -0.084732
3112 1 3.400066 -16.920135 -1.839838 0 1.000000 1.000000 1.000000 0.196809 -0.974644 -0.106467
3113 1 3.435339 -16.812365 -2.600129 0 1.000000 1.000000 1.000000 0.196803 -0.968889 -0.150075
3114 1 4.105265 -16.601824 -2.958379 0 1.000000 1.000000 1.000000 0.237277 -0.956396 -0.170313
3115 1 4.135304 -16.439198 -3.723457 0 1.000000 1.000000 1.000000 0.237272 -0.947308 -0.215197
3116 1 4.789499 -16.178944 -4.065493 0 1.000000 1.000000 1.000000 0.276395 -0.932220 -0.233607
3117 1 4.809427 -15.963131 -4.823451 0 1.000000 1.000000 1.000000 0.276391 -0.919701 -0.278852
3118 1 5.440182 -15.659273 -5.140815 0 1.000000 1.000000 1.000000 0.313452 -0.902555 -0.295200
3119 1 5.445745 -15.394839 -5.880241 0 1.000000 1.000000 1.000000 0.313451 -0.886696 -0.339880
3120 1 6.046757 -15.055666 -6.166061 0 1.000000 1.000000 1.000000 0.347868 -0.868123 -0.354049
3121 1 6.034741 -14.749554 -6.876987 0 1.000000 1.000000 1.000000 0.347871 -0.849194 -0.397310
3122 1 0.674566 -17.339516 -0.369745 0 1.000000 1.000000 1.000000 0.038533 -0.999051 -0.020323
3123 1 1.355880 -17.287546 -0.737207 0 1.000000 1.000000 1.000000 0.078600 -0.995939 -0.043904
3124 1 1.374145 -17.237007 -1.488487 0 1.000000 1.000000 1.000000 0.078597 -0.993254 -0.085254
3125 1 2.065436 -17.131196 -1.862881 0 1.000000 1.000000 1.000000 0.119573 -0.986916 -0.108160
3126 1 2.087412 -17.026538 -2.633365 0 1.000000 1.000000 1.000000 0.119569 -0.981176 -0.151650
3127 1 2.780173 -16.865207 -3.005400 0 1.000000 1.000000 1.000000 0.160712 -0.971644 -0.173436
3128 1 2.801175 -16.703921 -3.783521 0 1.000000 1.000000 1.000000 0.160708 -0.962563 -0.218276
3129 1 3.486379 -16.488452 -4.143327 0 1.000000 1.000000 1.000000 0.201216 -0.950060 -0.238532
3130 1 3.501451 -16.271127 -4.916590 0 1.000000 1.000000 1.000000 0.201213 -0.937530 -0.283815
3131 1 4.170303 -16.006060 -5.254677 0 1.000000 1.000000 1.000000 0.240298 -0.922457 -0.302209
3132 1 4.174759 -15.736487 -6.010763 0 1.000000 1.000000 1.000000 0.240297 -0.906562 -0.346992
3133 1 4.819446 -15.429124 -6.318963 0 1.000000 1.000000 1.000000 0.277257 -0.889462 -0.363298
3134 1 4.809389 -15.113909 -7.046829 0 1.000000 1.000000 1.000000 0.277259 -0.870474 -0.406696
3135 1 5.423672 -14.773512 -7.319033 0 1.000000 1.000000 1.000000 0.311543 -0.851972 -0.420814
3136 1 5.396359 -14.421288 -8.009765 0 1.000000 1.000000 1.000000 0.311548 -0.830318 -0.462071
3137 1 -0.674566 -17.339516 -0.369745 0 1.000000 1.000000 1.000000 -0.038533 -0.999051 -0.020323
3138 1 -0.000000 -17.340384 -0.739489 0 1.000000 1.000000 1.000000 0.000000 -0.999025 -0.044137
3139 1 -0.000000 -17.291127 -1.493196 0 1.000000 1.000000 1.000000 -0.000000 -0.996344 -0.085429
3140 1 0.692831 -17.239720 -1.874731 0 1.000000 1.000000 1.000000 0.040113 -0.993228 -0.109035
3141 1 0.700298 -17.136728 -2.650466 0 1.000000 1.000000 1.000000 0.040111 -0.987496 -0.152456
3142 1 1.403588 -17.029357 -3.034706 0 1.000000 1.000000 1.000000 0.081144 -0.981149 -0.175392
3143 1 1.414401 -16.869001 -3.820979 0 1.000000 1.000000 1.000000 0.081142 -0.972077 -0.220187
3144 1 2.119228 -16.704896 -4.197759 0 1.000000 1.000000 1.000000 0.122321 -0.962537 -0.241992
3145 1 2.128633 -16.486602 -4.981754 0 1.000000 1.000000 1.000000 0.122319 -0.950006 -0.287273
3146 1 2.825652 -16.268301 -5.340778 0 1.000000 1.000000 1.000000 0.162825 -0.937504 -0.307529
3147 1 2.828772 -15.994873 -6.109478 0 1.000000 1.000000 1.000000 0.162824 -0.921595 -0.352352
3148 1 3.509026 -15.728125 -6.441376 0 1.000000 1.000000 1.000000 0.201868 -0.906537 -0.370729
3149 1 3.501417 -15.405541 -7.182772 0 1.000000 1.000000 1.000000 0.201870 -0.887524 -0.414186
3150 1 4.157093 -15.098688 -7.480024 0 1.000000 1.000000 1.000000 0.238770 -0.870452 -0.430469
3151 1 4.135232 -14.735413 -8.184141 0 1.000000 1.000000 1.000000 0.238774 -0.848774 -0.471773
3152 1 4.760214 -14.398410 -8.441677 0 1.000000 1.000000 1.000000 0.273008 -0.830297 -0.485874
3153 1 4.721792 -14.004383 -9.101236 0 1.000000 1.000000 1.000000 0.273015 -0.806503 -0.524419
3154 1 -2.011634 -17.235970 -0.367463 0 1.000000 1.000000 1.000000 -0.114920 -0.993165 -0.020388
3155 1 -1.355880 -17.287546 -0.737207 0 1.000000 1.000000 1.000000 -0.078600 -0.995939 -0.043904
3156 1 -1.374145 -17.237007 -1.488487 0 1.000000 1.000000 1.000000 -0.078597 -0.993254 -0.085254
3157 1 -0.692831 -17.239720 -1.874731 0 1.000000 1.000000 1.000000 -0.040113 -0.993228 -0.109035
3158 1 -0.700298 -17.136728 -2.650466 0 1.000000 1.000000 1.000000 -0.040111 -0.987496 -0.152456
3159 1 0.000000 -17.085144 -3.044666 0 1.000000 1.000000 1.000000 -0.000000 -0.984380 -0.176059
3160 1 0.000000 -16.925121 -3.833714 0 1.000000 1.000000 1.000000 -0.000000 -0.975311 -0.220835
3161 1 0.711112 -16.816349 -4.225788 0 1.000000 1.000000 1.000000 0.041047 -0.968962 -0.243779
3162 1 0.714311 -16.597585 -5.015319 0 1.000000 1.000000 1.000000 0.041046 -0.956434 -0.289050
3163 1 1.427006 -16.431944 -5.394506 0 1.000000 1.000000 1.000000 0.082232 -0.946892 -0.310859
3164 1 1.428613 -16.156122 -6.171085 0 1.000000 1.000000 1.000000 0.082231 -0.930980 -0.355689
3165 1 2.133360 -15.937352 -6.527033 0 1.000000 1.000000 1.000000 0.122727 -0.918480 -0.375942
3166 1 2.128610 -15.609568 -7.277878 0 1.000000 1.000000 1.000000 0.122728 -0.899461 -0.419414
3167 1 2.816413 -15.344505 -7.601718 0 1.000000 1.000000 1.000000 0.161755 -0.884409 -0.437785
3168 1 2.801119 -14.972733 -8.315878 0 1.000000 1.000000 1.000000 0.161758 -0.862734 -0.479087
3169 1 3.464262 -14.670495 -8.601048 0 1.000000 1.000000 1.000000 0.198657 -0.845661 -0.495372
3170 1 3.435244 -14.264641 -9.270242 0 1.000000 1.000000 1.000000 0.198662 -0.821899 -0.533869
3171 1 4.067792 -13.935532 -9.512893 0 1.000000 1.000000 1.000000 0.232943 -0.803395 -0.547991
3172 1 4.023107 -13.506295 -10.131879 0 1.000000 1.000000 1.000000 0.232950 -0.778170 -0.583255
3173 1 -3.313560 -17.034309 -0.363024 0 1.000000 1.000000 1.000000 -0.189329 -0.981700 -0.020505
3174 1 -2.687387 -17.131871 -0.730486 0 1.000000 1.000000 1.000000 -0.155767 -0.986848 -0.043223
3175 1 -2.722924 -17.077635 -1.474625 0 1.000000 1.000000 1.000000 -0.155761 -0.984154 -0.084732
3176 1 -2.065436 -17.131196 -1.862881 0 1.000000 1.000000 1.000000 -0.119573 -0.986916 -0.108160
3177 1 -2.087412 -17.026538 -2.633365 0 1.000000 1.000000 1.000000 -0.119569 -0.981176 -0.151650
3178 1 -1.403588 -17.029357 -3.034706 0 1.000000 1.000000 1.000000 -0.081144 -0.981149 -0.175392
3179 1 -1.414401 -16.869001 -3.820979 0 1.000000 1.000000 1.000000 -0.081142 -0.972077 -0.220187
3180 1 -0.711112 -16.816349 -4.225788 0 1.000000 1.000000 1.000000 -0.041047 -0.968962 -0.243779
3181 1 -0.714311 -16.597585 -5.015319 0 1.000000 1.000000 1.000000 -0.041046 -0.956434 -0.289050
3182 1 0.000000 -16.487593 -5.412777 0 1.000000 1.000000 1.000000 -0.000000 -0.950085 -0.311993
3183 1 -0.000000 -16.210961 -6.192036 0 1.000000 1.000000 1.000000 -0.000000 -0.934172 -0.356822
3184 1 0.715918 -16.045132 -6.571157 0 1.000000 1.000000 1.000000 0.041185 -0.924631 -0.378631
3185 1 0.714302 -15.714654 -7.326863 0 1.000000 1.000000 1.000000 0.041185 -0.905612 -0.422103
3186 1 1.422248 -15.497860 -7.677636 0 1.000000 1.000000 1.000000 0.081681 -0.893112 -0.442356
3187 1 1.414370 -15.120724 -8.398028 0 1.000000 1.000000 1.000000 0.081682 -0.871446 -0.483642
3188 1 2.105438 -14.860660 -8.712429 0 1.000000 1.000000 1.000000 0.120724 -0.856388 -0.502022
3189 1 2.087347 -14.446395 -9.388266 0 1.000000 1.000000 1.000000 0.120728 -0.832664 -0.540459
3190 1 2.754010 -14.152614 -9.660909 0 1.000000 1.000000 1.000000 0.157684 -0.815562 -0.556772
3191 1 2.722821 -13.711979 -10.286025 0 1.000000 1.000000 1.000000 0.157690 -0.790431 -0.591907
3192 1 3.359370 -13.394769 -10.514344 0 1.000000 1.000000 1.000000 0.192101 -0.771853 -0.606085
3193 1 3.313419 -12.938611 -11.085700 0 1.000000 1.000000 1.000000 0.192109 -0.745958 -0.637684
3194 1 -4.560217 -16.744626 -0.356656 0 1.000000 1.000000 1.000000 -0.260623 -0.965220 -0.020651
3195 1 -3.972271 -16.881471 -0.719680 0 1.000000 1.000000 1.000000 -0.230194 -0.972232 -0.042143
3196 1 -4.023240 -16.821532 -1.452355 0 1.000000 1.000000 1.000000 -0.230185 -0.969525 -0.083879
3197 1 -3.400066 -16.920135 -1.839838 0 1.000000 1.000000 1.000000 -0.196809 -0.974644 -0.106467
3198 1 -3.435339 -16.812365 -2.600129 0 1.000000 1.000000 1.000000 -0.196803 -0.968889 -0.150075
3199 1 -2.780173 -16.865207 -3.005400 0 1.000000 1.000000 1.000000 -0.160712 -0.971644 -0.173436
3200 1 -2.801175 -16.703921 -3.783521 0 1.000000 1.000000 1.000000 -0.160708 -0.962563 -0.218276
3201 1 -2.119228 -16.704896 -4.197759 0 1.000000 1.000000 1.000000 -0.122321 -0.962537 -0.241992
3202 1 -2.128633 -16.486602 -4.981754 0 1.000000 1.000000 1.000000 -0.122319 -0.950006 -0.287273
3203 1 -1.427006 -16.431944 -5.394506 0 1.000000 1.000000 1.000000 -0.082232 -0.946892 -0.310859
3204 1 -1.428613 -16.156122 -6.171085 0 1.000000 1.000000 1.000000 -0.082231 -0.930980 -0.355689
3205 1 -0.715918 -16.045132 -6.571157 0 1.000000 1.000000 1.000000 -0.041185 -0.924631 -0.378631
3206 1 -0.714302 -15.714654 -7.326863 0 1.000000 1.000000 1.000000 -0.041185 -0.905612 -0.422103
3207 1 -0.000000 -15.550006 -7.703450 0 1.000000 1.000000 1.000000 0.000000 -0.896070 -0.443912
3208 1 -0.000000 -15.171034 -8.425955 0 1.000000 1.000000 1.000000 0.000000 -0.874409 -0.485189
3209 1 0.706425 -14.958547 -8.769760 0 1.000000 1.000000 1.000000 0.040504 -0.861906 -0.505448
3210 1 0.700275 -14.539905 -9.448987 0 1.000000 1.000000 1.000000 0.040505 -0.838207 -0.543846
3211 1 1.390130 -14.287818 -9.753091 0 1.000000 1.000000 1.000000 0.079586 -0.823132 -0.562246
3212 1 1.374088 -13.839975 -10.381946 0 1.000000 1.000000 1.000000 0.079589 -0.798070 -0.597286
3213 1 2.040116 -13.557917 -10.642237 0 1.000000 1.000000 1.000000 0.116643 -0.780920 -0.613643
3214 1 2.011539 -13.091834 -11.216833 0 1.000000 1.000000 1.000000 0.116648 -0.755171 -0.645067
3215 1 2.648293 -12.789738 -11.431977 0 1.000000 1.000000 1.000000 0.151245 -0.736490 -0.659324
3216 1 2.605724 -12.315831 -11.951393 0 1.000000 1.000000 1.000000 0.151251 -0.710667 -0.687077
3217 1 -5.735779 -16.380356 -0.348665 0 1.000000 1.000000 1.000000 -0.327907 -0.944481 -0.020798
3218 1 -5.192114 -16.548607 -0.705322 0 1.000000 1.000000 1.000000 -0.300802 -0.952816 -0.040739
3219 1 -5.256078 -16.481544 -1.422804 0 1.000000 1.000000 1.000000 -0.300791 -0.950096 -0.082716
3220 1 -4.675150 -16.617625 -1.806815 0 1.000000 1.000000 1.000000 -0.270559 -0.957062 -0.104065
3221 1 -4.721902 -16.505687 -2.552547 0 1.000000 1.000000 1.000000 -0.270551 -0.951293 -0.147798
3222 1 -4.105265 -16.601824 -2.958379 0 1.000000 1.000000 1.000000 -0.237277 -0.956396 -0.170313
3223 1 -4.135304 -16.439198 -3.723457 0 1.000000 1.000000 1.000000 -0.237272 -0.947308 -0.215197
3224 1 -3.486379 -16.488452 -4.143327 0 1.000000 1.000000 1.000000 -0.201216 -0.950060 -0.238532
3225 1 -3.501451 -16.271127 -4.916590 0 1.000000 1.000000 1.000000 -0.201213 -0.937530 -0.283815
3226 1 -2.825652 -16.268301 -5.340778 0 1.000000 1.000000 1.000000 -0.162825 -0.937504 -0.307529
3227 1 -2.828772 -15.994873 -6.109478 0 1.000000 1.000000 1.000000 -0.162824 -0.921595 -0.352352
3228 1 -2.133360 -15.937352 -6.527033 0 1.000000 1.000000 1.000000 -0.122727 -0.918480 -0.375942
3229 1 -2.128610 -15.609568 -7.277878 0 1.000000 1.000000 1.000000 -0.122728 -0.899461 -0.419414
3230 1 -1.422248 -15.497860 -7.677636 0 1.000000 1.000000 1.000000 -0.081681 -0.893112 -0.442356
3231 1 -1.414370 -15.120724 -8.398028 0 1.000000 1.000000 1.000000 -0.081682 -0.871446 -0.483642
3232 1 -0.706425 -14.958547 -8.769760 0 1.000000 1.000000 1.000000 -0.040504 -0.861906 -0.505448
3233 1 -0.700275 -14.539905 -9.448987 0 1.000000 1.000000 1.000000 -0.040505 -0.838207 -0.543846
3234 1 -0.000000 -14.333751 -9.784408 0 1.000000 1.000000 1.000000 -0.000000 -0.825702 -0.564107
3235 1 0.000000 -13.883440 -10.414519 0 1.000000 1.000000 1.000000 -0.000000 -0.800666 -0.599111
3236 1 0.684234 -13.641751 -10.707952 0 1.000000 1.000000 1.000000 0.039118 -0.785574 -0.617530
3237 1 0.674533 -13.170507 -11.284162 0 1.000000 1.000000 1.000000 0.039119 -0.759906 -0.648855
3238 1 1.335810 -12.902647 -11.532752 0 1.000000 1.000000 1.000000 0.076278 -0.742705 -0.665260
3239 1 1.313966 -12.421034 -12.053358 0 1.000000 1.000000 1.000000 0.076281 -0.717052 -0.692833
3240 1 1.947127 -12.136314 -12.256856 0 1.000000 1.000000 1.000000 0.111077 -0.698261 -0.707173
3241 1 1.911843 -11.653866 -12.722777 0 1.000000 1.000000 1.000000 0.111082 -0.673171 -0.731096
3242 1 -6.829344 -15.956706 -0.339393 0 1.000000 1.000000 1.000000 -0.390558 -0.920341 -0.020919
3243 1 -6.333351 -16.148144 -0.688059 0 1.000000 1.000000 1.000000 -0.366801 -0.929478 -0.039094
3244 1 -6.407569 -16.073187 -1.387329 0 1.000000 1.000000 1.000000 -0.366789 -0.926747 -0.081277
3245 1 -5.873961 -16.238337 -1.765418 0 1.000000 1.000000 1.000000 -0.339850 -0.935031 -0.101092
3246 1 -5.930006 -16.121649 -2.492977 0 1.000000 1.000000 1.000000 -0.339841 -0.929252 -0.144910
3247 1 -5.358876 -16.252919 -2.896095 0 1.000000 1.000000 1.000000 -0.309677 -0.936203 -0.166206
3248 1 -5.396435 -16.088803 -3.643964 0 1.000000 1.000000 1.000000 -0.309671 -0.927116 -0.211094
3249 1 -4.789499 -16.178944 -4.065493 0 1.000000 1.000000 1.000000 -0.276395 -0.932220 -0.233607
3250 1 -4.809427 -15.963131 -4.823451 0 1.000000 1.000000 1.000000 -0.276391 -0.919701 -0.278852
3251 1 -4.170303 -16.006060 -5.254677 0 1.000000 1.000000 1.000000 -0.240298 -0.922457 -0.302209
3252 1 -4.174759 -15.736487 -6.010763 0 1.000000 1.000000 1.000000 -0.240297 -0.906562 -0.346992
3253 1 -3.509026 -15.728125 -6.441376 0 1.000000 1.000000 1.000000 -0.201868 -0.906537 -0.370729
3254 1 -3.501417 -15.405541 -7.182772 0 1.000000 1.000000 1.000000 -0.201870 -0.887524 -0.414186
3255 1 -2.816413 -15.344505 -7.601718 0 1.000000 1.000000 1.000000 -0.161755 -0.884409 -0.437785
3256 1 -2.801119 -14.972733 -8.315878 0 1.000000 1.000000 1.000000 -0.161758 -0.862734 -0.479087
3257 1 -2.105438 -14.860660 -8.712429 0 1.000000 1.000000 1.000000 -0.120724 -0.856388 -0.502022
3258 1 -2.087347 -14.446395 -9.388266 0 1.000000 1.000000 1.000000 -0.120728 -0.832664 -0.540459
3259 1 -1.390130 -14.287818 -9.753091 0 1.000000 1.000000 1.000000 -0.079586 -0.823132 -0.562246
3260 1 -1.374088 -13.839975 -10.381946 0 1.000000 1.000000 1.000000 -0.079589 -0.798070 -0.597286
3261 1 -0.684234 -13.641751 -10.707952 0 1.000000 1.000000 1.000000 -0.039118 -0.785574 -0.617530
3262 1 -0.674533 -13.170507 -11.284162 0 1.000000 1.000000 1.000000 -0.039119 -0.759906 -0.648855
3263 1 0.000000 -12.940952 -11.566938 0 1.000000 1.000000 1.000000 -0.000000 -0.744811 -0.667275
3264 1 -0.000000 -12.456704 -12.087929 0 1.000000 1.000000 1.000000 -0.000000 -0.719219 -0.694783
3265 1 0.652688 -12.204646 -12.325758 0 1.000000 1.000000 1.000000 0.037230 -0.701982 -0.711221
3266 1 0.640731 -11.717098 -12.791718 0 1.000000 1.000000 1.000000 0.037232 -0.677048 -0.734996
3267 1 1.266724 -11.451039 -12.985239 0 1.000000 1.000000 1.000000 0.072196 -0.658163 -0.749406
3268 1 1.241646 -10.968560 -13.398531 0 1.000000 1.000000 1.000000 0.072199 -0.634342 -0.769674
3269 1 -7.834877 -15.489163 -0.329186 0 1.000000 1.000000 1.000000 -0.448226 -0.893674 -0.020992
3270 1 -7.387530 -15.695933 -0.668580 0 1.000000 1.000000 1.000000 -0.427704 -0.903149 -0.037296
3271 1 -7.469232 -15.612923 -1.347367 0 1.000000 1.000000 1.000000 -0.427692 -0.900413 -0.079599
3272 1 -6.985265 -15.798739 -1.717450 0 1.000000 1.000000 1.000000 -0.404031 -0.909513 -0.097698
3273 1 -7.048300 -15.677193 -2.424053 0 1.000000 1.000000 1.000000 -0.404021 -0.903736 -0.141519
3274 1 -6.526649 -15.834953 -2.821490 0 1.000000 1.000000 1.000000 -0.377080 -0.912021 -0.161332
3275 1 -6.570043 -15.669469 -3.548845 0 1.000000 1.000000 1.000000 -0.377073 -0.902952 -0.206142
3276 1 -6.010960 -15.792049 -3.968200 0 1.000000 1.000000 1.000000 -0.346838 -0.909920 -0.227486
3277 1 -6.034779 -15.578333 -4.707094 0 1.000000 1.000000 1.000000 -0.346833 -0.897433 -0.272619
3278 1 -5.440182 -15.659273 -5.140815 0 1.000000 1.000000 1.000000 -0.313452 -0.902555 -0.295200
3279 1 -5.445745 -15.394839 -5.880241 0 1.000000 1.000000 1.000000 -0.313451 -0.886696 -0.339880
3280 1 -4.819446 -15.429124 -6.318963 0 1.000000 1.000000 1.000000 -0.277257 -0.889462 -0.363298
3281 1 -4.809389 -15.113909 -7.046829 0 1.000000 1.000000 1.000000 -0.277259 -0.870474 -0.406696
3282 1 -4.157093 -15.098688 -7.480024 0 1.000000 1.000000 1.000000 -0.238770 -0.870452 -0.430469
3283 1 -4.135232 -14.735413 -8.184141 0 1.000000 1.000000 1.000000 -0.238774 -0.848774 -0.471773
3284 1 -3.464262 -14.670495 -8.601048 0 1.000000 1.000000 1.000000 -0.198657 -0.845661 -0.495372
3285 1 -3.435244 -14.264641 -9.270242 0 1.000000 1.000000 1.000000 -0.198662 -0.821899 -0.533869
3286 1 -2.754010 -14.152614 -9.660909 0 1.000000 1.000000 1.000000 -0.157684 -0.815562 -0.556772
3287 1 -2.722821 -13.711979 -10.286025 0 1.000000 1.000000 1.000000 -0.157690 -0.790431 -0.591907
3288 1 -2.040116 -13.557917 -10.642237 0 1.000000 1.000000 1.000000 -0.116643 -0.780920 -0.613643
3289 1 -2.011539 -13.091834 -11.216833 0 1.000000 1.000000 1.000000 -0.116648 -0.755171 -0.645067
3290 1 -1.335810 -12.902647 -11.532752 0 1.000000 1.000000 1.000000 -0.076278 -0.742705 -0.665260
3291 1 -1.313966 -12.421034 -12.053358 0 1.000000 1.000000 1.000000 -0.076281 -0.717052 -0.692833
3292 1 -0.652688 -12.204646 -12.325758 0 1.000000 1.000000 1.000000 -0.037230 -0.701982 -0.711221
3293 1 -0.640731 -11.717098 -12.791718 0 1.000000 1.000000 1.000000 -0.037232 -0.677048 -0.734996
3294 1 0.000000 -11.481608 -13.019847 0 1.000000 1.000000 1.000000 -0.000000 -0.659808 -0.751434
3295 1 0.000000 -10.996684 -13.432838 0 1.000000 1.000000 1.000000 -0.000000 -0.636085 -0.771619
3296 1 0.615653 -10.749694 -13.618001 0 1.000000 1.000000 1.000000 0.035063 -0.617143 -0.786069
3297 1 0.602658 -10.274479 -13.981406 0 1.000000 1.000000 1.000000 0.035064 -0.594984 -0.802973
3298 1 -8.750622 -14.992302 -0.318368 0 1.000000 1.000000 1.000000 -0.500804 -0.865306 -0.021003
3299 1 -8.350933 -15.207413 -0.647554 0 1.000000 1.000000 1.000000 -0.483304 -0.874736 -0.035421
3300 1 -8.437536 -15.116699 -1.304308 0 1.000000 1.000000 1.000000 -0.483290 -0.872003 -0.077727
3301 1 -8.003182 -15.315439 -1.664727 0 1.000000 1.000000 1.000000 -0.462767 -0.881479 -0.094029
3302 1 -8.070991 -15.189327 -2.348419 0 1.000000 1.000000 1.000000 -0.462756 -0.875720 -0.137738
3303 1 -7.600075 -15.365265 -2.737661 0 1.000000 1.000000 1.000000 -0.438997 -0.884858 -0.155910
3304 1 -7.647622 -15.198772 -3.442092 0 1.000000 1.000000 1.000000 -0.438989 -0.875829 -0.200532
3305 1 -7.139241 -15.345216 -3.855839 0 1.000000 1.000000 1.000000 -0.411879 -0.884167 -0.220466
3306 1 -7.165942 -15.134200 -4.572807 0 1.000000 1.000000 1.000000 -0.411874 -0.871741 -0.265380
3307 1 -6.620564 -15.244736 -5.004708 0 1.000000 1.000000 1.000000 -0.381439 -0.878757 -0.286863
3308 1 -6.626979 -14.986504 -5.724248 0 1.000000 1.000000 1.000000 -0.381437 -0.862970 -0.331343
3309 1 -6.046757 -15.055666 -6.166061 0 1.000000 1.000000 1.000000 -0.347868 -0.868123 -0.354049
3310 1 -6.034741 -14.749554 -6.876987 0 1.000000 1.000000 1.000000 -0.347871 -0.849194 -0.397310
3311 1 -5.423672 -14.773512 -7.319033 0 1.000000 1.000000 1.000000 -0.311543 -0.851972 -0.420814
3312 1 -5.396359 -14.421288 -8.009765 0 1.000000 1.000000 1.000000 -0.311548 -0.830318 -0.462071
3313 1 -4.760214 -14.398410 -8.441677 0 1.000000 1.000000 1.000000 -0.273008 -0.830297 -0.485874
3314 1 -4.721792 -14.004383 -9.101236 0 1.000000 1.000000 1.000000 -0.273015 -0.806503 -0.524419
3315 1 -4.067792 -13.935532 -9.512893 0 1.000000 1.000000 1.000000 -0.232943 -0.803395 -0.547991
3316 1 -4.023107 -13.506295 -10.131879 0 1.000000 1.000000 1.000000 -0.232950 -0.778170 -0.583255
3317 1 -3.359370 -13.394769 -10.514344 0 1.000000 1.000000 1.000000 -0.192101 -0.771853 -0.606085
3318 1 -3.313419 -12.938611 -11.085700 0 1.000000 1.000000 1.000000 -0.192109 -0.745958 -0.637684
3319 1 -2.648293 -12.789738 -11.431977 0 1.000000 1.000000 1.000000 -0.151245 -0.736490 -0.659324
3320 1 -2.605724 -12.315831 -11.951393 0 1.000000 1.000000 1.000000 -0.151251 -0.710667 -0.687077
3321 1 -1.947127 -12.136314 -12.256856 0 1.000000 1.000000 1.000000 -0.111077 -0.698261 -0.707173
3322 1 -1.911843 -11.653866 -12.722777 0 1.000000 1.000000 1.000000 -0.111082 -0.673171 -0.731096
3323 1 -1.266724 -11.451039 -12.985239 0 1.000000 1.000000 1.000000 -0.072196 -0.658163 -0.749406
3324 1 -1.241646 -10.968560 -13.398531 0 1.000000 1.000000 1.000000 -0.072199 -0.634342 -0.769674
3325 1 -0.615653 -10.749694 -13.618001 0 1.000000 1.000000 1.000000 -0.035063 -0.617143 -0.786069
3326 1 -0.602658 -10.274479 -13.981406 0 1.000000 1.000000 1.000000 -0.035064 -0.594984 -0.802973
3327 1 0.000000 -10.046253 -14.159648 0 1.000000 1.000000 1.000000 0.000000 -0.576038 -0.817423
3328 1 0.000000 -9.584120 -14.477172 0 1.000000 1.000000 1.000000 -0.000000 -0.555791 -0.831322
3329 1 -9.265752 -14.673934 -0.515130 0 1.000000 1.000000 1.000000 -0.534788 -0.844302 -0.033984
3330 1 -9.945292 -14.184854 -1.135293 0 1.000000 1.000000 1.000000 -0.573991 -0.815946 -0.069030
3331 1 -9.398698 -14.559859 -1.047765 0 1.000000 1.000000 1.000000 -0.540617 -0.839315 -0.057313
3332 1 -8.970171 -14.787513 -1.507757 0 1.000000 1.000000 1.000000 -0.517257 -0.851011 -0.090701
3333 1 -10.629166 -13.608287 -1.790796 0 1.000000 1.000000 1.000000 -0.613423 -0.782602 -0.106046
3334 1 -10.081114 -14.031206 -1.697438 0 1.000000 1.000000 1.000000 -0.579847 -0.809120 -0.095409
3335 1 -9.649317 -14.265557 -2.180085 0 1.000000 1.000000 1.000000 -0.556486 -0.820814 -0.128794
3336 1 -9.084967 -14.646859 -2.077932 0 1.000000 1.000000 1.000000 -0.523114 -0.844183 -0.117079
3337 1 -8.620141 -14.849933 -2.558176 0 1.000000 1.000000 1.000000 -0.496603 -0.854801 -0.150667
3338 1 -11.305201 -12.938264 -2.475995 0 1.000000 1.000000 1.000000 -0.652374 -0.743949 -0.144733
3339 1 -10.762980 -13.410482 -2.380027 0 1.000000 1.000000 1.000000 -0.619068 -0.773568 -0.135452
3340 1 -10.329769 -13.649134 -2.885476 0 1.000000 1.000000 1.000000 -0.595771 -0.785228 -0.168740
3341 1 -9.764158 -14.081289 -2.778892 0 1.000000 1.000000 1.000000 -0.562110 -0.811815 -0.158079
3342 1 -9.293045 -14.289865 -3.281469 0 1.000000 1.000000 1.000000 -0.535529 -0.822460 -0.191751
3343 1 -8.713378 -14.677206 -3.162905 0 1.000000 1.000000 1.000000 -0.502253 -0.845764 -0.180071
3344 1 -8.211774 -14.850107 -3.657579 0 1.000000 1.000000 1.000000 -0.472640 -0.855031 -0.213385
3345 1 -11.959174 -12.171819 -3.182806 0 1.000000 1.000000 1.000000 -0.690017 -0.699840 -0.184664
3346 1 -11.430992 -12.692768 -3.088361 0 1.000000 1.000000 1.000000 -0.657522 -0.732351 -0.176994
3347 1 -10.998230 -12.932699 -3.616111 0 1.000000 1.000000 1.000000 -0.634336 -0.743954 -0.210119
3348 1 -10.439228 -13.416847 -3.509195 0 1.000000 1.000000 1.000000 -0.600890 -0.773699 -0.200800
3349 1 -9.963727 -13.628673 -4.033721 0 1.000000 1.000000 1.000000 -0.574309 -0.784343 -0.234469
3350 1 -9.383156 -14.069535 -3.912578 0 1.000000 1.000000 1.000000 -0.540651 -0.810929 -0.223810
3351 1 -8.872189 -14.246665 -4.428187 0 1.000000 1.000000 1.000000 -0.510910 -0.820235 -0.257263
3352 1 -8.280475 -14.639895 -4.291751 0 1.000000 1.000000 1.000000 -0.477795 -0.843428 -0.245643
3353 1 -7.743023 -14.777543 -4.793233 0 1.000000 1.000000 1.000000 -0.445288 -0.851091 -0.278143
3354 1 -12.575587 -11.310061 -3.900803 0 1.000000 1.000000 1.000000 -0.725453 -0.650356 -0.225286
3355 1 -12.070058 -11.876763 -3.812759 0 1.000000 1.000000 1.000000 -0.694347 -0.685369 -0.219434
3356 1 -11.639478 -12.114438 -4.361500 0 1.000000 1.000000 1.000000 -0.671292 -0.696906 -0.252366
3357 1 -11.095833 -12.649425 -4.259297 0 1.000000 1.000000 1.000000 -0.638639 -0.729576 -0.244659
3358 1 -10.617960 -12.861723 -4.804641 0 1.000000 1.000000 1.000000 -0.612108 -0.740199 -0.278261
3359 1 -10.044856 -13.356824 -4.685981 0 1.000000 1.000000 1.000000 -0.578605 -0.769996 -0.268928
3360 1 -9.526543 -13.536256 -5.221525 0 1.000000 1.000000 1.000000 -0.548812 -0.779318 -0.302438
3361 1 -8.934447 -13.985234 -5.084873 0 1.000000 1.000000 1.000000 -0.515219 -0.805854 -0.291802
3362 1 -8.384739 -14.125977 -5.604699 0 1.000000 1.000000 1.000000 -0.482552 -0.813554 -0.324459
3363 1 -7.785030 -14.525056 -5.449494 0 1.000000 1.000000 1.000000 -0.449627 -0.836614 -0.312908
3364 1 -7.214363 -14.623480 -5.948609 0 1.000000 1.000000 1.000000 -0.414615 -0.842465 -0.344016
3365 1 -13.138832 -10.358984 -4.617674 0 1.000000 1.000000 1.000000 -0.757781 -0.595855 -0.265939
3366 1 -12.664283 -10.965810 -4.541322 0 1.000000 1.000000 1.000000 -0.728631 -0.632798 -0.262037
3367 1 -12.237355 -11.197393 -5.108814 0 1.000000 1.000000 1.000000 -0.705698 -0.644274 -0.294790
3368 1 -11.718079 -11.779319 -5.017036 0 1.000000 1.000000 1.000000 -0.674453 -0.679444 -0.288911
3369 1 -11.239846 -11.988914 -5.581185 0 1.000000 1.000000 1.000000 -0.647995 -0.690037 -0.322415
3370 1 -10.683372 -12.536331 -5.470992 0 1.000000 1.000000 1.000000 -0.615261 -0.722789 -0.314690
3371 1 -10.159983 -12.715741 -6.024680 0 1.000000 1.000000 1.000000 -0.585468 -0.732110 -0.348197
3372 1 -9.576258 -13.220565 -5.893872 0 1.000000 1.000000 1.000000 -0.551967 -0.761907 -0.338866
3373 1 -9.016524 -13.363002 -6.430419 0 1.000000 1.000000 1.000000 -0.519218 -0.769626 -0.371604
3374 1 -8.417102 -13.819436 -6.277898 0 1.000000 1.000000 1.000000 -0.485720 -0.796087 -0.361001
3375 1 -7.831738 -13.920214 -6.791610 0 1.000000 1.000000 1.000000 -0.450551 -0.801964 -0.392247
3376 1 -7.228709 -14.325179 -6.617526 0 1.000000 1.000000 1.000000 -0.417804 -0.824900 -0.380762
3377 1 -6.629309 -14.382091 -7.104091 0 1.000000 1.000000 1.000000 -0.380860 -0.828806 -0.409911
3378 1 -13.634638 -9.329751 -5.320051 0 1.000000 1.000000 1.000000 -0.786180 -0.536980 -0.305899
3379 1 -13.198325 -9.968513 -5.260619 0 1.000000 1.000000 1.000000 -0.759491 -0.575125 -0.303981
3380 1 -12.776154 -10.190178 -5.843667 0 1.000000 1.000000 1.000000 -0.736645 -0.586559 -0.336606
3381 1 -12.289733 -10.812233 -5.768215 0 1.000000 1.000000 1.000000 -0.707402 -0.623618 -0.332690
3382 1 -11.813030 -11.015775 -6.348220 0 1.000000 1.000000 1.000000 -0.681014 -0.634184 -0.366103
3383 1 -11.282418 -11.610530 -6.252968 0 1.000000 1.000000 1.000000 -0.649696 -0.669435 -0.360211
3384 1 -10.756385 -11.787331 -6.822140 0 1.000000 1.000000 1.000000 -0.619930 -0.678748 -0.393684
3385 1 -10.190424 -12.345125 -6.704044 0 1.000000 1.000000 1.000000 -0.587170 -0.711528 -0.385954
3386 1 -9.623316 -12.487606 -7.254934 0 1.000000 1.000000 1.000000 -0.554392 -0.719253 -0.418717
3387 1 -9.033142 -13.000660 -7.112116 0 1.000000 1.000000 1.000000 -0.520923 -0.749021 -0.409398
3388 1 -8.435632 -13.103122 -7.638272 0 1.000000 1.000000 1.000000 -0.485672 -0.754911 -0.440717
3389 1 -7.833651 -13.566243 -7.470287 0 1.000000 1.000000 1.000000 -0.452263 -0.781302 -0.430145
3390 1 -7.217812 -13.625422 -7.966765 0 1.000000 1.000000 1.000000 -0.415203 -0.785221 -0.459386
3391 1 -6.616499 -14.036305 -7.774652 0 1.000000 1.000000 1.000000 -0.382581 -0.808068 -0.447948
3392 1 -5.994618 -14.051543 -8.238280 0 1.000000 1.000000 1.000000 -0.344432 -0.809995 -0.474632
3393 1 -14.051543 -8.238280 -5.994618 0 1.000000 1.000000 1.000000 -0.809995 -0.474632 -0.344432
3394 1 -13.658921 -8.898707 -5.956733 0 1.000000 1.000000 1.000000 -0.786160 -0.513152 -0.344424
3395 1 -13.242218 -9.106986 -6.551273 0 1.000000 1.000000 1.000000 -0.763345 -0.524571 -0.377001
3396 1 -12.795764 -9.759696 -6.497640 0 1.000000 1.000000 1.000000 -0.736625 -0.562760 -0.375079
3397 1 -12.322267 -9.953956 -7.089663 0 1.000000 1.000000 1.000000 -0.710278 -0.573310 -0.408437
3398 1 -11.825954 -10.587981 -7.015696 0 1.000000 1.000000 1.000000 -0.680995 -0.610420 -0.404515
3399 1 -11.299745 -10.759523 -7.596845 0 1.000000 1.000000 1.000000 -0.651259 -0.619725 -0.437953
3400 1 -10.760788 -11.364118 -7.498541 0 1.000000 1.000000 1.000000 -0.619913 -0.655008 -0.432056
3401 1 -10.189280 -11.504848 -8.060647 0 1.000000 1.000000 1.000000 -0.587136 -0.662733 -0.464818
3402 1 -9.617769 -12.070543 -7.935136 0 1.000000 1.000000 1.000000 -0.554377 -0.695512 -0.457089
3403 1 -9.011246 -12.173893 -8.470973 0 1.000000 1.000000 1.000000 -0.519094 -0.701407 -0.488435
3404 1 -8.419283 -12.693419 -8.316928 0 1.000000 1.000000 1.000000 -0.485659 -0.731145 -0.479127
3405 1 -7.789961 -12.755075 -8.820850 0 1.000000 1.000000 1.000000 -0.448548 -0.735068 -0.508409
3406 1 -7.190471 -13.223957 -8.638671 0 1.000000 1.000000 1.000000 -0.415192 -0.761416 -0.497856
3407 1 -6.551273 -13.242218 -9.106986 0 1.000000 1.000000 1.000000 -0.377001 -0.763345 -0.524571
3408 1 -5.956733 -13.658921 -8.898707 0 1.000000 1.000000 1.000000 -0.344424 -0.786160 -0.513152
3409 1 -5.320051 -13.634638 -9.329751 0 1.000000 1.000000 1.000000 -0.305899 -0.786180 -0.536980
3410 1 -14.382091 -7.104091 -6.629309 0 1.000000 1.000000 1.000000 -0.828806 -0.409911 -0.380860
3411 1 -14.036305 -7.774652 -6.616499 0 1.000000 1.000000 1.000000 -0.808068 -0.447948 -0.382581
3412 1 -13.625422 -7.966765 -7.217812 0 1.000000 1.000000 1.000000 -0.785221 -0.459386 -0.415203
3413 1 -13.223957 -8.638671 -7.190471 0 1.000000 1.000000 1.000000 -0.761416 -0.497856 -0.415192
3414 1 -12.755075 -8.820850 -7.789961 0 1.000000 1.000000 1.000000 -0.735068 -0.508409 -0.448548
3415 1 -12.299839 -9.483425 -7.742786 0 1.000000 1.000000 1.000000 -0.708350 -0.546595 -0.446625
3416 1 -11.775853 -9.647243 -8.331690 0 1.000000 1.000000 1.000000 -0.678626 -0.555897 -0.480047
3417 1 -11.272073 -10.289316 -8.259716 0 1.000000 1.000000 1.000000 -0.649333 -0.593020 -0.476124
3418 1 -10.699335 -10.426501 -8.829259 0 1.000000 1.000000 1.000000 -0.616563 -0.600745 -0.508877
3419 1 -10.155500 -11.037438 -8.728494 0 1.000000 1.000000 1.000000 -0.585212 -0.636034 -0.502980
3420 1 -9.543570 -11.140803 -9.270722 0 1.000000 1.000000 1.000000 -0.549923 -0.641930 -0.534331
3421 1 -8.970828 -11.711564 -9.138713 0 1.000000 1.000000 1.000000 -0.517170 -0.674701 -0.526605
3422 1 -8.331690 -11.775853 -9.647243 0 1.000000 1.000000 1.000000 -0.480047 -0.678626 -0.555897
3423 1 -7.742786 -12.299839 -9.483425 0 1.000000 1.000000 1.000000 -0.446625 -0.708350 -0.546595
3424 1 -7.089663 -12.322267 -9.953956 0 1.000000 1.000000 1.000000 -0.408437 -0.710278 -0.573310
3425 1 -6.497640 -12.795764 -9.759696 0 1.000000 1.000000 1.000000 -0.375079 -0.736625 -0.562760
3426 1 -5.843667 -12.776154 -10.190178 0 1.000000 1.000000 1.000000 -0.336606 -0.736645 -0.586559
3427 1 -5.260619 -13.198325 -9.968513 0 1.000000 1.000000 1.000000 -0.303981 -0.759491 -0.575125
3428 1 -4.617674 -13.138832 -10.358984 0 1.000000 1.000000 1.000000 -0.265939 -0.757781 -0.595855
3429 1 -14.623480 -5.948609 -7.214363 0 1.000000 1.000000 1.000000 -0.842465 -0.344016 -0.414615
3430 1 -14.325179 -6.617526 -7.228709 0 1.000000 1.000000 1.000000 -0.824900 -0.380762 -0.417804
3431 1 -13.920214 -6.791610 -7.831738 0 1.000000 1.000000 1.000000 -0.801964 -0.392247 -0.450551
3432 1 -13.566243 -7.470287 -7.833651 0 1.000000 1.000000 1.000000 -0.781302 -0.430145 -0.452263
3433 1 -13.103122 -7.638272 -8.435632 0 1.000000 1.000000 1.000000 -0.754911 -0.440717 -0.485672
3434 1 -12.693419 -8.316928 -8.419283 0 1.000000 1.000000 1.000000 -0.731145 -0.479127 -0.485659
3435 1 -12.173893 -8.470973 -9.011246 0 1.000000 1.000000 1.000000 -0.701407 -0.488435 -0.519094
3436 1 -11.711564 -9.138713 -8.970828 0 1.000000 1.000000 1.000000 -0.674701 -0.526605 -0.517170
3437 1 -11.140803 -9.270722 -9.543570 0 1.000000 1.000000 1.000000 -0.641930 -0.534331 -0.549923
3438 1 -10.632355 -9.916437 -9.473975 0 1.000000 1.000000 1.000000 -0.612638 -0.571453 -0.546000
3439 1 -10.018925 -10.018925 -10.018925 0 1.000000 1.000000 1.000000 -0.577350 -0.577350 -0.577350
3440 1 -9.473975 -10.632355 -9.916437 0 1.000000 1.000000 1.000000 -0.546000 -0.612638 -0.571453
3441 1 -8.829259 -10.699335 -10.426501 0 1.000000 1.000000 1.000000 -0.508877 -0.616563 -0.600745
3442 1 -8.259716 -11.272073 -10.289316 0 1.000000 1.000000 1.000000 -0.476124 -0.649333 -0.593020
3443 1 -7.596845 -11.299745 -10.759523 0 1.000000 1.000000 1.000000 -0.437953 -0.651259 -0.619725
3444 1 -7.015696 -11.825954 -10.587981 0 1.000000 1.000000 1.000000 -0.404515 -0.680995 -0.610420
3445 1 -6.348220 -11.813030 -11.015775 0 1.000000 1.000000 1.000000 -0.366103 -0.681014 -0.634184
3446 1 -5.768215 -12.289733 -10.812233 0 1.000000 1.000000 1.000000 -0.332690 -0.707402 -0.623618
3447 1 -5.108814 -12.237355 -11.197393 0 1.000000 1.000000 1.000000 -0.294790 -0.705698 -0.644274
3448 1 -4.541322 -12.664283 -10.965810 0 1.000000 1.000000 1.000000 -0.262037 -0.728631 -0.632798
3449 1 -3.900803 -12.575587 -11.310061 0 1.000000 1.000000 1.000000 -0.225286 -0.725453 -0.650356
3450 1 -14.777543 -4.793233 -7.743023 0 1.000000 1.000000 1.000000 -0.851091 -0.278143 -0.445288
3451 1 -14.525056 -5.449494 -7.785030 0 1.000000 1.000000 1.000000 -0.836614 -0.312908 -0.449627
3452 1 -14.125977 -5.604699 -8.384739 0 1.000000 1.000000 1.000000 -0.813554 -0.324459 -0.482552
3453 1 -13.819436 -6.277898 -8.417102 0 1.000000 1.000000 1.000000 -0.796087 -0.361001 -0.485720
3454 1 -13.363002 -6.430419 -9.016524 0 1.000000 1.000000 1.000000 -0.769626 -0.371604 -0.519218
3455 1 -13.000660 -7.112116 -9.033142 0 1.000000 1.000000 1.000000 -0.749021 -0.409398 -0.520923
3456 1 -12.487606 -7.254934 -9.623316 0 1.000000 1.000000 1.000000 -0.719253 -0.418717 -0.554392
3457 1 -12.070543 -7.935136 -9.617769 0 1.000000 1.000000 1.000000 -0.695512 -0.457089 -0.554377
3458 1 -11.504848 -8.060647 -10.189280 0 1.000000 1.000000 1.000000 -0.662733 -0.464818 -0.587136
3459 1 -11.037438 -8.728494 -10.155500 0 1.000000 1.000000 1.000000 -0.636034 -0.502980 -0.585212
3460 1 -10.426501 -8.829259 -10.699335 0 1.000000 1.000000 1.000000 -0.600745 -0.508877 -0.616563
3461 1 -9.916437 -9.473975 -10.632355 0 1.000000 1.000000 1.000000 -0.571453 -0.546000 -0.612638
3462 1 -9.270722 -9.543570 -11.140803 0 1.000000 1.000000 1.000000 -0.534331 -0.549923 -0.641930
3463 1 -8.728494 -10.155500 -11.037438 0 1.000000 1.000000 1.000000 -0.502980 -0.585212 -0.636034
3464 1 -8.060647 -10.189280 -11.504848 0 1.000000 1.000000 1.000000 -0.464818 -0.587136 -0.662733
3465 1 -7.498541 -10.760788 -11.364118 0 1.000000 1.000000 1.000000 -0.432056 -0.619913 -0.655008
3466 1 -6.822140 -10.756385 -11.787331 0 1.000000 1.000000 1.000000 -0.393684 -0.619930 -0.678748
3467 1 -6.252968 -11.282418 -11.610530 0 1.000000 1.000000 1.000000 -0.360211 -0.649696 -0.669435
3468 1 -5.581185 -11.239846 -11.988914 0 1.000000 1.000000 1.000000 -0.322415 -0.647995 -0.690037
3469 1 -5.017036 -11.718079 -11.779319 0 1.000000 1.000000 1.000000 -0.288911 -0.674453 -0.679444
3470 1 -4.361500 -11.639478 -12.114438 0 1.000000 1.000000 1.000000 -0.252366 -0.671292 -0.696906
3471 1 -3.812759 -12.070058 -11.876763 0 1.000000 1.000000 1.000000 -0.219434 -0.694347 -0.685369
3472 1 -3.182806 -11.959174 -12.171819 0 1.000000 1.000000 1.000000 -0.184664 -0.690017 -0.699840
3473 1 -14.850107 -3.657579 -8.211774 0 1.000000 1.000000 1.000000 -0.855031 -0.213385 -0.472640
3474 1 -14.639895 -4.291751 -8.280475 0 1.000000 1.000000 1.000000 -0.843428 -0.245643 -0.477795
3475 1 -14.246665 -4.428187 -8.872189 0 1.000000 1.000000 1.000000 -0.820235 -0.257263 -0.510910
3476 1 -13.985234 -5.084873 -8.934447 0 1.000000 1.000000 1.000000 -0.805854 -0.291802 -0.515219
3477 1 -13.536256 -5.221525 -9.526543 0 1.000000 1.000000 1.000000 -0.779318 -0.302438 -0.548812
3478 1 -13.220565 -5.893872 -9.576258 0 1.000000 1.000000 1.000000 -0.761907 -0.338866 -0.551967
3479 1 -12.715741 -6.024680 -10.159983 0 1.000000 1.000000 1.000000 -0.732110 -0.348197 -0.585468
3480 1 -12.345125 -6.704044 -10.190424 0 1.000000 1.000000 1.000000 -0.711528 -0.385954 -0.587170
3481 1 -11.787331 -6.822140 -10.756385 0 1.000000 1.000000 1.000000 -0.678748 -0.393684 -0.619930
3482 1 -11.364118 -7.498541 -10.760788 0 1.000000 1.000000 1.000000 -0.655008 -0.432056 -0.619913
3483 1 -10.759523 -7.596845 -11.299745 0 1.000000 1.000000 1.000000 -0.619725 -0.437953 -0.651259
3484 1 -10.289316 -8.259716 -11.272073 0 1.000000 1.000000 1.000000 -0.593020 -0.476124 -0.649333
3485 1 -9.647243 -8.331690 -11.775853 0 1.000000 1.000000 1.000000 -0.555897 -0.480047 -0.678626
3486 1 -9.138713 -8.970828 -11.711564 0 1.000000 1.000000 1.000000 -0.526605 -0.517170 -0.674701
3487 1 -8.470973 -9.011246 -12.173893 0 1.000000 1.000000 1.000000 -0.488435 -0.519094 -0.701407
3488 1 -7.935136 -9.617769 -12.070543 0 1.000000 1.000000 1.000000 -0.457089 -0.554377 -0.695512
3489 1 -7.254934 -9.623316 -12.487606 0 1.000000 1.000000 1.000000 -0.418717 -0.554392 -0.719253
3490 1 -6.704044 -10.190424 -12.345125 0 1.000000 1.000000 1.000000 -0.385954 -0.587170 -0.711528
3491 1 -6.024680 -10.159983 -12.715741 0 1.000000 1.000000 1.000000 -0.348197 -0.585468 -0.732110
3492 1 -5.470992 -10.683372 -12.536331 0 1.000000 1.000000 1.000000 -0.314690 -0.615261 -0.722789
3493 1 -4.804641 -10.617960 -12.861723 0 1.000000 1.000000 1.000000 -0.278261 -0.612108 -0.740199
3494 1 -4.259297 -11.095833 -12.649425 0 1.000000 1.000000 1.000000 -0.244659 -0.638639 -0.729576
3495 1 -3.616111 -10.998230 -12.932699 0 1.000000 1.000000 1.000000 -0.210119 -0.634336 -0.743954
3496 1 -3.088361 -11.430992 -12.692768 0 1.000000 1.000000 1.000000 -0.176994 -0.657522 -0.732351
3497 1 -2.475995 -11.305201 -12.938264 0 1.000000 1.000000 1.000000 -0.144733 -0.652374 -0.743949
3498 1 -14.849933 -2.558176 -8.620141 0 1.000000 1.000000 1.000000 -0.854801 -0.150667 -0.496603
3499 1 -14.677206 -3.162905 -8.713378 0 1.000000 1.000000 1.000000 -0.845764 -0.180071 -0.502253
3500 1 -14.289865 -3.281469 -9.293045 0 1.000000 1.000000 1.000000 -0.822460 -0.191751 -0.535529
3501 1 -14.069535 -3.912578 -9.383156 0 1.000000 1.000000 1.000000 -0.810929 -0.223810 -0.540651
3502 1 -13.628673 -4.033721 -9.963727 0 1.000000 1.000000 1.000000 -0.784343 -0.234469 -0.574309
3503 1 -13.356824 -4.685981 -10.044856 0 1.000000 1.000000 1.000000 -0.769996 -0.268928 -0.578605
3504 1 -12.861723 -4.804641 -10.617960 0 1.000000 1.000000 1.000000 -0.740199 -0.278261 -0.612108
3505 1 -12.536331 -5.470992 -10.683372 0 1.000000 1.000000 1.000000 -0.722789 -0.314690 -0.615261
3506 1 -11.988914 -5.581185 -11.239846 0 1.000000 1.000000 1.000000 -0.690037 -0.322415 -0.647995
3507 1 -11.610530 -6.252968 -11.282418 0 1.000000 1.000000 1.000000 -0.669435 -0.360211 -0.649696
3508 1 -11.015775 -6.348220 -11.813030 0 1.000000 1.000000 1.000000 -0.634184 -0.366103 -0.681014
3509 1 -10.587981 -7.015696 -11.825954 0 1.000000 1.000000 1.000000 -0.610420 -0.404515 -0.680995
3510 1 -9.953956 -7.089663 -12.322267 0 1.000000 1.000000 1.000000 -0.573310 -0.408437 -0.710278
3511 1 -9.483425 -7.742786 -12.299839 0 1.000000 1.000000 1.000000 -0.546595 -0.446625 -0.708350
3512 1 -8.820850 -7.789961 -12.755075 0 1.000000 1.000000 1.000000 -0.508409 -0.448548 -0.735068
3513 1 -8.316928 -8.419283 -12.693419 0 1.000000 1.000000 1.000000 -0.479127 -0.485659 -0.731145
3514 1 -7.638272 -8.435632 -13.103122 0 1.000000 1.000000 1.000000 -0.440717 -0.485672 -0.754911
3515 1 -7.112116 -9.033142 -13.000660 0 1.000000 1.000000 1.000000 -0.409398 -0.520923 -0.749021
3516 1 -6.430419 -9.016524 -13.363002 0 1.000000 1.000000 1.000000 -0.371604 -0.519218 -0.769626
3517 1 -5.893872 -9.576258 -13.220565 0 1.000000 1.000000 1.000000 -0.338866 -0.551967 -0.761907
3518 1 -5.221525 -9.526543 -13.536256 0 1.000000 1.000000 1.000000 -0.302438 -0.548812 -0.779318
3519 1 -4.685981 -10.044856 -13.356824 0 1.000000 1.000000 1.000000 -0.268928 -0.578605 -0.769996
3520 1 -4.033721 -9.963727 -13.628673 0 1.000000 1.000000 1.000000 -0.234469 -0.574309 -0.784343
3521 1 -3.509195 -10.439228 -13.416847 0 1.000000 1.000000 1.000000 -0.200800 -0.600890 -0.773699
3522 1 -2.885476 -10.329769 -13.649134 0 1.000000 1.000000 1.000000 -0.168740 -0.595771 -0.785228
3523 1 -2.380027 -10.762980 -13.410482 0 1.000000 1.000000 1.000000 -0.135452 -0.619068 -0.773568
3524 1 -1.790796 -10.629166 -13.608287 0 1.000000 1.000000 1.000000 -0.106046 -0.613423 -0.782602
3525 1 -14.787513 -1.507757 -8.970171 0 1.000000 1.000000 1.000000 -0.851011 -0.090701 -0.517257
3526 1 -14.646859 -2.077932 -9.084967 0 1.000000 1.000000 1.000000 -0.844183 -0.117079 -0.523114
3527 1 -14.265557 -2.180085 -9.649317 0 1.000000 1.000000 1.000000 -0.820814 -0.128794 -0.556486
3528 1 -14.081289 -2.778892 -9.764158 0 1.000000 1.000000 1.000000 -0.811815 -0.158079 -0.562110
3529 1 -13.649134 -2.885476 -10.329769 0 1.000000 1.000000 1.000000 -0.785228 -0.168740 -0.595771
3530 1 -13.416847 -3.509195 -10.439228 0 1.000000 1.000000 1.000000 -0.773699 -0.200800 -0.600890
3531 1 -12.932699 -3.616111 -10.998230 0 1.000000 1.000000 1.000000 -0.743954 -0.210119 -0.634336
3532 1 -12.649425 -4.259297 -11.095833 0 1.000000 1.000000 1.000000 -0.729576 -0.244659 -0.638639
3533 1 -12.114438 -4.361500 -11.639478 0 1.000000 1.000000 1.000000 -0.696906 -0.252366 -0.671292
3534 1 -11.779319 -5.017036 -11.718079 0 1.000000 1.000000 1.000000 -0.679444 -0.288911 -0.674453
3535 1 -11.197393 -5.108814 -12.237355 0 1.000000 1.000000 1.000000 -0.644274 -0.294790 -0.705698
3536 1 -10.812233 -5.768215 -12.289733 0 1.000000 1.000000 1.000000 -0.623618 -0.332690 -0.707402
3537 1 -10.190178 -5.843667 -12.776154 0 1.000000 1.000000 1.000000 -0.586559 -0.336606 -0.736645
3538 1 -9.759696 -6.497640 -12.795764 0 1.000000 1.000000 1.000000 -0.562760 -0.375079 -0.736625
3539 1 -9.106986 -6.551273 -13.242218 0 1.000000 1.000000 1.000000 -0.524571 -0.377001 -0.763345
3540 1 -8.638671 -7.190471 -13.223957 0 1.000000 1.000000 1.000000 -0.497856 -0.415192 -0.761416
3541 1 -7.966765 -7.217812 -13.625422 0 1.000000 1.000000 1.000000 -0.459386 -0.415203 -0.785221
3542 1 -7.470287 -7.833651 -13.566243 0 1.000000 1.000000 1.000000 -0.430145 -0.452263 -0.781302
3543 1 -6.791610 -7.831738 -13.920214 0 1.000000 1.000000 1.000000 -0.392247 -0.450551 -0.801964
3544 1 -6.277898 -8.417102 -13.819436 0 1.000000 1.000000 1.000000 -0.361001 -0.485720 -0.796087
3545 1 -5.604699 -8.384739 -14.125977 0 1.000000 1.000000 1.000000 -0.324459 -0.482552 -0.813554
3546 1 -5.084873 -8.934447 -13.985234 0 1.000000 1.000000 1.000000 -0.291802 -0.515219 -0.805854
3547 1 -4.428187 -8.872189 -14.246665 0 1.000000 1.000000 1.000000 -0.257263 -0.510910 -0.820235
3548 1 -3.912578 -9.383156 -14.069535 0 1.000000 1.000000 1.000000 -0.223810 -0.540651 -0.810929
3549 1 -3.281469 -9.293045 -14.289865 0 1.000000 1.000000 1.000000 -0.191751 -0.535529 -0.822460
3550 1 -2.778892 -9.764158 -14.081289 0 1.000000 1.000000 1.000000 -0.158079 -0.562110 -0.811815
3551 1 -2.180085 -9.649317 -14.265557 0 1.000000 1.000000 1.000000 -0.128794 -0.556486 -0.820814
3552 1 -1.697438 -10.081114 -14.031206 0 1.000000 1.000000 1.000000 -0.095409 -0.579847 -0.809120
3553 1 -1.135293 -9.945292 -14.184854 0 1.000000 1.000000 1.000000 -0.069030 -0.573991 -0.815946
3554 1 -14.673934 -0.515130 -9.265752 0 1.000000 1.000000 1.000000 -0.844302 -0.033984 -0.534788
3555 1 -14.559859 -1.047765 -9.398698 0 1.000000 1.000000 1.000000 -0.839315 -0.057313 -0.540617
3556 1 -14.184854 -1.135293 -9.945292 0 1.000000 1.000000 1.000000 -0.815946 -0.069030 -0.573991
3557 1 -14.031206 -1.697438 -10.081114 0 1.000000 1.000000 1.000000 -0.809120 -0.095409 -0.579847
3558 1 -13.608287 -1.790796 -10.629166 0 1.000000 1.000000 1.000000 -0.782602 -0.106046 -0.613423
3559 1 -13.410482 -2.380027 -10.762980 0 1.000000 1.000000 1.000000 -0.773568 -0.135452 -0.619068
3560 1 -12.938264 -2.475995 -11.305201 0 1.000000 1.000000 1.000000 -0.743949 -0.144733 -0.652374
3561 1 -12.692768 -3.088361 -11.430992 0 1.000000 1.000000 1.000000 -0.732351 -0.176994 -0.657522
3562 1 -12.171819 -3.182806 -11.959174 0 1.000000 1.000000 1.000000 -0.699840 -0.184664 -0.690017
3563 1 -11.876763 -3.812759 -12.070058 0 1.000000 1.000000 1.000000 -0.685369 -0.219434 -0.694347
3564 1 -11.310061 -3.900803 -12.575587 0 1.000000 1.000000 1.000000 -0.650356 -0.225286 -0.725453
3565 1 -10.965810 -4.541322 -12.664283 0 1.000000 1.000000 1.000000 -0.632798 -0.262037 -0.728631
3566 1 -10.358984 -4.617674 -13.138832 0 1.000000 1.000000 1.000000 -0.595855 -0.265939 -0.757781
3567 1 -9.968513 -5.260619 -13.198325 0 1.000000 1.000000 1.000000 -0.575125 -0.303981 -0.759491
3568 1 -9.329751 -5.320051 -13.634638 0 1.000000 1.000000 1.000000 -0.536980 -0.305899 -0.786180
3569 1 -8.898707 -5.956733 -13.658921 0 1.000000 1.000000 1.000000 -0.513152 -0.344424 -0.786160
3570 1 -8.238280 -5.994618 -14.051543 0 1.000000 1.000000 1.000000 -0.474632 -0.344432 -0.809995
3571 1 -7.774652 -6.616499 -14.036305 0 1.000000 1.000000 1.000000 -0.447948 -0.382581 -0.808068
3572 1 -7.104091 -6.629309 -14.382091 0 1.000000 1.000000 1.000000 -0.409911 -0.380860 -0.828806
3573 1 -6.617526 -7.228709 -14.325179 0 1.000000 1.000000 1.000000 -0.380762 -0.417804 -0.824900
3574 1 -5.948609 -7.214363 -14.623480 0 1.000000 1.000000 1.000000 -0.344016 -0.414615 -0.842465
3575 1 -5.449494 -7.785030 -14.525056 0 1.000000 1.000000 1.000000 -0.312908 -0.449627 -0.836614
3576 1 -4.793233 -7.743023 -14.777543 0 1.000000 1.000000 1.000000 -0.278143 -0.445288 -0.851091
3577 1 -4.291751 -8.280475 -14.639895 0 1.000000 1.000000 1.000000 -0.245643 -0.477795 -0.843428
3578 1 -3.657579 -8.211774 -14.850107 0 1.000000 1.000000 1.000000 -0.213385 -0.472640 -0.855031
3579 1 -3.162905 -8.713378 -14.677206 0 1.000000 1.000000 1.000000 -0.180071 -0.502253 -0.845764
3580 1 -2.558176 -8.620141 -14.849933 0 1.000000 1.000000 1.000000 -0.150667 -0.496603 -0.854801
3581 1 -2.077932 -9.084967 -14.646859 0 1.000000 1.000000 1.000000 -0.117079 -0.523114 -0.844183
3582 1 -1.507757 -8.970171 -14.787513 0 1.000000 1.000000 1.000000 -0.090701 -0.517257 -0.851011
3583 1 -1.047765 -9.398698 -14.559859 0 1.000000 1.000000 1.000000 -0.057313 -0.540617 -0.839315
3584 1 -0.515130 -9.265752 -14.673934 0 1.000000 1.000000 1.000000 -0.033984 -0.534788 -0.844302
3585 1 -14.477172 0.000000 -9.584120 0 1.000000 1.000000 1.000000 -0.831322 0.000000 -0.555791
3586 1 -13.981406 0.602658 -10.274479 0 1.000000 1.000000 1.000000 -0.802973 0.035064 -0.594984
3587 1 -14.159648 0.000000 -10.046253 0 1.000000 1.000000 1.000000 -0.817423 -0.000000 -0.576038
3588 1 -13.981406 -0.602658 -10.274479 0 1.000000 1.000000 1.000000 -0.802973 -0.035064 -0.594984
3589 1 -13.398531 1.241646 -10.968560 0 1.000000 1.000000 1.000000 -0.769674 0.072199 -0.634342
3590 1 -13.618001 0.615653 -10.749694 0 1.000000 1.000000 1.000000 -0.786069 0.035063 -0.617143
3591 1 -13.432838 0.000000 -10.996684 0 1.000000 1.000000 1.000000 -0.771619 0.000000 -0.636085
3592 1 -13.618001 -0.615653 -10.749694 0 1.000000 1.000000 1.000000 -0.786069 -0.035063 -0.617143
3593 1 -13.398531 -1.241646 -10.968560 0 1.000000 1.000000 1.000000 -0.769674 -0.072199 -0.634342
3594 1 -12.722777 1.911843 -11.653866 0 1.000000 1.000000 1.000000 -0.731096 0.111082 -0.673171
3595 1 -12.985239 1.266724 -11.451039 0 1.000000 1.000000 1.000000 -0.749406 0.072196 -0.658163
3596 1 -12.791718 0.640731 -11.717098 0 1.000000 1.000000 1.000000 -0.734996 0.037232 -0.677048
3597 1 -13.019847 0.000000 -11.481608 0 1.000000 1.000000 1.000000 -0.751434 -0.000000 -0.659808
3598 1 -12.791718 -0.640731 -11.717098 0 1.000000 1.000000 1.000000 -0.734996 -0.037232 -0.677048
3599 1 -12.985239 -1.266724 -11.451039 0 1.000000 1.000000 1.000000 -0.749406 -0.072196 -0.658163
3600 1 -12.722777 -1.911843 -11.653866 0 1.000000 1.000000 1.000000 -0.731096 -0.111082 -0.673171
3601 1 -11.951393 2.605724 -12.315831 0 1.000000 1.000000 1.000000 -0.687077 0.151251 -0.710667
3602 1 -12.256856 1.947127 -12.136314 0 1.000000 1.000000 1.000000 -0.707173 0.111077 -0.698261
3603 1 -12.053358 1.313966 -12.421034 0 1.000000 1.000000 1.000000 -0.692833 0.076281 -0.717052
3604 1 -12.325758 0.652688 -12.204646 0 1.000000 1.000000 1.000000 -0.711221 0.037230 -0.701982
3605 1 -12.087929 0.000000 -12.456704 0 1.000000 1.000000 1.000000 -0.694783 0.000000 -0.719219
3606 1 -12.325758 -0.652688 -12.204646 0 1.000000 1.000000 1.000000 -0.711221 -0.037230 -0.701982
3607 1 -12.053358 -1.313966 -12.421034 0 1.000000 1.000000 1.000000 -0.692833 -0.076281 -0.717052
3608 1 -12.256856 -1.947127 -12.136314 0 1.000000 1.000000 1.000000 -0.707173 -0.111077 -0.698261
3609 1 -11.951393 -2.605724 -12.315831 0 1.000000 1.000000 1.000000 -0.687077 -0.151251 -0.710667
3610 1 -11.085700 3.313419 -12.938611 0 1.000000 1.000000 1.000000 -0.637684 0.192109 -0.745958
3611 1 -11.431977 2.648293 -12.789738 0 1.000000 1.000000 1.000000 -0.659324 0.151245 -0.736490
3612 1 -11.216833 2.011539 -13.091834 0 1.000000 1.000000 1.000000 -0.645067 0.116648 -0.755171
3613 1 -11.532752 1.335810 -12.902647 0 1.000000 1.000000 1.000000 -0.665260 0.076278 -0.742705
3614 1 -11.284162 0.674533 -13.170507 0 1.000000 1.000000 1.000000 -0.648855 0.039119 -0.759906
3615 1 -11.566938 0.000000 -12.940952 0 1.000000 1.000000 1.000000 -0.667275 -0.000000 -0.744811
3616 1 -11.284162 -0.674533 -13.170507 0 1.000000 1.000000 1.000000 -0.648855 -0.039119 -0.759906
3617 1 -11.532752 -1.335810 -12.902647 0 1.000000 1.000000 1.000000 -0.665260 -0.076278 -0.742705
3618 1 -11.216833 -2.011539 -13.091834 0 1.000000 1.000000 1.000000 -0.645067 -0.116648 -0.755171
3619 1 -11.431977 -2.648293 -12.789738 0 1.000000 1.000000 1.000000 -0.659324 -0.151245 -0.736490
3620 1 -11.085700 -3.313419 -12.938611 0 1.000000 1.000000 1.000000 -0.637684 -0.192109 -0.745958
3621 1 -10.131879 4.023107 -13.506295 0 1.000000 1.000000 1.000000 -0.583255 0.232950 -0.778170
3622 1 -10.514344 3.359370 -13.394769 0 1.000000 1.000000 1.000000 -0.606085 0.192101 -0.771853
3623 1 -10.286025 2.722821 -13.711979 0 1.000000 1.000000 1.000000 -0.591907 0.157690 -0.790431
3624 1 -10.642237 2.040116 -13.557917 0 1.000000 1.000000 1.000000 -0.613643 0.116643 -0.780920
3625 1 -10.381946 1.374088 -13.839975 0 1.000000 1.000000 1.000000 -0.597286 0.079589 -0.798070
3626 1 -10.707952 0.684234 -13.641751 0 1.000000 1.000000 1.000000 -0.617530 0.039118 -0.785574
3627 1 -10.414519 0.000000 -13.883440 0 1.000000 1.000000 1.000000 -0.599111 0.000000 -0.800666
3628 1 -10.707952 -0.684234 -13.641751 0 1.000000 1.000000 1.000000 -0.617530 -0.039118 -0.785574
3629 1 -10.381946 -1.374088 -13.839975 0 1.000000 1.000000 1.000000 -0.597286 -0.079589 -0.798070
3630 1 -10.642237 -2.040116 -13.557917 0 1.000000 1.000000 1.000000 -0.613643 -0.116643 -0.780920
3631 1 -10.286025 -2.722821 -13.711979 0 1.000000 1.000000 1.000000 -0.591907 -0.157690 -0.790431
3632 1 -10.514344 -3.359370 -13.394769 0 1.000000 1.000000 1.000000 -0.606085 -0.192101 -0.771853
3633 1 -10.131879 -4.023107 -13.506295 0 1.000000 1.000000 1.000000 -0.583255 -0.232950 -0.778170
3634 1 -9.101236 4.721792 -14.004383 0 1.000000 1.000000 1.000000 -0.524419 0.273015 -0.806503
3635 1 -9.512893 4.067792 -13.935532 0 1.000000 1.000000 1.000000 -0.547991 0.232943 -0.803395
3636 1 -9.270242 3.435244 -14.264641 0 1.000000 1.000000 1.000000 -0.533869 0.198662 -0.821899
3637 1 -9.660909 2.754010 -14.152614 0 1.000000 1.000000 1.000000 -0.556772 0.157684 -0.815562
3638 1 -9.388266 2.087347 -14.446395 0 1.000000 1.000000 1.000000 -0.540459 0.120728 -0.832664
3639 1 -9.753091 1.390130 -14.287818 0 1.000000 1.000000 1.000000 -0.562246 0.079586 -0.823132
3640 1 -9.448987 0.700275 -14.539905 0 1.000000 1.000000 1.000000 -0.543846 0.040505 -0.838207
3641 1 -9.784408 0.000000 -14.333751 0 1.000000 1.000000 1.000000 -0.564107 -0.000000 -0.825702
3642 1 -9.448987 -0.700275 -14.539905 0 1.000000 1.000000 1.000000 -0.543846 -0.040505 -0.838207
3643 1 -9.753091 -1.390130 -14.287818 0 1.000000 1.000000 1.000000 -0.562246 -0.079586 -0.823132
3644 1 -9.388266 -2.087347 -14.446395 0 1.000000 1.000000 1.000000 -0.540459 -0.120728 -0.832664
3645 1 -9.660909 -2.754010 -14.152614 0 1.000000 1.000000 1.000000 -0.556772 -0.157684 -0.815562
3646 1 -9.270242 -3.435244 -14.264641 0 1.000000 1.000000 1.000000 -0.533869 -0.198662 -0.821899
3647 1 -9.512893 -4.067792 -13.935532 0 1.000000 1.000000 1.000000 -0.547991 -0.232943 -0.803395
3648 1 -9.101236 -4.721792 -14.004383 0 1.000000 1.000000 1.000000 -0.524419 -0.273015 -0.806503
3649 1 -8.009765 5.396359 -14.421288 0 1.000000 1.000000 1.000000 -0.462071 0.311548 -0.830318
3650 1 -8.441677 4.760214 -14.398410 0 1.000000 1.000000 1.000000 -0.485874 0.273008 -0.830297
3651 1 -8.184141 4.135232 -14.735413 0 1.000000 1.000000 1.000000 -0.471773 0.238774 -0.848774
3652 1 -8.601048 3.464262 -14.670495 0 1.000000 1.000000 1.000000 -0.495372 0.198657 -0.845661
3653 1 -8.315878 2.801119 -14.972733 0 1.000000 1.000000 1.000000 -0.479087 0.161758 -0.862734
3654 1 -8.712429 2.105438 -14.860660 0 1.000000 1.000000 1.000000 -0.502022 0.120724 -0.856388
3655 1 -8.398028 1.414370 -15.120724 0 1.000000 1.000000 1.000000 -0.483642 0.081682 -0.871446
3656 1 -8.769760 0.706425 -14.958547 0 1.000000 1.000000 1.000000 -0.505448 0.040504 -0.861906
3657 1 -8.425955 0.000000 -15.171034 0 1.000000 1.000000 1.000000 -0.485189 0.000000 -0.874409
3658 1 -8.769760 -0.706425 -14.958547 0 1.000000 1.000000 1.000000 -0.505448 -0.040504 -0.861906
3659 1 -8.398028 -1.414370 -15.120724 0 1.000000 1.000000 1.000000 -0.483642 -0.081682 -0.871446
3660 1 -8.712429 -2.105438 -14.860660 0 1.000000 1.000000 1.000000 -0.502022 -0.120724 -0.856388
3661 1 -8.315878 -2.801119 -14.972733 0 1.000000 1.000000 1.000000 -0.479087 -0.161758 -0.862734
3662 1 -8.601048 -3.464262 -14.670495 0 1.000000 1.000000 1.000000 -0.495372 -0.198657 -0.845661
3663 1 -8.184141 -4.135232 -14.735413 0 1.000000 1.000000 1.000000 -0.471773 -0.238774 -0.848774
3664 1 -8.441677 -4.760214 -14.398410 0 1.000000 1.000000 1.000000 -0.485874 -0.273008 -0.830297
3665 1 -8.009765 -5.396359 -14.421288 0 1.000000 1.000000 1.000000 -0.462071 -0.311548 -0.830318
3666 1 -6.876987 6.034741 -14.749554 0 1.000000 1.000000 1.000000 -0.397310 0.347871 -0.849194
3667 1 -7.319033 5.423672 -14.773512 0 1.000000 1.000000 1.000000 -0.420814 0.311543 -0.851972
3668 1 -7.046829 4.809389 -15.113909 0 1.000000 1.000000 1.000000 -0.406696 0.277259 -0.870474
3669 1 -7.480024 4.157093 -15.098688 0 1.000000 1.000000 1.000000 -0.430469 0.238770 -0.870452
3670 1 -7.182772 3.501417 -15.405541 0 1.000000 1.000000 1.000000 -0.414186 0.201870 -0.887524
3671 1 -7.601718 2.816413 -15.344505 0 1.000000 1.000000 1.000000 -0.437785 0.161755 -0.884409
3672 1 -7.277878 2.128610 -15.609568 0 1.000000 1.000000 1.000000 -0.419414 0.122728 -0.899461
3673 1 -7.677636 1.422248 -15.497860 0 1.000000 1.000000 1.000000 -0.442356 0.081681 -0.893112
3674 1 -7.326863 0.714302 -15.714654 0 1.000000 1.000000 1.000000 -0.422103 0.041185 -0.905612
3675 1 -7.703450 0.000000 -15.550006 0 1.000000 1.000000 1.000000 -0.443912 -0.000000 -0.896070
3676 1 -7.326863 -0.714302 -15.714654 0 1.000000 1.000000 1.000000 -0.422103 -0.041185 -0.905612
3677 1 -7.677636 -1.422248 -15.497860 0 1.000000 1.000000 1.000000 -0.442356 -0.081681 -0.893112
3678 1 -7.277878 -2.128610 -15.609568 0 1.000000 1.000000 1.000000 -0.419414 -0.122728 -0.899461
3679 1 -7.601718 -2.816413 -15.344505 0 1.000000 1.000000 1.000000 -0.437785 -0.161755 -0.884409
3680 1 -7.182772 -3.501417 -15.405541 0 1.000000 1.000000 1.000000 -0.414186 -0.201870 -0.887524
3681 1 -7.480024 -4.157093 -15.098688 0 1.000000 1.000000 1.000000 -0.430469 -0.238770 -0.870452
3682 1 -7.046829 -4.809389 -15.113909 0 1.000000 1.000000 1.000000 -0.406696 -0.277259 -0.870474
3683 1 -7.319033 -5.423672 -14.773512 0 1.000000 1.000000 1.000000 -0.420814 -0.311543 -0.851972
3684 1 -6.876987 -6.034741 -14.749554 0 1.000000 1.000000 1.000000 -0.397310 -0.347871 -0.849194
3685 1 -5.724248 6.626979 -14.986504 0 1.000000 1.000000 1.000000 -0.331343 0.381437 -0.862970
3686 1 -6.166061 6.046757 -15.055666 0 1.000000 1.000000 1.000000 -0.354049 0.347868 -0.868123
3687 1 -5.880241 5.445745 -15.394839 0 1.000000 1.000000 1.000000 -0.339880 0.313451 -0.886696
3688 1 -6.318963 4.819446 -15.429124 0 1.000000 1.000000 1.000000 -0.363298 0.277257 -0.889462
3689 1 -6.010763 4.174759 -15.736487 0 1.000000 1.000000 1.000000 -0.346992 0.240297 -0.906562
3690 1 -6.441376 3.509026 -15.728125 0 1.000000 1.000000 1.000000 -0.370729 0.201868 -0.906537
3691 1 -6.109478 2.828772 -15.994873 0 1.000000 1.000000 1.000000 -0.352352 0.162824 -0.921595
3692 1 -6.527033 2.133360 -15.937352 0 1.000000 1.000000 1.000000 -0.375942 0.122727 -0.918480
3693 1 -6.171085 1.428613 -16.156122 0 1.000000 1.000000 1.000000 -0.355689 0.082231 -0.930980
3694 1 -6.571157 0.715918 -16.045132 0 1.000000 1.000000 1.000000 -0.378631 0.041185 -0.924631
3695 1 -6.192036 0.000000 -16.210961 0 1.000000 1.000000 1.000000 -0.356822 0.000000 -0.934172
3696 1 -6.571157 -0.715918 -16.045132 0 1.000000 1.000000 1.000000 -0.378631 -0.041185 -0.924631
3697 1 -6.171085 -1.428613 -16.156122 0 1.000000 1.000000 1.000000 -0.355689 -0.082231 -0.930980
3698 1 -6.527033 -2.133360 -15.937352 0 1.000000 1.000000 1.000000 -0.375942 -0.122727 -0.918480
3699 1 -6.109478 -2.828772 -15.994873 0 1.000000 1.000000 1.000000 -0.352352 -0.162824 -0.921595
3700 1 -6.441376 -3.509026 -15.728125 0 1.000000 1.000000 1.000000 -0.370729 -0.201868 -0.906537
3701 1 -6.010763 -4.174759 -15.736487 0 1.000000 1.000000 1.000000 -0.346992 -0.240297 -0.906562
3702 1 -6.318963 -4.819446 -15.429124 0 1.000000 1.000000 1.000000 -0.363298 -0.277257 -0.889462
3703 1 -5.880241 -5.445745 -15.394839 0 1.000000 1.000000 1.000000 -0.339880 -0.313451 -0.886696
3704 1 -6.166061 -6.046757 -15.055666 0 1.000000 1.000000 1.000000 -0.354049 -0.347868 -0.868123
3705 1 -5.724248 -6.626979 -14.986504 0 1.000000 1.000000 1.000000 -0.331343 -0.381437 -0.862970
3706 1 -4.572807 7.165942 -15.134200 0 1.000000 1.000000 1.000000 -0.265380 0.411874 -0.871741
3707 1 -5.004708 6.620564 -15.244736 0 1.000000 1.000000 1.000000 -0.286863 0.381439 -0.878757
3708 1 -4.707094 6.034779 -15.578333 0 1.000000 1.000000 1.000000 -0.272619 0.346833 -0.897433
3709 1 -5.140815 5.440182 -15.659273 0 1.000000 1.000000 1.000000 -0.295200 0.313452 -0.902555
3710 1 -4.823451 4.809427 -15.963131 0 1.000000 1.000000 1.000000 -0.278852 0.276391 -0.919701
3711 1 -5.254677 4.170303 -16.006060 0 1.000000 1.000000 1.000000 -0.302209 0.240298 -0.922457
3712 1 -4.916590 3.501451 -16.271127 0 1.000000 1.000000 1.000000 -0.283815 0.201213 -0.937530
3713 1 -5.340778 2.825652 -16.268301 0 1.000000 1.000000 1.000000 -0.307529 0.162825 -0.937504
3714 1 -4.981754 2.128633 -16.486602 0 1.000000 1.000000 1.000000 -0.287273 0.122319 -0.950006
3715 1 -5.394506 1.427006 -16.431944 0 1.000000 1.000000 1.000000 -0.310859 0.082232 -0.946892
3716 1 -5.015319 0.714311 -16.597585 0 1.000000 1.000000 1.000000 -0.289050 0.041046 -0.956434
3717 1 -5.412777 0.000000 -16.487593 0 1.000000 1.000000 1.000000 -0.311993 -0.000000 -0.950085
3718 1 -5.015319 -0.714311 -16.597585 0 1.000000 1.000000 1.000000 -0.289050 -0.041046 -0.956434
3719 1 -5.394506 -1.427006 -16.431944 0 1.000000 1.000000 1.000000 -0.310859 -0.082232 -0.946892
3720 1 -4.981754 -2.128633 -16.486602 0 1.000000 1.000000 1.000000 -0.287273 -0.122319 -0.950006
3721 1 -5.340778 -2.825652 -16.268301 0 1.000000 1.000000 1.000000 -0.307529 -0.162825 -0.937504
3722 1 -4.916590 -3.501451 -16.271127 0 1.000000 1.000000 1.000000 -0.283815 -0.201213 -0.937530
3723 1 -5.254677 -4.170303 -16.006060 0 1.000000 1.000000 1.000000 -0.302209 -0.240298 -0.922457
3724 1 -4.823451 -4.809427 -15.963131 0 1.000000 1.000000 1.000000 -0.278852 -0.276391 -0.919701
3725 1 -5.140815 -5.440182 -15.659273 0 1.000000 1.000000 1.000000 -0.295200 -0.313452 -0.902555
3726 1 -4.707094 -6.034779 -15.578333 0 1.000000 1.000000 1.000000 -0.272619 -0.346833 -0.897433
3727 1 -5.004708 -6.620564 -15.244736 0 1.000000 1.000000 1.000000 -0.286863 -0.381439 -0.878757
3728 1 -4.572807 -7.165942 -15.134200 0 1.000000 1.000000 1.000000 -0.265380 -0.411874 -0.871741
3729 1 -3.442092 7.647622 -15.198772 0 1.000000 1.000000 1.000000 -0.200532 0.438989 -0.875829
3730 1 -3.855839 7.139241 -15.345216 0 1.000000 1.000000 1.000000 -0.220466 0.411879 -0.884167
3731 1 -3.548845 6.570043 -15.669469 0 1.000000 1.000000 1.000000 -0.206142 0.377073 -0.902952
3732 1 -3.968200 6.010960 -15.792049 0 1.000000 1.000000 1.000000 -0.227486 0.346838 -0.909920
3733 1 -3.643964 5.396435 -16.088803 0 1.000000 1.000000 1.000000 -0.211094 0.309671 -0.927116
3734 1 -4.065493 4.789499 -16.178944 0 1.000000 1.000000 1.000000 -0.233607 0.276395 -0.932220
3735 1 -3.723457 4.135304 -16.439198 0 1.000000 1.000000 1.000000 -0.215197 0.237272 -0.947308
3736 1 -4.143327 3.486379 -16.488452 0 1.000000 1.000000 1.000000 -0.238532 0.201216 -0.950060
3737 1 -3.783521 2.801175 -16.703921 0 1.000000 1.000000 1.000000 -0.218276 0.160708 -0.962563
3738 1 -4.197759 2.119228 -16.704896 0 1.000000 1.000000 1.000000 -0.241992 0.122321 -0.962537
3739 1 -3.820979 1.414401 -16.869001 0 1.000000 1.000000 1.000000 -0.220187 0.081142 -0.972077
3740 1 -4.225788 0.711112 -16.816349 0 1.000000 1.000000 1.000000 -0.243779 0.041047 -0.968962
3741 1 -3.833714 0.000000 -16.925121 0 1.000000 1.000000 1.000000 -0.220835 0.000000 -0.975311
3742 1 -4.225788 -0.711112 -16.816349 0 1.000000 1.000000 1.000000 -0.243779 -0.041047 -0.968962
3743 1 -3.820979 -1.414401 -16.869001 0 1.000000 1.000000 1.000000 -0.220187 -0.081142 -0.972077
3744 1 -4.197759 -2.119228 -16.704896 0 1.000000 1.000000 1.000000 -0.241992 -0.122321 -0.962537
3745 1 -3.783521 -2.801175 -16.703921 0 1.000000 1.000000 1.000000 -0.218276 -0.160708 -0.962563
3746 1 -4.143327 -3.486379 -16.488452 0 1.000000 1.000000 1.000000 -0.238532 -0.201216 -0.950060
3747 1 -3.723457 -4.135304 -16.439198 0 1.000000 1.000000 1.000000 -0.215197 -0.237272 -0.947308
3748 1 -4.065493 -4.789499 -16.178944 0 1.000000 1.000000 1.000000 -0.233607 -0.276395 -0.932220
3749 1 -3.643964 -5.396435 -16.088803 0 1.000000 1.000000 1.000000 -0.211094 -0.309671 -0.927116
3750 1 -3.968200 -6.010960 -15.792049 0 1.000000 1.000000 1.000000 -0.227486 -0.346838 -0.909920
3751 1 -3.548845 -6.570043 -15.669469 0 1.000000 1.000000 1.000000 -0.206142 -0.377073 -0.902952
3752 1 -3.855839 -7.139241 -15.345216 0 1.000000 1.000000 1.000000 -0.220466 -0.411879 -0.884167
3753 1 -3.442092 -7.647622 -15.198772 0 1.000000 1.000000 1.000000 -0.200532 -0.438989 -0.875829
3754 1 -2.348419 8.070991 -15.189327 0 1.000000 1.000000 1.000000 -0.137738 0.462756 -0.875720
3755 1 -2.737661 7.600075 -15.365265 0 1.000000 1.000000 1.000000 -0.155910 0.438997 -0.884858
3756 1 -2.424053 7.048300 -15.677193 0 1.000000 1.000000 1.000000 -0.141519 0.404021 -0.903736
3757 1 -2.821490 6.526649 -15.834953 0 1.000000 1.000000 1.000000 -0.161332 0.377080 -0.912021
3758 1 -2.492977 5.930006 -16.121649 0 1.000000 1.000000 1.000000 -0.144910 0.339841 -0.929252
3759 1 -2.896095 5.358876 -16.252919 0 1.000000 1.000000 1.000000 -0.166206 0.309677 -0.936203
3760 1 -2.552547 4.721902 -16.505687 0 1.000000 1.000000 1.000000 -0.147798 0.270551 -0.951293
3761 1 -2.958379 4.105265 -16.601824 0 1.000000 1.000000 1.000000 -0.170313 0.237277 -0.956396
3762 1 -2.600129 3.435339 -16.812365 0 1.000000 1.000000 1.000000 -0.150075 0.196803 -0.968889
3763 1 -3.005400 2.780173 -16.865207 0 1.000000 1.000000 1.000000 -0.173436 0.160712 -0.971644
3764 1 -2.633365 2.087412 -17.026538 0 1.000000 1.000000 1.000000 -0.151650 0.119569 -0.981176
3765 1 -3.034706 1.403588 -17.029357 0 1.000000 1.000000 1.000000 -0.175392 0.081144 -0.981149
3766 1 -2.650466 0.700298 -17.136728 0 1.000000 1.000000 1.000000 -0.152456 0.040111 -0.987496
3767 1 -3.044666 0.000000 -17.085144 0 1.000000 1.000000 1.000000 -0.176059 -0.000000 -0.984380
3768 1 -2.650466 -0.700298 -17.136728 0 1.000000 1.000000 1.000000 -0.152456 -0.040111 -0.987496
3769 1 -3.034706 -1.403588 -17.029357 0 1.000000 1.000000 1.000000 -0.175392 -0.081144 -0.981149
3770 1 -2.633365 -2.087412 -17.026538 0 1.000000 1.000000 1.000000 -0.151650 -0.119569 -0.981176
3771 1 -3.005400 -2.780173 -16.865207 0 1.000000 1.000000 1.000000 -0.173436 -0.160712 -0.971644
3772 1 -2.600129 -3.435339 -16.812365 0 1.000000 1.000000 1.000000 -0.150075 -0.196803 -0.968889
3773 1 -2.958379 -4.105265 -16.601824 0 1.000000 1.000000 1.000000 -0.170313 -0.237277 -0.956396
3774 1 -2.552547 -4.721902 -16.505687 0 1.000000 1.000000 1.000000 -0.147798 -0.270551 -0.951293
3775 1 -2.896095 -5.358876 -16.252919 0 1.000000 1.000000 1.000000 -0.166206 -0.309677 -0.936203
3776 1 -2.492977 -5.930006 -16.121649 0 1.000000 1.000000 1.000000 -0.144910 -0.339841 -0.929252
3777 1 -2.821490 -6.526649 -15.834953 0 1.000000 1.000000 1.000000 -0.161332 -0.377080 -0.912021
3778 1 -2.424053 -7.048300 -15.677193 0 1.000000 1.000000 1.000000 -0.141519 -0.404021 -0.903736
3779 1 -2.737661 -7.600075 -15.365265 0 1.000000 1.000000 1.000000 -0.155910 -0.438997 -0.884858
3780 1 -2.348419 -8.070991 -15.189327 0 1.000000 1.000000 1.000000 -0.137738 -0.462756 -0.875720
3781 1 -1.304308 8.437536 -15.116699 0 1.000000 1.000000 1.000000 -0.077727 0.483290 -0.872003
3782 1 -1.664727 8.003182 -15.315439 0 1.000000 1.000000 1.000000 -0.094029 0.462767 -0.881479
3783 1 -1.347367 7.469232 -15.612923 0 1.000000 1.000000 1.000000 -0.079599 0.427692 -0.900413
3784 1 -1.717450 6.985265 -15.798739 0 1.000000 1.000000 1.000000 -0.097698 0.404031 -0.909513
3785 1 -1.387329 6.407569 -16.073187 0 1.000000 1.000000 1.000000 -0.081277 0.366789 -0.926747
3786 1 -1.765418 5.873961 -16.238337 0 1.000000 1.000000 1.000000 -0.101092 0.339850 -0.935031
3787 1 -1.422804 5.256078 -16.481544 0 1.000000 1.000000 1.000000 -0.082716 0.300791 -0.950096
3788 1 -1.806815 4.675150 -16.617625 0 1.000000 1.000000 1.000000 -0.104065 0.270559 -0.957062
3789 1 -1.452355 4.023240 -16.821532 0 1.000000 1.000000 1.000000 -0.083879 0.230185 -0.969525
3790 1 -1.839838 3.400066 -16.920135 0 1.000000 1.000000 1.000000 -0.106467 0.196809 -0.974644
3791 1 -1.474625 2.722924 -17.077635 0 1.000000 1.000000 1.000000 -0.084732 0.155761 -0.984154
3792 1 -1.862881 2.065436 -17.131196 0 1.000000 1.000000 1.000000 -0.108160 0.119573 -0.986916
3793 1 -1.488487 1.374145 -17.237007 0 1.000000 1.000000 1.000000 -0.085254 0.078597 -0.993254
3794 1 -1.874731 0.692831 -17.239720 0 1.000000 1.000000 1.000000 -0.109035 0.040113 -0.993228
3795 1 -1.493196 0.000000 -17.291127 0 1.000000 1.000000 1.000000 -0.085429 0.000000 -0.996344
3796 1 -1.874731 -0.692831 -17.239720 0 1.000000 1.000000 1.000000 -0.109035 -0.040113 -0.993228
3797 1 -1.488487 -1.374145 -17.237007 0 1.000000 1.000000 1.000000 -0.085254 -0.078597 -0.993254
3798 1 -1.862881 -2.065436 -17.131196 0 1.000000 1.000000 1.000000 -0.108160 -0.119573 -0.986916
3799 1 -1.474625 -2.722924 -17.077635 0 1.000000 1.000000 1.000000 -0.084732 -0.155761 -0.984154
3800 1 -1.839838 -3.400066 -16.920135 0 1.000000 1.000000 1.000000 -0.106467 -0.196809 -0.974644
3801 1 -1.452355 -4.023240 -16.821532 0 1.000000 1.000000 1.000000 -0.083879 -0.230185 -0.969525
3802 1 -1.806815 -4.675150 -16.617625 0 1.000000 1.000000 1.000000 -0.104065 -0.270559 -0.957062
3803 1 -1.422804 -5.256078 -16.481544 0 1.000000 1.000000 1.000000 -0.082716 -0.300791 -0.950096
3804 1 -1.765418 -5.873961 -16.238337 0 1.000000 1.000000 1.000000 -0.101092 -0.339850 -0.935031
3805 1 -1.387329 -6.407569 -16.073187 0 1.000000 1.000000 1.000000 -0.081277 -0.366789 -0.926747
3806 1 -1.717450 -6.985265 -15.798739 0 1.000000 1.000000 1.000000 -0.097698 -0.404031 -0.909513
3807 1 -1.347367 -7.469232 -15.612923 0 1.000000 1.000000 1.000000 -0.079599 -0.427692 -0.900413
3808 1 -1.664727 -8.003182 -15.315439 0 1.000000 1.000000 1.000000 -0.094029 -0.462767 -0.881479
3809 1 -1.304308 -8.437536 -15.116699 0 1.000000 1.000000 1.000000 -0.077727 -0.483290 -0.872003
3810 1 -0.318368 8.750622 -14.992302 0 1.000000 1.000000 1.000000 -0.021003 0.500804 -0.865306
3811 1 -0.647554 8.350933 -15.207413 0 1.000000 1.000000 1.000000 -0.035421 0.483304 -0.874736
3812 1 -0.329186 7.834877 -15.489163 0 1.000000 1.000000 1.000000 -0.020992 0.448226 -0.893674
3813 1 -0.668580 7.387530 -15.695933 0 1.000000 1.000000 1.000000 -0.037296 0.427704 -0.903149
3814 1 -0.339393 6.829344 -15.956706 0 1.000000 1.000000 1.000000 -0.020919 0.390558 -0.920341
3815 1 -0.688059 6.333351 -16.148144 0 1.000000 1.000000 1.000000 -0.039094 0.366801 -0.929478
3816 1 -0.348665 5.735779 -16.380356 0 1.000000 1.000000 1.000000 -0.020798 0.327907 -0.944481
3817 1 -0.705322 5.192114 -16.548607 0 1.000000 1.000000 1.000000 -0.040739 0.300802 -0.952816
3818 1 -0.356656 4.560217 -16.744626 0 1.000000 1.000000 1.000000 -0.020651 0.260623 -0.965220
3819 1 -0.719680 3.972271 -16.881471 0 1.000000 1.000000 1.000000 -0.042143 0.230194 -0.972232
3820 1 -0.363024 3.313560 -17.034309 0 1.000000 1.000000 1.000000 -0.020505 0.189329 -0.981700
3821 1 -0.730486 2.687387 -17.131871 0 1.000000 1.000000 1.000000 -0.043223 0.155767 -0.986848
3822 1 -0.367463 2.011634 -17.235970 0 1.000000 1.000000 1.000000 -0.020388 0.114920 -0.993165
3823 1 -0.737207 1.355880 -17.287546 0 1.000000 1.000000 1.000000 -0.043904 0.078600 -0.995939
3824 1 -0.369745 0.674566 -17.339516 0 1.000000 1.000000 1.000000 -0.020323 0.038533 -0.999051
3825 1 -0.739489 0.000000 -17.340384 0 1.000000 1.000000 1.000000 -0.044137 -0.000000 -0.999025
3826 1 -0.369745 -0.674566 -17.339516 0 1.000000 1.000000 1.000000 -0.020323 -0.038533 -0.999051
3827 1 -0.737207 -1.355880 -17.287546 0 1.000000 1.000000 1.000000 -0.043904 -0.078600 -0.995939
3828 1 -0.367463 -2.011634 -17.235970 0 1.000000 1.000000 1.000000 -0.020388 -0.114920 -0.993165
3829 1 -0.730486 -2.687387 -17.131871 0 1.000000 1.000000 1.000000 -0.043223 -0.155767 -0.986848
3830 1 -0.363024 -3.313560 -17.034309 0 1.000000 1.000000 1.000000 -0.020505 -0.189329 -0.981700
3831 1 -0.719680 -3.972271 -16.881471 0 1.000000 1.000000 1.000000 -0.042143 -0.230194 -0.972232
3832 1 -0.356656 -4.560217 -16.744626 0 1.000000 1.000000 1.000000 -0.020651 -0.260623 -0.965220
3833 1 -0.705322 -5.192114 -16.548607 0 1.000000 1.000000 1.000000 -0.040739 -0.300802 -0.952816
3834 1 -0.348665 -5.735779 -16.380356 0 1.000000 1.000000 1.000000 -0.020798 -0.327907 -0.944481
3835 1 -0.688059 -6.333351 -16.148144 0 1.000000 1.000000 1.000000 -0.039094 -0.366801 -0.929478
3836 1 -0.339393 -6.829344 -15.956706 0 1.000000 1.000000 1.000000 -0.020919 -0.390558 -0.920341
3837 1 -0.668580 -7.387530 -15.695933 0 1.000000 1.000000 1.000000 -0.037296 -0.427704 -0.903149
3838 1 -0.329186 -7.834877 -15.489163 0 1.000000 1.000000 1.000000 -0.020992 -0.448226 -0.893674
3839 1 -0.647554 -8.350933 -15.207413 0 1.000000 1.000000 1.000000 -0.035421 -0.483304 -0.874736
3840 1 -0.318368 -8.750622 -14.992302 0 1.000000 1.000000 1.000000 -0.021003 -0.500804 -0.865306
3841 1 9.265752 14.673934 -0.515130 0 1.000000 1.000000 1.000000 0.534788 0.844302 -0.033984
3842 1 9.945292 14.184854 -1.135293 0 1.000000 1.000000 1.000000 0.573991 0.815946 -0.069030
3843 1 9.398698 14.559859 -1.047765 0 1.000000 1.000000 1.000000 0.540617 0.839315 -0.057313
3844 1 8.970171 14.787513 -1.507757 0 1.000000 1.000000 1.000000 0.517257 0.851011 -0.090701
3845 1 10.629166 13.608287 -1.790796 0 1.000000 1.000000 1.000000 0.613423 0.782602 -0.106046
3846 1 10.081114 14.031206 -1.697438 0 1.000000 1.000000 1.000000 0.579847 0.809120 -0.095409
3847 1 9.649317 14.265557 -2.180085 0 1.000000 1.000000 1.000000 0.556486 0.820814 -0.128794
3848 1 9.084967 14.646859 -2.077932 0 1.000000 1.000000 1.000000 0.523114 0.844183 -0.117079
3849 1 8.620141 14.849933 -2.558176 0 1.000000 1.000000 1.000000 0.496603 0.854801 -0.150667
3850 1 11.305201 12.938264 -2.475995 0 1.000000 1.000000 1.000000 0.652374 0.743949 -0.144733
3851 1 10.762980 13.410482 -2.380027 0 1.000000 1.000000 1.000000 0.619068 0.773568 -0.135452
3852 1 10.329769 13.649134 -2.885476 0 1.000000 1.000000 1.000000 0.595771 0.785228 -0.168740
3853 1 9.764158 14.081289 -2.778892 0 1.000000 1.000000 1.000000 0.562110 0.811815 -0.158079
3854 1 9.293045 14.289865 -3.281469 0 1.000000 1.000000 1.000000 0.535529 0.822460 -0.191751
3855 1 8.713378 14.677206 -3.162905 0 1.000000 1.000000 1.000000 0.502253 0.845764 -0.180071
3856 1 8.211774 14.850107 -3.657579 0 1.000000 1.000000 1.000000 0.472640 0.855031 -0.213385
3857 1 11.959174 12.171819 -3.182806 0 1.000000 1.000000 1.000000 0.690017 0.699840 -0.184664
3858 1 11.430992 12.692768 -3.088361 0 1.000000 1.000000 1.000000 0.657522 0.732351 -0.176994
3859 1 10.998230 12.932699 -3.616111 0 1.000000 1.000000 1.000000 0.634336 0.743954 -0.210119
3860 1 10.439228 13.416847 -3.509195 0 1.000000 1.000000 1.000000 0.600890 0.773699 -0.200800
3861 1 9.963727 13.628673 -4.033721 0 1.000000 1.000000 1.000000 0.574309 0.784343 -0.234469
3862 1 9.383156 14.069535 -3.912578 0 1.000000 1.000000 1.000000 0.540651 0.810929 -0.223810
3863 1 8.872189 14.246665 -4.428187 0 1.000000 1.000000 1.000000 0.510910 0.820235 -0.257263
3864 1 8.280475 14.639895 -4.291751 0 1.000000 1.000000 1.000000 0.477795 0.843428 -0.245643
3865 1 7.743023 14.777543 -4.793233 0 1.000000 1.000000 1.000000 0.445288 0.851091 -0.278143
3866 1 12.575587 11.310061 -3.900803 0 1.000000 1.000000 1.000000 0.725453 0.650356 -0.225286
3867 1 12.070058 11.876763 -3.812759 0 1.000000 1.000000 1.000000 0.694347 0.685369 -0.219434
3868 1 11.639478 12.114438 -4.361500 0 1.000000 1.000000 1.000000 0.671292 0.696906 -0.252366
3869 1 11.095833 12.649425 -4.259297 0 1.000000 1.000000 1.000000 0.638639 0.729576 -0.244659
3870 1 10.617960 12.861723 -4.804641 0 1.000000 1.000000 1.000000 0.612108 0.740199 -0.278261
3871 1 10.044856 13.356824 -4.685981 0 1.000000 1.000000 1.000000 0.578605 0.769996 -0.268928
3872 1 9.526543 13.536256 -5.221525 0 1.000000 1.000000 1.000000 0.548812 0.779318 -0.302438
3873 1 8.934447 13.985234 -5.084873 0 1.000000 1.000000 1.000000 0.515219 0.805854 -0.291802
3874 1 8.384739 14.125977 -5.604699 0 1.000000 1.000000 1.000000 0.482552 0.813554 -0.324459
3875 1 7.785030 14.525056 -5.449494 0 1.000000 1.000000 1.000000 0.449627 0.836614 -0.312908
3876 1 7.214363 14.623480 -5.948609 0 1.000000 1.000000 1.000000 0.414615 0.842465 -0.344016
3877 1 13.138832 10.358984 -4.617674 0 1.000000 1.000000 1.000000 0.757781 0.595855 -0.265939
3878 1 12.664283 10.965810 -4.541322 0 1.000000 1.000000 1.000000 0.728631 0.632798 -0.262037
3879 1 12.237355 11.197393 -5.108814 0 1.000000 1.000000 1.000000 0.705698 0.644274 -0.294790
3880 1 11.718079 11.779319 -5.017036 0 1.000000 1.000000 1.000000 0.674453 0.679444 -0.288911
3881 1 11.239846 11.988914 -5.581185 0 1.000000 1.000000 1.000000 0.647995 0.690037 -0.322415
3882 1 10.683372 12.536331 -5.470992 0 1.000000 1.000000 1.000000 0.615261 0.722789 -0.314690
3883 1 10.159983 12.715741 -6.024680 0 1.000000 1.000000 1.000000 0.585468 0.732110 -0.348197
3884 1 9.576258 13.220565 -5.893872 0 1.000000 1.000000 1.000000 0.551967 0.761907 -0.338866
3885 1 9.016524 13.363002 -6.430419 0 1.000000 1.000000 1.000000 0.519218 0.769626 -0.371604
3886 1 8.417102 13.819436 -6.277898 0 1.000000 1.000000 1.000000 0.485720 0.796087 -0.361001
3887 1 7.831738 13.920214 -6.791610 0 1.000000 1.000000 1.000000 0.450551 0.801964 -0.392247
3888 1 7.228709 14.325179 -6.617526 0 1.000000 1.000000 1.000000 0.417804 0.824900 -0.380762
3889 1 6.629309 14.382091 -7.104091 0 1.000000 1.000000 1.000000 0.380860 0.828806 -0.409911
3890 1 13.634638 9.329751 -5.320051 0 1.000000 1.000000 1.000000 0.786180 0.536980 -0.305899
3891 1 13.198325 9.968513 -5.260619 0 1.000000 1.000000 1.000000 0.759491 0.575125 -0.303981
3892 1 12.776154 10.190178 -5.843667 0 1.000000 1.000000 1.000000 0.736645 0.586559 -0.336606
3893 1 12.289733 10.812233 -5.768215 0 1.000000 1.000000 1.000000 0.707402 0.623618 -0.332690
3894 1 11.813030 11.015775 -6.348220 0 1.000000 1.000000 1.000000 0.681014 0.634184 -0.366103
3895 1 11.282418 11.610530 -6.252968 0 1.000000 1.000000 1.000000 0.649696 0.669435 -0.360211
3896 1 10.756385 11.787331 -6.822140 0 1.000000 1.000000 1.000000 0.619930 0.678748 -0.393684
3897 1 10.190424 12.345125 -6.704044 0 1.000000 1.000000 1.000000 0.587170 0.711528 -0.385954
3898 1 9.623316 12.487606 -7.254934 0 1.000000 1.000000 1.000000 0.554392 0.719253 -0.418717
3899 1 9.033142 13.000660 -7.112116 0 1.000000 1.000000 1.000000 0.520923 0.749021 -0.409398
3900 1 8.435632 13.103122 -7.638272 0 1.000000 1.000000 1.000000 0.485672 0.754911 -0.440717
3901 1 7.833651 13.566243 -7.470287 0 1.000000 1.000000 1.000000 0.452263 0.781302 -0.430145
3902 1 7.217812 13.625422 -7.966765 0 1.000000 1.000000 1.000000 0.415203 0.785221 -0.459386
3903 1 6.616499 14.036305 -7.774652 0 1.000000 1.000000 1.000000 0.382581 0.808068 -0.447948
3904 1 5.994618 14.051543 -8.238280 0 1.000000 1.000000 1.000000 0.344432 0.809995 -0.474632
3905 1 14.051543 8.238280 -5.994618 0 1.000000 1.000000 1.000000 0.809995 0.474632 -0.344432
3906 1 13.658921 8.898707 -5.956733 0 1.000000 1.000000 1.000000 0.786160 0.513152 -0.344424
3907 1 13.242218 9.106986 -6.551273 0 1.000000 1.000000 1.000000 0.763345 0.524571 -0.377001
3908 1 12.795764 9.759696 -6.497640 0 1.000000 1.000000 1.000000 0.736625 0.562760 -0.375079
3909 1 12.322267 9.953956 -7.089663 0 1.000000 1.000000 1.000000 0.710278 0.573310 -0.408437
3910 1 11.825954 10.587981 -7.015696 0 1.000000 1.000000 1.000000 0.680995 0.610420 -0.404515
3911 1 11.299745 10.759523 -7.596845 0 1.000000 1.000000 1.000000 0.651259 0.619725 -0.437953
3912 1 10.760788 11.364118 -7.498541 0 1.000000 1.000000 1.000000 0.619913 0.655008 -0.432056
3913 1 10.189280 11.504848 -8.060647 0 1.000000 1.000000 1.000000 0.587136 0.662733 -0.464818
3914 1 9.617769 12.070543 -7.935136 0 1.000000 1.000000 1.000000 0.554377 0.695512 -0.457089
3915 1 9.011246 12.173893 -8.470973 0 1.000000 1.000000 1.000000 0.519094 0.701407 -0.488435
3916 1 8.419283 12.693419 -8.316928 0 1.000000 1.000000 1.000000 0.485659 0.731145 -0.479127
3917 1 7.789961 12.755075 -8.820850 0 1.000000 1.000000 1.000000 0.448548 0.735068 -0.508409
3918 1 7.190471 13.223957 -8.638671 0 1.000000 1.000000 1.000000 0.415192 0.761416 -0.497856
3919 1 6.551273 13.242218 -9.106986 0 1.000000 1.000000 1.000000 0.377001 0.763345 -0.524571
3920 1 5.956733 13.658921 -8.898707 0 1.000000 1.000000 1.000000 0.344424 0.786160 -0.513152
3921 1 5.320051 13.634638 -9.329751 0 1.000000 1.000000 1.000000 0.305899 0.786180 -0.536980
3922 1 14.382091 7.104091 -6.629309 0 1.000000 1.000000 1.000000 0.828806 0.409911 -0.380860
3923 1 14.036305 7.774652 -6.616499 0 1.000000 1.000000 1.000000 0.808068 0.447948 -0.382581
3924 1 13.625422 7.966765 -7.217812 0 1.000000 1.000000 1.000000 0.785221 0.459386 -0.415203
3925 1 13.223957 8.638671 -7.190471 0 1.000000 1.000000 1.000000 0.761416 0.497856 -0.415192
3926 1 12.755075 8.820850 -7.789961 0 1.000000 1.000000 1.000000 0.735068 0.508409 -0.448548
3927 1 12.299839 9.483425 -7.742786 0 1.000000 1.000000 1.000000 0.708350 0.546595 -0.446625
3928 1 11.775853 9.647243 -8.331690 0 1.000000 1.000000 1.000000 0.678626 0.555897 -0.480047
3929 1 11.272073 10.289316 -8.259716 0 1.000000 1.000000 1.000000 0.649333 0.593020 -0.476124
3930 1 10.699335 10.426501 -8.829259 0 1.000000 1.000000 1.000000 0.616563 0.600745 -0.508877
3931 1 10.155500 11.037438 -8.728494 0 1.000000 1.000000 1.000000 0.585212 0.636034 -0.502980
3932 1 9.543570 11.140803 -9.270722 0 1.000000 1.000000 1.000000 0.549923 0.641930 -0.534331
3933 1 8.970828 11.711564 -9.138713 0 1.000000 1.000000 1.000000 0.517170 0.674701 -0.526605
3934 1 8.331690 11.775853 -9.647243 0 1.000000 1.000000 1.000000 0.480047 0.678626 -0.555897
3935 1 7.742786 12.299839 -9.483425 0 1.000000 1.000000 1.000000 0.446625 0.708350 -0.546595
3936 1 7.089663 12.322267 -9.953956 0 1.000000 1.000000 1.000000 0.408437 0.710278 -0.573310
3937 1 6.497640 12.795764 -9.759696 0 1.000000 1.000000 1.000000 0.375079 0.736625 -0.562760
3938 1 5.843667 12.776154 -10.190178 0 1.000000 1.000000 1.000000 0.336606 0.736645 -0.586559
3939 1 5.260619 13.198325 -9.968513 0 1.000000 1.000000 1.000000 0.303981 0.759491 -0.575125
3940 1 4.617674 13.138832 -10.358984 0 1.000000 1.000000 1.000000 0.265939 0.757781 -0.595855
3941 1 14.623480 5.948609 -7.214363 0 1.000000 1.000000 1.000000 0.842465 0.344016 -0.414615
3942 1 14.325179 6.617526 -7.228709 0 1.000000 1.000000 1.000000 0.824900 0.380762 -0.417804
3943 1 13.920214 6.791610 -7.831738 0 1.000000 1.000000 1.000000 0.801964 0.392247 -0.450551
3944 1 13.566243 7.470287 -7.833651 0 1.000000 1.000000 1.000000 0.781302 0.430145 -0.452263
3945 1 13.103122 7.638272 -8.435632 0 1.000000 1.000000 1.000000 0.754911 0.440717 -0.485672
3946 1 12.693419 8.316928 -8.419283 0 1.000000 1.000000 1.000000 0.731145 0.479127 -0.485659
3947 1 12.173893 8.470973 -9.011246 0 1.000000 1.000000 1.000000 0.701407 0.488435 -0.519094
3948 1 11.711564 9.138713 -8.970828 0 1.000000 1.000000 1.000000 0.674701 0.526605 -0.517170
3949 1 11.140803 9.270722 -9.543570 0 1.000000 1.000000 1.000000 0.641930 0.534331 -0.549923
3950 1 10.632355 9.916437 -9.473975 0 1.000000 1.000000 1.000000 0.612638 0.571453 -0.546000
3951 1 10.018925 10.018925 -10.018925 0 1.000000 1.000000 1.000000 0.577350 0.577350 -0.577350
3952 1 9.473975 10.632355 -9.916437 0 1.000000 1.000000 1.000000 0.546000 0.612638 -0.571453
3953 1 8.829259 10.699335 -10.426501 0 1.000000 1.000000 1.000000 0.508877 0.616563 -0.600745
3954 1 8.259716 11.272073 -10.289316 0 1.000000 1.000000 1.000000 0.476124 0.649333 -0.593020
3955 1 7.596845 11.299745 -10.759523 0 1.000000 1.000000 1.000000 0.437953 0.651259 -0.619725
3956 1 7.015696 11.825954 -10.587981 0 1.000000 1.000000 1.000000 0.404515 0.680995 -0.610420
3957 1 6.348220 11.813030 -11.015775 0 1.000000 1.000000 1.000000 0.366103 0.681014 -0.634184
3958 1 5.768215 12.289733 -10.812233 0 1.000000 1.000000 1.000000 0.332690 0.707402 -0.623618
3959 1 5.108814 12.237355 -11.197393 0 1.000000 1.000000 1.000000 0.294790 0.705698 -0.644274
3960 1 4.541322 12.664283 -10.965810 0 1.000000 1.000000 1.000000 0.262037 0.728631 -0.632798
3961 1 3.900803 12.575587 -11.310061 0 1.000000 1.000000 1.000000 0.225286 0.725453 -0.650356
3962 1 14.777543 4.793233 -7.743023 0 1.000000 1.000000 1.000000 0.851091 0.278143 -0.445288
3963 1 14.525056 5.449494 -7.785030 0 1.000000 1.000000 1.000000 0.836614 0.312908 -0.449627
3964 1 14.125977 5.604699 -8.384739 0 1.000000 1.000000 1.000000 0.813554 0.324459 -0.482552
3965 1 13.819436 6.277898 -8.417102 0 1.000000 1.000000 1.000000 0.796087 0.361001 -0.485720
3966 1 13.363002 6.430419 -9.016524 0 1.000000 1.000000 1.000000 0.769626 0.371604 -0.519218
3967 1 13.000660 7.112116 -9.033142 0 1.000000 1.000000 1.000000 0.749021 0.409398 -0.520923
3968 1 12.487606 7.254934 -9.623316 0 1.000000 1.000000 1.000000 0.719253 0.418717 -0.554392
3969 1 12.070543 7.935136 -9.617769 0 1.000000 1.000000 1.000000 0.695512 0.457089 -0.554377
3970 1 11.504848 8.060647 -10.189280 0 1.000000 1.000000 1.000000 0.662733 0.464818 -0.587136
3971 1 11.037438 8.728494 -10.155500 0 1.000000 1.000000 1.000000 0.636034 0.502980 -0.585212
3972 1 10.426501 8.829259 -10.699335 0 1.000000 1.000000 1.000000 0.600745 0.508877 -0.616563
3973 1 9.916437 9.473975 -10.632355 0 1.000000 1.000000 1.000000 0.571453 0.546000 -0.612638
3974 1 9.270722 9.543570 -11.140803 0 1.000000 1.000000 1.000000 0.534331 0.549923 -0.641930
3975 1 8.728494 10.155500 -11.037438 0 1.000000 1.000000 1.000000 0.502980 0.585212 -0.636034
3976 1 8.060647 10.189280 -11.504848 0 1.000000 1.000000 1.000000 0.464818 0.587136 -0.662733
3977 1 7.498541 10.760788 -11.364118 0 1.000000 1.000000 1.000000 0.432056 0.619913 -0.655008
3978 1 6.822140 10.756385 -11.787331 0 1.000000 1.000000 1.000000 0.393684 0.619930 -0.678748
3979 1 6.252968 11.282418 -11.610530 0 1.000000 1.000000 1.000000 0.360211 0.649696 -0.669435
3980 1 5.581185 11.239846 -11.988914 0 1.000000 1.000000 1.000000 0.322415 0.647995 -0.690037
3981 1 5.017036 11.718079 -11.779319 0 1.000000 1.000000 1.000000 0.288911 0.674453 -0.679444
3982 1 4.361500 11.639478 -12.114438 0 1.000000 1.000000 1.000000 0.252366 0.671292 -0.696906
3983 1 3.812759 12.070058 -11.876763 0 1.000000 1.000000 1.000000 0.219434 0.694347 -0.685369
3984 1 3.182806 11.959174 -12.171819 0 1.000000 1.000000 1.000000 0.184664 0.690017 -0.699840
3985 1 14.850107 3.657579 -8.211774 0 1.000000 1.000000 1.000000 0.855031 0.213385 -0.472640
3986 1 14.639895 4.291751 -8.280475 0 1.000000 1.000000 1.000000 0.843428 0.245643 -0.477795
3987 1 14.246665 4.428187 -8.872189 0 1.000000 1.000000 1.000000 0.820235 0.257263 -0.510910
3988 1 13.985234 5.084873 -8.934447 0 1.000000 1.000000 1.000000 0.805854 0.291802 -0.515219
3989 1 13.536256 5.221525 -9.526543 0 1.000000 1.000000 1.000000 0.779318 0.302438 -0.548812
3990 1 13.220565 5.893872 -9.576258 0 1.000000 1.000000 1.000000 0.761907 0.338866 -0.551967
3991 1 12.715741 6.024680 -10.159983 0 1.000000 1.000000 1.000000 0.732110 0.348197 -0.585468
3992 1 12.345125 6.704044 -10.190424 0 1.000000 1.000000 1.000000 0.711528 0.385954 -0.587170
3993 1 11.787331 6.822140 -10.756385 0 1.000000 1.000000 1.000000 0.678748 0.393684 -0.619930
3994 1 11.364118 7.498541 -10.760788 0 1.000000 1.000000 1.000000 0.655008 0.432056 -0.619913
3995 1 10.759523 7.596845 -11.299745 0 1.000000 1.000000 1.000000 0.619725 0.437953 -0.651259
3996 1 10.289316 8.259716 -11.272073 0 1.000000 1.000000 1.000000 0.593020 0.476124 -0.649333
3997 1 9.647243 8.331690 -11.775853 0 1.000000 1.000000 1.000000 0.555897 0.480047 -0.678626
3998 1 9.138713 8.970828 -11.711564 0 1.000000 1.000000 1.000000 0.526605 0.517170 -0.674701
3999 1 8.470973 9.011246 -12.173893 0 1.000000 1.000000 1.000000 0.488435 0.519094 -0.701407
4000 1 7.935136 9.617769 -12.070543 0 1.000000 1.000000 1.000000 0.457089 0.554377 -0.695512
4001 1 7.254934 9.623316 -12.487606 0 1.000000 1.000000 1.000000 0.418717 0.554392 -0.719253
4002 1 6.704044 10.190424 -12.345125 0 1.000000 1.000000 1.000000 0.385954 0.587170 -0.711528
4003 1 6.024680 10.159983 -12.715741 0 1.000000 1.000000 1.000000 0.348197 0.585468 -0.732110
4004 1 5.470992 10.683372 -12.536331 0 1.000000 1.000000 1.000000 0.314690 0.615261 -0.722789
4005 1 4.804641 10.617960 -12.861723 0 1.000000 1.000000 1.000000 0.278261 0.612108 -0.740199
4006 1 4.259297 11.095833 -12.649425 0 1.000000 1.000000 1.000000 0.244659 0.638639 -0.729576
4007 1 3.616111 10.998230 -12.932699 0 1.000000 1.000000 1.000000 0.210119 0.634336 -0.743954
4008 1 3.088361 11.430992 -12.692768 0 1.000000 1.000000 1.000000 0.176994 0.657522 -0.732351
4009 1 2.475995 11.305201 -12.938264 0 1.000000 1.000000 1.000000 0.144733 0.652374 -0.743949
4010 1 14.849933 2.558176 -8.620141 0 1.000000 1.000000 1.000000 0.854801 0.150667 -0.496603
4011 1 14.677206 3.162905 -8.713378 0 1.000000 1.000000 1.000000 0.845764 0.180071 -0.502253
4012 1 14.289865 3.281469 -9.293045 0 1.000000 1.000000 1.000000 0.822460 0.191751 -0.535529
4013 1 14.069535 3.912578 -9.383156 0 1.000000 1.000000 1.000000 0.810929 0.223810 -0.540651
4014 1 13.628673 4.033721 -9.963727 0 1.000000 1.000000 1.000000 0.784343 0.234469 -0.574309
4015 1 13.356824 4.685981 -10.044856 0 1.000000 1.000000 1.000000 0.769996 0.268928 -0.578605
4016 1 12.861723 4.804641 -10.617960 0 1.000000 1.000000 1.000000 0.740199 0.278261 -0.612108
4017 1 12.536331 5.470992 -10.683372 0 1.000000 1.000000 1.000000 0.722789 0.314690 -0.615261
4018 1 11.988914 5.581185 -11.239846 0 1.000000 1.000000 1.000000 0.690037 0.322415 -0.647995
4019 1 11.610530 6.252968 -11.282418 0 1.000000 1.000000 1.000000 0.669435 0.360211 -0.649696
4020 1 11.015775 6.348220 -11.813030 0 1.000000 1.000000 1.000000 0.634184 0.366103 -0.681014
4021 1 10.587981 7.015696 -11.825954 0 1.000000 1.000000 1.000000 0.610420 0.404515 -0.680995
4022 1 9.953956 7.089663 -12.322267 0 1.000000 1.000000 1.000000 0.573310 0.408437 -0.710278
4023 1 9.483425 7.742786 -12.299839 0 1.000000 1.000000 1.000000 0.546595 0.446625 -0.708350
4024 1 8.820850 7.789961 -12.755075 0 1.000000 1.000000 1.000000 0.508409 0.448548 -0.735068
4025 1 8.316928 8.419283 -12.693419 0 1.000000 1.000000 1.000000 0.479127 0.485659 -0.731145
4026 1 7.638272 8.435632 -13.103122 0 1.000000 1.000000 1.000000 0.440717 0.485672 -0.754911
4027 1 7.112116 9.033142 -13.000660 0 1.000000 1.000000 1.000000 0.409398 0.520923 -0.749021
4028 1 6.430419 9.016524 -13.363002 0 1.000000 1.000000 1.000000 0.371604 0.519218 -0.769626
4029 1 5.893872 9.576258 -13.220565 0 1.000000 1.000000 1.000000 0.338866 0.551967 -0.761907
4030 1 5.221525 9.526543 -13.536256 0 1.000000 1.000000 1.000000 0.302438 0.548812 -0.779318
4031 1 4.685981 10.044856 -13.356824 0 1.000000 1.000000 1.000000 0.268928 0.578605 -0.769996
4032 1 4.033721 9.963727 -13.628673 0 1.000000 1.000000 1.000000 0.234469 0.574309 -0.784343
4033 1 3.509195 10.439228 -13.416847 0 1.000000 1.000000 1.000000 0.200800 0.600890 -0.773699
4034 1 2.885476 10.329769 -13.649134 0 1.000000 1.000000 1.000000 0.168740 0.595771 -0.785228
4035 1 2.380027 10.762980 -13.410482 0 1.000000 1.000000 1.000000 0.135452 0.619068 -0.773568
4036 1 1.790796 10.629166 -13.608287 0 1.000000 1.000000 1.000000 0.106046 0.613423 -0.782602
4037 1 14.787513 1.507757 -8.970171 0 1.000000 1.000000 1.000000 0.851011 0.090701 -0.517257
4038 1 14.646859 2.077932 -9.084967 0 1.000000 1.000000 1.000000 0.844183 0.117079 -0.523114
4039 1 14.265557 2.180085 -9.649317 0 1.000000 1.000000 1.000000 0.820814 0.128794 -0.556486
4040 1 14.081289 2.778892 -9.764158 0 1.000000 1.000000 1.000000 0.811815 0.158079 -0.562110
4041 1 13.649134 2.885476 -10.329769 0 1.000000 1.000000 1.000000 0.785228 0.168740 -0.595771
4042 1 13.416847 3.509195 -10.439228 0 1.000000 1.000000 1.000000 0.773699 0.200800 -0.600890
4043 1 12.932699 3.616111 -10.998230 0 1.000000 1.000000 1.000000 0.743954 0.210119 -0.634336
4044 1 12.649425 4.259297 -11.095833 0 1.000000 1.000000 1.000000 0.729576 0.244659 -0.638639
4045 1 12.114438 4.361500 -11.639478 0 1.000000 1.000000 1.000000 0.696906 0.252366 -0.671292
4046 1 11.779319 5.017036 -11.718079 0 1.000000 1.000000 1.000000 0.679444 0.288911 -0.674453
4047 1 11.197393 5.108814 -12.237355 0 1.000000 1.000000 1.000000 0.644274 0.294790 -0.705698
4048 1 10.812233 5.768215 -12.289733 0 1.000000 1.000000 1.000000 0.623618 0.332690 -0.707402
4049 1 10.190178 5.843667 -12.776154 0 1.000000 1.000000 1.000000 0.586559 0.336606 -0.736645
4050 1 9.759696 6.497640 -12.795764 0 1.000000 1.000000 1.000000 0.562760 0.375079 -0.736625
4051 1 9.106986 6.551273 -13.242218 0 1.000000 1.000000 1.000000 0.524571 0.377001 -0.763345
4052 1 8.638671 7.190471 -13.223957 0 1.000000 1.000000 1.000000 0.497856 0.415192 -0.761416
4053 1 7.966765 7.217812 -13.625422 0 1.000000 1.000000 1.000000 0.459386 0.415203 -0.785221
4054 1 7.470287 7.833651 -13.566243 0 1.000000 1.000000 1.000000 0.430145 0.452263 -0.781302
4055 1 6.791610 7.831738 -13.920214 0 1.000000 1.000000 1.000000 0.392247 0.450551 -0.801964
4056 1 6.277898 8.417102 -13.819436 0 1.000000 1.000000 1.000000 0.361001 0.485720 -0.796087
4057 1 5.604699 8.384739 -14.125977 0 1.000000 1.000000 1.000000 0.324459 0.482552 -0.813554
4058 1 5.084873 8.934447 -13.985234 0 1.000000 1.000000 1.000000 0.291802 0.515219 -0.805854
4059 1 4.428187 8.872189 -14.246665 0 1.000000 1.000000 1.000000 0.257263 0.510910 -0.820235
4060 1 3.912578 9.383156 -14.069535 0 1.000000 1.000000 1.000000 0.223810 0.540651 -0.810929
4061 1 3.281469 9.293045 -14.289865 0 1.000000 1.000000 1.000000 0.191751 0.535529 -0.822460
4062 1 2.778892 9.764158 -14.081289 0 1.000000 1.000000 1.000000 0.158079 0.562110 -0.811815
4063 1 2.180085 9.649317 -14.265557 0 1.000000 1.000000 1.000000 0.128794 0.556486 -0.820814
4064 1 1.697438 10.081114 -14.031206 0 1.000000 1.000000 1.000000 0.095409 0.579847 -0.809120
4065 1 1.135293 9.945292 -14.184854 0 1.000000 1.000000 1.000000 0.069030 0.573991 -0.815946
4066 1 14.673934 0.515130 -9.265752 0 1.000000 1.000000 1.000000 0.844302 0.033984 -0.534788
4067 1 14.559859 1.047765 -9.398698 0 1.000000 1.000000 1.000000 0.839315 0.057313 -0.540617
4068 1 14.184854 1.135293 -9.945292 0 1.000000 1.000000 1.000000 0.815946 0.069030 -0.573991
4069 1 14.031206 1.697438 -10.081114 0 1.000000 1.000000 1.000000 0.809120 0.095409 -0.579847
4070 1 13.608287 1.790796 -10.629166 0 1.000000 1.000000 1.000000 0.782602 0.106046 -0.613423
4071 1 13.410482 2.380027 -10.762980 0 1.000000 1.000000 1.000000 0.773568 0.135452 -0.619068
4072 1 12.938264 2.475995 -11.305201 0 1.000000 1.000000 1.000000 0.743949 0.144733 -0.652374
4073 1 12.692768 3.088361 -11.430992 0 1.000000 1.000000 1.000000 0.732351 0.176994 -0.657522
4074 1 12.171819 3.182806 -11.959174 0 1.000000 1.000000 1.000000 0.699840 0.184664 -0.690017
4075 1 11.876763 3.812759 -12.070058 0 1.000000 1.000000 1.000000 0.685369 0.219434 -0.694347
4076 1 11.310061 3.900803 -12.575587 0 1.000000 1.000000 1.000000 0.650356 0.225286 -0.725453
4077 1 10.965810 4.541322 -12.664283 0 1.000000 1.000000 1.000000 0.632798 0.262037 -0.728631
4078 1 10.358984 4.617674 -13.138832 0 1.000000 1.000000 1.000000 0.595855 0.265939 -0.757781
4079 1 9.968513 5.260619 -13.198325 0 1.000000 1.000000 1.000000 0.575125 0.303981 -0.759491
4080 1 9.329751 5.320051 -13.634638 0 1.000000 1.000000 1.000000 0.536980 0.305899 -0.786180
4081 1 8.898707 5.956733 -13.658921 0 1.000000 1.000000 1.000000 0.513152 0.344424 -0.786160
4082 1 8.238280 5.994618 -14.051543 0 1.000000 1.000000 1.000000 0.474632 0.344432 -0.809995
4083 1 7.774652 6.616499 -14.036305 0 1.000000 1.000000 1.000000 0.447948 0.382581 -0.808068
4084 1 7.104091 6.629309 -14.382091 0 1.000000 1.000000 1.000000 0.409911 0.380860 -0.828806
4085 1 6.617526 7.228709 -14.325179 0 1.000000 1.000000 1.000000 0.380762 0.417804 -0.824900
4086 1 5.948609 7.214363 -14.623480 0 1.000000 1.000000 1.000000 0.344016 0.414615 -0.842465
4087 1 5.449494 7.785030 -14.525056 0 1.000000 1.000000 1.000000 0.312908 0.449627 -0.836614
4088 1 4.793233 7.743023 -14.777543 0 1.000000 1.000000 1.000000 0.278143 0.445288 -0.851091
4089 1 4.291751 8.280475 -14.639895 0 1.000000 1.000000 1.000000 0.245643 0.477795 -0.843428
4090 1 3.657579 8.211774 -14.850107 0 1.000000 1.000000 1.000000 0.213385 0.472640 -0.855031
4091 1 3.162905 8.713378 -14.677206 0 1.000000 1.000000 1.000000 0.180071 0.502253 -0.845764
4092 1 2.558176 8.620141 -14.849933 0 1.000000 1.000000 1.000000 0.150667 0.496603 -0.854801
4093 1 2.077932 9.084967 -14.646859 0 1.000000 1.000000 1.000000 0.117079 0.523114 -0.844183
4094 1 1.507757 8.970171 -14.787513 0 1.000000 1.000000 1.000000 0.090701 0.517257 -0.851011
4095 1 1.047765 9.398698 -14.559859 0 1.000000 1.000000 1.000000 0.057313 0.540617 -0.839315
4096 1 0.515130 9.265752 -14.673934 0 1.000000 1.000000 1.000000 0.033984 0.534788 -0.844302
4097 1 14.992302 -0.318368 8.750622 0 1.000000 1.000000 1.000000 0.865306 -0.021003 0.500804
4098 1 15.116699 -1.304308 8.437536 0 1.000000 1.000000 1.000000 0.872003 -0.077727 0.483290
4099 1 15.207413 -0.647554 8.350933 0 1.000000 1.000000 1.000000 0.874736 -0.035421 0.483304
4100 1 15.489163 -0.329186 7.834877 0 1.000000 1.000000 1.000000 0.893674 -0.020992 0.448226
4101 1 15.189327 -2.348419 8.070991 0 1.000000 1.000000 1.000000 0.875720 -0.137738 0.462756
4102 1 15.315439 -1.664727 8.003182 0 1.000000 1.000000 1.000000 0.881479 -0.094029 0.462767
4103 1 15.612923 -1.347367 7.469232 0 1.000000 1.000000 1.000000 0.900413 -0.079599 0.427692
4104 1 15.695933 -0.668580 7.387530 0 1.000000 1.000000 1.000000 0.903149 -0.037296 0.427704
4105 1 15.956706 -0.339393 6.829344 0 1.000000 1.000000 1.000000 0.920341 -0.020919 0.390558
4106 1 15.198772 -3.442092 7.647622 0 1.000000 1.000000 1.000000 0.875829 -0.200532 0.438989
4107 1 15.365265 -2.737661 7.600075 0 1.000000 1.000000 1.000000 0.884858 -0.155910 0.438997
4108 1 15.677193 -2.424053 7.048300 0 1.000000 1.000000 1.000000 0.903736 -0.141519 0.404021
4109 1 15.798739 -1.717450 6.985265 0 1.000000 1.000000 1.000000 0.909513 -0.097698 0.404031
4110 1 16.073187 -1.387329 6.407569 0 1.000000 1.000000 1.000000 0.926747 -0.081277 0.366789
4111 1 16.148144 -0.688059 6.333351 0 1.000000 1.000000 1.000000 0.929478 -0.039094 0.366801
4112 1 16.380356 -0.348665 5.735779 0 1.000000 1.000000 1.000000 0.944481 -0.020798 0.327907
4113 1 15.134200 -4.572807 7.165942 0 1.000000 1.000000 1.000000 0.871741 -0.265380 0.411874
4114 1 15.345216 -3.855839 7.139241 0 1.000000 1.000000 1.000000 0.884167 -0.220466 0.411879
4115 1 15.669469 -3.548845 6.570043 0 1.000000 1.000000 1.000000 0.902952 -0.206142 0.377073
4116 1 15.834953 -2.821490 6.526649 0 1.000000 1.000000 1.000000 0.912021 -0.161332 0.377080
4117 1 16.121649 -2.492977 5.930006 0 1.000000 1.000000 1.000000 0.929252 -0.144910 0.339841
4118 1 16.238337 -1.765418 5.873961 0 1.000000 1.000000 1.000000 0.935031 -0.101092 0.339850
4119 1 16.481544 -1.422804 5.256078 0 1.000000 1.000000 1.000000 0.950096 -0.082716 0.300791
4120 1 16.548607 -0.705322 5.192114 0 1.000000 1.000000 1.000000 0.952816 -0.040739 0.300802
4121 1 16.744626 -0.356656 4.560217 0 1.000000 1.000000 1.000000 0.965220 -0.020651 0.260623
4122 1 14.986504 -5.724248 6.626979 0 1.000000 1.000000 1.000000 0.862970 -0.331343 0.381437
4123 1 15.244736 -5.004708 6.620564 0 1.000000 1.000000 1.000000 0.878757 -0.286863 0.381439
4124 1 15.578333 -4.707094 6.034779 0 1.000000 1.000000 1.000000 0.897433 -0.272619 0.346833
4125 1 15.792049 -3.968200 6.010960 0 1.000000 1.000000 1.000000 0.909920 -0.227486 0.346838
4126 1 16.088803 -3.643964 5.396435 0 1.000000 1.000000 1.000000 0.927116 -0.211094 0.309671
4127 1 16.252919 -2.896095 5.358876 0 1.000000 1.000000 1.000000 0.936203 -0.166206 0.309677
4128 1 16.505687 -2.552547 4.721902 0 1.000000 1.000000 1.000000 0.951293 -0.147798 0.270551
4129 1 16.617625 -1.806815 4.675150 0 1.000000 1.000000 1.000000 0.957062 -0.104065 0.270559
4130 1 16.821532 -1.452355 4.023240 0 1.000000 1.000000 1.000000 0.969525 -0.083879 0.230185
4131 1 16.881471 -0.719680 3.972271 0 1.000000 1.000000 1.000000 0.972232 -0.042143 0.230194
4132 1 17.034309 -0.363024 3.313560 0 1.000000 1.000000 1.000000 0.981700 -0.020505 0.189329
4133 1 14.749554 -6.876987 6.034741 0 1.000000 1.000000 1.000000 0.849194 -0.397310 0.347871
4134 1 15.055666 -6.166061 6.046757 0 1.000000 1.000000 1.000000 0.868123 -0.354049 0.347868
4135 1 15.394839 -5.880241 5.445745 0 1.000000 1.000000 1.000000 0.886696 -0.339880 0.313451
4136 1 15.659273 -5.140815 5.440182 0 1.000000 1.000000 1.000000 0.902555 -0.295200 0.313452
4137 1 15.963131 -4.823451 4.809427 0 1.000000 1.000000 1.000000 0.919701 -0.278852 0.276391
4138 1 16.178944 -4.065493 4.789499 0 1.000000 1.000000 1.000000 0.932220 -0.233607 0.276395
4139 1 16.439198 -3.723457 4.135304 0 1.000000 1.000000 1.000000 0.947308 -0.215197 0.237272
4140 1 16.601824 -2.958379 4.105265 0 1.000000 1.000000 1.000000 0.956396 -0.170313 0.237277
4141 1 16.812365 -2.600129 3.435339 0 1.000000 1.000000 1.000000 0.968889 -0.150075 0.196803
4142 1 16.920135 -1.839838 3.400066 0 1.000000 1.000000 1.000000 0.974644 -0.106467 0.196809
4143 1 17.077635 -1.474625 2.722924 0 1.000000 1.000000 1.000000 0.984154 -0.084732 0.155761
4144 1 17.131871 -0.730486 2.687387 0 1.000000 1.000000 1.000000 0.986848 -0.043223 0.155767
4145 1 17.235970 -0.367463 2.011634 0 1.000000 1.000000 1.000000 0.993165 -0.020388 0.114920
4146 1 14.421288 -8.009765 5.396359 0 1.000000 1.000000 1.000000 0.830318 -0.462071 0.311548
4147 1 14.773512 -7.319033 5.423672 0 1.000000 1.000000 1.000000 0.851972 -0.420814 0.311543
4148 1 15.113909 -7.046829 4.809389 0 1.000000 1.000000 1.000000 0.870474 -0.406696 0.277259
4149 1 15.429124 -6.318963 4.819446 0 1.000000 1.000000 1.000000 0.889462 -0.363298 0.277257
4150 1 15.736487 -6.010763 4.174759 0 1.000000 1.000000 1.000000 0.906562 -0.346992 0.240297
4151 1 16.006060 -5.254677 4.170303 0 1.000000 1.000000 1.000000 0.922457 -0.302209 0.240298
4152 1 16.271127 -4.916590 3.501451 0 1.000000 1.000000 1.000000 0.937530 -0.283815 0.201213
4153 1 16.488452 -4.143327 3.486379 0 1.000000 1.000000 1.000000 0.950060 -0.238532 0.201216
4154 1 16.703921 -3.783521 2.801175 0 1.000000 1.000000 1.000000 0.962563 -0.218276 0.160708
4155 1 16.865207 -3.005400 2.780173 0 1.000000 1.000000 1.000000 0.971644 -0.173436 0.160712
4156 1 17.026538 -2.633365 2.087412 0 1.000000 1.000000 1.000000 0.981176 -0.151650 0.119569
4157 1 17.131196 -1.862881 2.065436 0 1.000000 1.000000 1.000000 0.986916 -0.108160 0.119573
4158 1 17.237007 -1.488487 1.374145 0 1.000000 1.000000 1.000000 0.993254 -0.085254 0.078597
4159 1 17.287546 -0.737207 1.355880 0 1.000000 1.000000 1.000000 0.995939 -0.043904 0.078600
4160 1 17.339516 -0.369745 0.674566 0 1.000000 1.000000 1.000000 0.999051 -0.020323 0.038533
4161 1 14.004383 -9.101236 4.721792 0 1.000000 1.000000 1.000000 0.806503 -0.524419 0.273015
4162 1 14.398410 -8.441677 4.760214 0 1.000000 1.000000 1.000000 0.830297 -0.485874 0.273008
4163 1 14.735413 -8.184141 4.135232 0 1.000000 1.000000 1.000000 0.848774 -0.471773 0.238774
4164 1 15.098688 -7.480024 4.157093 0 1.000000 1.000000 1.000000 0.870452 -0.430469 0.238770
4165 1 15.405541 -7.182772 3.501417 0 1.000000 1.000000 1.000000 0.887524 -0.414186 0.201870
4166 1 15.728125 -6.441376 3.509026 0 1.000000 1.000000 1.000000 0.906537 -0.370729 0.201868
4167 1 15.994873 -6.109478 2.828772 0 1.000000 1.000000 1.000000 0.921595 -0.352352 0.162824
4168 1 16.268301 -5.340778 2.825652 0 1.000000 1.000000 1.000000 0.937504 -0.307529 0.162825
4169 1 16.486602 -4.981754 2.128633 0 1.000000 1.000000 1.000000 0.950006 -0.287273 0.122319
4170 1 16.704896 -4.197759 2.119228 0 1.000000 1.000000 1.000000 0.962537 -0.241992 0.122321
4171 1 16.869001 -3.820979 1.414401 0 1.000000 1.000000 1.000000 0.972077 -0.220187 0.081142
4172 1 17.029357 -3.034706 1.403588 0 1.000000 1.000000 1.000000 0.981149 -0.175392 0.081144
4173 1 17.136728 -2.650466 0.700298 0 1.000000 1.000000 1.000000 0.987496 -0.152456 0.040111
4174 1 17.239720 -1.874731 0.692831 0 1.000000 1.000000 1.000000 0.993228 -0.109035 0.040113
4175 1 17.291127 -1.493196 -0.000000 0 1.000000 1.000000 1.000000 0.996344 -0.085429 0.000000
4176 1 17.340384 -0.739489 -0.000000 0 1.000000 1.000000 1.000000 0.999025 -0.044137 0.000000
4177 1 17.339516 -0.369745 -0.674566 0 1.000000 1.000000 1.000000 0.999051 -0.020323 -0.038533
4178 1 13.506295 -10.131879 4.023107 0 1.000000 1.000000 1.000000 0.778170 -0.583255 0.232950
4179 1 13.935532 -9.512893 4.067792 0 1.000000 1.000000 1.000000 0.803395 -0.547991 0.232943
4180 1 14.264641 -9.270242 3.435244 0 1.000000 1.000000 1.000000 0.821899 -0.533869 0.198662
4181 1 14.670495 -8.601048 3.464262 0 1.000000 1.000000 1.000000 0.845661 -0.495372 0.198657
4182 1 14.972733 -8.315878 2.801119 0 1.000000 1.000000 1.000000 0.862734 -0.479087 0.161758
4183 1 15.344505 -7.601718 2.816413 0 1.000000 1.000000 1.000000 0.884409 -0.437785 0.161755
4184 1 15.609568 -7.277878 2.128610 0 1.000000 1.000000 1.000000 0.899461 -0.419414 0.122728
4185 1 15.937352 -6.527033 2.133360 0 1.000000 1.000000 1.000000 0.918480 -0.375942 0.122727
4186 1 16.156122 -6.171085 1.428613 0 1.000000 1.000000 1.000000 0.930980 -0.355689 0.082231
4187 1 16.431944 -5.394506 1.427006 0 1.000000 1.000000 1.000000 0.946892 -0.310859 0.082232
4188 1 16.597585 -5.015319 0.714311 0 1.000000 1.000000 1.000000 0.956434 -0.289050 0.041046
4189 1 16.816349 -4.225788 0.711112 0 1.000000 1.000000 1.000000 0.968962 -0.243779 0.041047
4190 1 16.925121 -3.833714 0.000000 0 1.000000 1.000000 1.000000 0.975311 -0.220835 -0.000000
4191 1 17.085144 -3.044666 0.000000 0 1.000000 1.000000 1.000000 0.984380 -0.176059 -0.000000
4192 1 17.136728 -2.650466 -0.700298 0 1.000000 1.000000 1.000000 0.987496 -0.152456 -0.040111
4193 1 17.239720 -1.874731 -0.692831 0 1.000000 1.000000 1.000000 0.993228 -0.109035 -0.040113
4194 1 17.237007 -1.488487 -1.374145 0 1.000000 1.000000 1.000000 0.993254 -0.085254 -0.078597
4195 1 17.287546 -0.737207 -1.355880 0 1.000000 1.000000 1.000000 0.995939 -0.043904 -0.078600
4196 1 17.235970 -0.367463 -2.011634 0 1.000000 1.000000 1.000000 0.993165 -0.020388 -0.114920
4197 1 12.938611 -11.085700 3.313419 0 1.000000 1.000000 1.000000 0.745958 -0.637684 0.192109
4198 1 13.394769 -10.514344 3.359370 0 1.000000 1.000000 1.000000 0.771853 -0.606085 0.192101
4199 1 13.711979 -10.286025 2.722821 0 1.000000 1.000000 1.000000 0.790431 -0.591907 0.157690
4200 1 14.152614 -9.660909 2.754010 0 1.000000 1.000000 1.000000 0.815562 -0.556772 0.157684
4201 1 14.446395 -9.388266 2.087347 0 1.000000 1.000000 1.000000 0.832664 -0.540459 0.120728
4202 1 14.860660 -8.712429 2.105438 0 1.000000 1.000000 1.000000 0.856388 -0.502022 0.120724
4203 1 15.120724 -8.398028 1.414370 0 1.000000 1.000000 1.000000 0.871446 -0.483642 0.081682
4204 1 15.497860 -7.677636 1.422248 0 1.000000 1.000000 1.000000 0.893112 -0.442356 0.081681
4205 1 15.714654 -7.326863 0.714302 0 1.000000 1.000000 1.000000 0.905612 -0.422103 0.041185
4206 1 16.045132 -6.571157 0.715918 0 1.000000 1.000000 1.000000 0.924631 -0.378631 0.041185
4207 1 16.210961 -6.192036 -0.000000 0 1.000000 1.000000 1.000000 0.934172 -0.356822 -0.000000
4208 1 16.487593 -5.412777 0.000000 0 1.000000 1.000000 1.000000 0.950085 -0.311993 -0.000000
4209 1 16.597585 -5.015319 -0.714311 0 1.000000 1.000000 1.000000 0.956434 -0.289050 -0.041046
4210 1 16.816349 -4.225788 -0.711112 0 1.000000 1.000000 1.000000 0.968962 -0.243779 -0.041047
4211 1 16.869001 -3.820979 -1.414401 0 1.000000 1.000000 1.000000 0.972077 -0.220187 -0.081142
4212 1 17.029357 -3.034706 -1.403588 0 1.000000 1.000000 1.000000 0.981149 -0.175392 -0.081144
4213 1 17.026538 -2.633365 -2.087412 0 1.000000 1.000000 1.000000 0.981176 -0.151650 -0.119569
4214 1 17.131196 -1.862881 -2.065436 0 1.000000 1.000000 1.000000 0.986916 -0.108160 -0.119573
4215 1 17.077635 -1.474625 -2.722924 0 1.000000 1.000000 1.000000 0.984154 -0.084732 -0.155761
4216 1 17.131871 -0.730486 -2.687387 0 1.000000 1.000000 1.000000 0.986848 -0.043223 -0.155767
4217 1 17.034309 -0.363024 -3.313560 0 1.000000 1.000000 1.000000 0.981700 -0.020505 -0.189329
4218 1 12.315831 -11.951393 2.605724 0 1.000000 1.000000 1.000000 0.710667 -0.687077 0.151251
4219 1 12.789738 -11.431977 2.648293 0 1.000000 1.000000 1.000000 0.736490 -0.659324 0.151245
4220 1 13.091834 -11.216833 2.011539 0 1.000000 1.000000 1.000000 0.755171 -0.645067 0.116648
4221 1 13.557917 -10.642237 2.040116 0 1.000000 1.000000 1.000000 0.780920 -0.613643 0.116643
4222 1 13.839975 -10.381946 1.374088 0 1.000000 1.000000 1.000000 0.798070 -0.597286 0.079589
4223 1 14.287818 -9.753091 1.390130 0 1.000000 1.000000 1.000000 0.823132 -0.562246 0.079586
4224 1 14.539905 -9.448987 0.700275 0 1.000000 1.000000 1.000000 0.838207 -0.543846 0.040505
4225 1 14.958547 -8.769760 0.706425 0 1.000000 1.000000 1.000000 0.861906 -0.505448 0.040504
4226 1 15.171034 -8.425955 -0.000000 0 1.000000 1.000000 1.000000 0.874409 -0.485189 0.000000
4227 1 15.550006 -7.703450 -0.000000 0 1.000000 1.000000 1.000000 0.896070 -0.443912 0.000000
4228 1 15.714654 -7.326863 -0.714302 0 1.000000 1.000000 1.000000 0.905612 -0.422103 -0.041185
4229 1 16.045132 -6.571157 -0.715918 0 1.000000 1.000000 1.000000 0.924631 -0.378631 -0.041185
4230 1 16.156122 -6.171085 -1.428613 0 1.000000 1.000000 1.000000 0.930980 -0.355689 -0.082231
4231 1 16.431944 -5.394506 -1.427006 0 1.000000 1.000000 1.000000 0.946892 -0.310859 -0.082232
4232 1 16.486602 -4.981754 -2.128633 0 1.000000 1.000000 1.000000 0.950006 -0.287273 -0.122319
4233 1 16.704896 -4.197759 -2.119228 0 1.000000 1.000000 1.000000 0.962537 -0.241992 -0.122321
4234 1 16.703921 -3.783521 -2.801175 0 1.000000 1.000000 1.000000 0.962563 -0.218276 -0.160708
4235 1 16.865207 -3.005400 -2.780173 0 1.000000 1.000000 1.000000 0.971644 -0.173436 -0.160712
4236 1 16.812365 -2.600129 -3.435339 0 1.000000 1.000000 1.000000 0.968889 -0.150075 -0.196803
4237 1 16.920135 -1.839838 -3.400066 0 1.000000 1.000000 1.000000 0.974644 -0.106467 -0.196809
4238 1 16.821532 -1.452355 -4.023240 0 1.000000 1.000000 1.000000 0.969525 -0.083879 -0.230185
4239 1 16.881471 -0.719680 -3.972271 0 1.000000 1.000000 1.000000 0.972232 -0.042143 -0.230194
4240 1 16.744626 -0.356656 -4.560217 0 1.000000 1.000000 1.000000 0.965220 -0.020651 -0.260623
4241 1 11.653866 -12.722777 1.911843 0 1.000000 1.000000 1.000000 0.673171 -0.731096 0.111082
4242 1 12.136314 -12.256856 1.947127 0 1.000000 1.000000 1.000000 0.698261 -0.707173 0.111077
4243 1 12.421034 -12.053358 1.313966 0 1.000000 1.000000 1.000000 0.717052 -0.692833 0.076281
4244 1 12.902647 -11.532752 1.335810 0 1.000000 1.000000 1.000000 0.742705 -0.665260 0.076278
4245 1 13.170507 -11.284162 0.674533 0 1.000000 1.000000 1.000000 0.759906 -0.648855 0.039119
4246 1 13.641751 -10.707952 0.684234 0 1.000000 1.000000 1.000000 0.785574 -0.617530 0.039118
4247 1 13.883440 -10.414519 0.000000 0 1.000000 1.000000 1.000000 0.800666 -0.599111 0.000000
4248 1 14.333751 -9.784408 -0.000000 0 1.000000 1.000000 1.000000 0.825702 -0.564107 0.000000
4249 1 14.539905 -9.448987 -0.700275 0 1.000000 1.000000 1.000000 0.838207 -0.543846 -0.040505
4250 1 14.958547 -8.769760 -0.706425 0 1.000000 1.000000 1.000000 0.861906 -0.505448 -0.040504
4251 1 15.120724 -8.398028 -1.414370 0 1.000000 1.000000 1.000000 0.871446 -0.483642 -0.081682
4252 1 15.497860 -7.677636 -1.422248 0 1.000000 1.000000 1.000000 0.893112 -0.442356 -0.081681
4253 1 15.609568 -7.277878 -2.128610 0 1.000000 1.000000 1.000000 0.899461 -0.419414 -0.122728
4254 1 15.937352 -6.527033 -2.133360 0 1.000000 1.000000 1.000000 0.918480 -0.375942 -0.122727
4255 1 15.994873 -6.109478 -2.828772 0 1.000000 1.000000 1.000000 0.921595 -0.352352 -0.162824
4256 1 16.268301 -5.340778 -2.825652 0 1.000000 1.000000 1.000000 0.937504 -0.307529 -0.162825
4257 1 16.271127 -4.916590 -3.501451 0 1.000000 1.000000 1.000000 0.937530 -0.283815 -0.201213
4258 1 16.488452 -4.143327 -3.486379 0 1.000000 1.000000 1.000000 0.950060 -0.238532 -0.201216
4259 1 16.439198 -3.723457 -4.135304 0 1.000000 1.000000 1.000000 0.947308 -0.215197 -0.237272
4260 1 16.601824 -2.958379 -4.105265 0 1.000000 1.000000 1.000000 0.956396 -0.170313 -0.237277
4261 1 16.505687 -2.552547 -4.721902 0 1.000000 1.000000 1.000000 0.951293 -0.147798 -0.270551
4262 1 16.617625 -1.806815 -4.675150 0 1.000000 1.000000 1.000000 0.957062 -0.104065 -0.270559
4263 1 16.481544 -1.422804 -5.256078 0 1.000000 1.000000 1.000000 0.950096 -0.082716 -0.300791
4264 1 16.548607 -0.705322 -5.192114 0 1.000000 1.000000 1.000000 0.952816 -0.040739 -0.300802
4265 1 16.380356 -0.348665 -5.735779 0 1.000000 1.000000 1.000000 0.944481 -0.020798 -0.327907
4266 1 10.968560 -13.398531 1.241646 0 1.000000 1.000000 1.000000 0.634342 -0.769674 0.072199
4267 1 11.451039 -12.985239 1.266724 0 1.000000 1.000000 1.000000 0.658163 -0.749406 0.072196
4268 1 11.717098 -12.791718 0.640731 0 1.000000 1.000000 1.000000 0.677048 -0.734996 0.037232
4269 1 12.204646 -12.325758 0.652688 0 1.000000 1.000000 1.000000 0.701982 -0.711221 0.037230
4270 1 12.456704 -12.087929 -0.000000 0 1.000000 1.000000 1.000000 0.719219 -0.694783 -0.000000
4271 1 12.940952 -11.566938 0.000000 0 1.000000 1.000000 1.000000 0.744811 -0.667275 -0.000000
4272 1 13.170507 -11.284162 -0.674533 0 1.000000 1.000000 1.000000 0.759906 -0.648855 -0.039119
4273 1 13.641751 -10.707952 -0.684234 0 1.000000 1.000000 1.000000 0.785574 -0.617530 -0.039118
4274 1 13.839975 -10.381946 -1.374088 0 1.000000 1.000000 1.000000 0.798070 -0.597286 -0.079589
4275 1 14.287818 -9.753091 -1.390130 0 1.000000 1.000000 1.000000 0.823132 -0.562246 -0.079586
4276 1 14.446395 -9.388266 -2.087347 0 1.000000 1.000000 1.000000 0.832664 -0.540459 -0.120728
4277 1 14.860660 -8.712429 -2.105438 0 1.000000 1.000000 1.000000 0.856388 -0.502022 -0.120724
4278 1 14.972733 -8.315878 -2.801119 0 1.000000 1.000000 1.000000 0.862734 -0.479087 -0.161758
4279 1 15.344505 -7.601718 -2.816413 0 1.000000 1.000000 1.000000 0.884409 -0.437785 -0.161755
4280 1 15.405541 -7.182772 -3.501417 0 1.000000 1.000000 1.000000 0.887524 -0.414186 -0.201870
4281 1 15.728125 -6.441376 -3.509026 0 1.000000 1.000000 1.000000 0.906537 -0.370729 -0.201868
4282 1 15.736487 -6.010763 -4.174759 0 1.000000 1.000000 1.000000 0.906562 -0.346992 -0.240297
4283 1 16.006060 -5.254677 -4.170303 0 1.000000 1.000000 1.000000 0.922457 -0.302209 -0.240298
4284 1 15.963131 -4.823451 -4.809427 0 1.000000 1.000000 1.000000 0.919701 -0.278852 -0.276391
4285 1 16.178944 -4.065493 -4.789499 0 1.000000 1.000000 1.000000 0.932220 -0.233607 -0.276395
4286 1 16.088803 -3.643964 -5.396435 0 1.000000 1.000000 1.000000 0.927116 -0.211094 -0.309671
4287 1 16.252919 -2.896095 -5.358876 0 1.000000 1.000000 1.000000 0.936203 -0.166206 -0.309677
4288 1 16.121649 -2.492977 -5.930006 0 1.000000 1.000000 1.000000 0.929252 -0.144910 -0.339841
4289 1 16.238337 -1.765418 -5.873961 0 1.000000 1.000000 1.000000 0.935031 -0.101092 -0.339850
4290 1 16.073187 -1.387329 -6.407569 0 1.000000 1.000000 1.000000 0.926747 -0.081277 -0.366789
4291 1 16.148144 -0.688059 -6.333351 0 1.000000 1.000000 1.000000 0.929478 -0.039094 -0.366801
4292 1 15.956706 -0.339393 -6.829344 0 1.000000 1.000000 1.000000 0.920341 -0.020919 -0.390558
4293 1 10.274479 -13.981406 0.602658 0 1.000000 1.000000 1.000000 0.594984 -0.802973 0.035064
4294 1 10.749694 -13.618001 0.615653 0 1.000000 1.000000 1.000000 0.617143 -0.786069 0.035063
4295 1 10.996684 -13.432838 0.000000 0 1.000000 1.000000 1.000000 0.636085 -0.771619 0.000000
4296 1 11.481608 -13.019847 0.000000 0 1.000000 1.000000 1.000000 0.659808 -0.751434 0.000000
4297 1 11.717098 -12.791718 -0.640731 0 1.000000 1.000000 1.000000 0.677048 -0.734996 -0.037232
4298 1 12.204646 -12.325758 -0.652688 0 1.000000 1.000000 1.000000 0.701982 -0.711221 -0.037230
4299 1 12.421034 -12.053358 -1.313966 0 1.000000 1.000000 1.000000 0.717052 -0.692833 -0.076281
4300 1 12.902647 -11.532752 -1.335810 0 1.000000 1.000000 1.000000 0.742705 -0.665260 -0.076278
4301 1 13.091834 -11.216833 -2.011539 0 1.000000 1.000000 1.000000 0.755171 -0.645067 -0.116648
4302 1 13.557917 -10.642237 -2.040116 0 1.000000 1.000000 1.000000 0.780920 -0.613643 -0.116643
4303 1 13.711979 -10.286025 -2.722821 0 1.000000 1.000000 1.000000 0.790431 -0.591907 -0.157690
4304 1 14.152614 -9.660909 -2.754010 0 1.000000 1.000000 1.000000 0.815562 -0.556772 -0.157684
4305 1 14.264641 -9.270242 -3.435244 0 1.000000 1.000000 1.000000 0.821899 -0.533869 -0.198662
4306 1 14.670495 -8.601048 -3.464262 0 1.000000 1.000000 1.000000 0.845661 -0.495372 -0.198657
4307 1 14.735413 -8.184141 -4.135232 0 1.000000 1.000000 1.000000 0.848774 -0.471773 -0.238774
4308 1 15.098688 -7.480024 -4.157093 0 1.000000 1.000000 1.000000 0.870452 -0.430469 -0.238770
4309 1 15.113909 -7.046829 -4.809389 0 1.000000 1.000000 1.000000 0.870474 -0.406696 -0.277259
4310 1 15.429124 -6.318963 -4.819446 0 1.000000 1.000000 1.000000 0.889462 -0.363298 -0.277257
4311 1 15.394839 -5.880241 -5.445745 0 1.000000 1.000000 1.000000 0.886696 -0.339880 -0.313451
4312 1 15.659273 -5.140815 -5.440182 0 1.000000 1.000000 1.000000 0.902555 -0.295200 -0.313452
4313 1 15.578333 -4.707094 -6.034779 0 1.000000 1.000000 1.000000 0.897433 -0.272619 -0.346833
4314 1 15.792049 -3.968200 -6.010960 0 1.000000 1.000000 1.000000 0.909920 -0.227486 -0.346838
4315 1 15.669469 -3.548845 -6.570043 0 1.000000 1.000000 1.000000 0.902952 -0.206142 -0.377073
4316 1 15.834953 -2.821490 -6.526649 0 1.000000 1.000000 1.000000 0.912021 -0.161332 -0.377080
4317 1 15.677193 -2.424053 -7.048300 0 1.000000 1.000000 1.000000 0.903736 -0.141519 -0.404021
4318 1 15.798739 -1.717450 -6.985265 0 1.000000 1.000000 1.000000 0.909513 -0.097698 -0.404031
4319 1 15.612923 -1.347367 -7.469232 0 1.000000 1.000000 1.000000 0.900413 -0.079599 -0.427692
4320 1 15.695933 -0.668580 -7.387530 0 1.000000 1.000000 1.000000 0.903149 -0.037296 -0.427704
4321 1 15.489163 -0.329186 -7.834877 0 1.000000 1.000000 1.000000 0.893674 -0.020992 -0.448226
4322 1 9.584120 -14.477172 0.000000 0 1.000000 1.000000 1.000000 0.555791 -0.831322 0.000000
4323 1 10.046253 -14.159648 0.000000 0 1.000000 1.000000 1.000000 0.576038 -0.817423 0.000000
4324 1 10.274479 -13.981406 -0.602658 0 1.000000 1.000000 1.000000 0.594984 -0.802973 -0.035064
4325 1 10.749694 -13.618001 -0.615653 0 1.000000 1.000000 1.000000 0.617143 -0.786069 -0.035063
4326 1 10.968560 -13.398531 -1.241646 0 1.000000 1.000000 1.000000 0.634342 -0.769674 -0.072199
4327 1 11.451039 -12.985239 -1.266724 0 1.000000 1.000000 1.000000 0.658163 -0.749406 -0.072196
4328 1 11.653866 -12.722777 -1.911843 0 1.000000 1.000000 1.000000 0.673171 -0.731096 -0.111082
4329 1 12.136314 -12.256856 -1.947127 0 1.000000 1.000000 1.000000 0.698261 -0.707173 -0.111077
4330 1 12.315831 -11.951393 -2.605724 0 1.000000 1.000000 1.000000 0.710667 -0.687077 -0.151251
4331 1 12.789738 -11.431977 -2.648293 0 1.000000 1.000000 1.000000 0.736490 -0.659324 -0.151245
4332 1 12.938611 -11.085700 -3.313419 0 1.000000 1.000000 1.000000 0.745958 -0.637684 -0.192109
4333 1 13.394769 -10.514344 -3.359370 0 1.000000 1.000000 1.000000 0.771853 -0.606085 -0.192101
4334 1 13.506295 -10.131879 -4.023107 0 1.000000 1.000000 1.000000 0.778170 -0.583255 -0.232950
4335 1 13.935532 -9.512893 -4.067792 0 1.000000 1.000000 1.000000 0.803395 -0.547991 -0.232943
4336 1 14.004383 -9.101236 -4.721792 0 1.000000 1.000000 1.000000 0.806503 -0.524419 -0.273015
4337 1 14.398410 -8.441677 -4.760214 0 1.000000 1.000000 1.000000 0.830297 -0.485874 -0.273008
4338 1 14.421288 -8.009765 -5.396359 0 1.000000 1.000000 1.000000 0.830318 -0.462071 -0.311548
4339 1 14.773512 -7.319033 -5.423672 0 1.000000 1.000000 1.000000 0.851972 -0.420814 -0.311543
4340 1 14.749554 -6.876987 -6.034741 0 1.000000 1.000000 1.000000 0.849194 -0.397310 -0.347871
4341 1 15.055666 -6.166061 -6.046757 0 1.000000 1.000000 1.000000 0.868123 -0.354049 -0.347868
4342 1 14.986504 -5.724248 -6.626979 0 1.000000 1.000000 1.000000 0.862970 -0.331343 -0.381437
4343 1 15.244736 -5.004708 -6.620564 0 1.000000 1.000000 1.000000 0.878757 -0.286863 -0.381439
4344 1 15.134200 -4.572807 -7.165942 0 1.000000 1.000000 1.000000 0.871741 -0.265380 -0.411874
4345 1 15.345216 -3.855839 -7.139241 0 1.000000 1.000000 1.000000 0.884167 -0.220466 -0.411879
4346 1 15.198772 -3.442092 -7.647622 0 1.000000 1.000000 1.000000 0.875829 -0.200532 -0.438989
4347 1 15.365265 -2.737661 -7.600075 0 1.000000 1.000000 1.000000 0.884858 -0.155910 -0.438997
4348 1 15.189327 -2.348419 -8.070991 0 1.000000 1.000000 1.000000 0.875720 -0.137738 -0.462756
4349 1 15.315439 -1.664727 -8.003182 0 1.000000 1.000000 1.000000 0.881479 -0.094029 -0.462767
4350 1 15.116699 -1.304308 -8.437536 0 1.000000 1.000000 1.000000 0.872003 -0.077727 -0.483290
4351 1 15.207413 -0.647554 -8.350933 0 1.000000 1.000000 1.000000 0.874736 -0.035421 -0.483304
4352 1 14.992302 -0.318368 -8.750622 0 1.000000 1.000000 1.000000 0.865306 -0.021003 -0.500804
4353 1 0.000000 -9.584120 14.477172 0 1.000000 1.000000 1.000000 0.000000 -0.555791 0.831322
4354 1 -0.602658 -10.274479 13.981406 0 1.000000 1.000000 1.000000 -0.035064 -0.594984 0.802973
4355 1 0.000000 -10.046253 14.159648 0 1.000000 1.000000 1.000000 0.000000 -0.576038 0.817423
4356 1 0.602658 -10.274479 13.981406 0 1.000000 1.000000 1.000000 0.035064 -0.594984 0.802973
4357 1 -1.241646 -10.968560 13.398531 0 1.000000 1.000000 1.000000 -0.072199 -0.634342 0.769674
4358 1 -0.615653 -10.749694 13.618001 0 1.000000 1.000000 1.000000 -0.035063 -0.617143 0.786069
4359 1 0.000000 -10.996684 13.432838 0 1.000000 1.000000 1.000000 0.000000 -0.636085 0.771619
4360 1 0.615653 -10.749694 13.618001 0 1.000000 1.000000 1.000000 0.035063 -0.617143 0.786069
4361 1 1.241646 -10.968560 13.398531 0 1.000000 1.000000 1.000000 0.072199 -0.634342 0.769674
4362 1 -1.911843 -11.653866 12.722777 0 1.000000 1.000000 1.000000 -0.111082 -0.673171 0.731096
4363 1 -1.266724 -11.451039 12.985239 0 1.000000 1.000000 1.000000 -0.072196 -0.658163 0.749406
4364 1 -0.640731 -11.717098 12.791718 0 1.000000 1.000000 1.000000 -0.037232 -0.677048 0.734996
4365 1 0.000000 -11.481608 13.019847 0 1.000000 1.000000 1.000000 0.000000 -0.659808 0.751434
4366 1 0.640731 -11.717098 12.791718 0 1.000000 1.000000 1.000000 0.037232 -0.677048 0.734996
4367 1 1.266724 -11.451039 12.985239 0 1.000000 1.000000 1.000000 0.072196 -0.658163 0.749406
4368 1 1.911843 -11.653866 12.722777 0 1.000000 1.000000 1.000000 0.111082 -0.673171 0.731096
4369 1 -2.605724 -12.315831 11.951393 0 1.000000 1.000000 1.000000 -0.151251 -0.710667 0.687077
4370 1 -1.947127 -12.136314 12.256856 0 1.000000 1.000000 1.000000 -0.111077 -0.698261 0.707173
4371 1 -1.313966 -12.421034 12.053358 0 1.000000 1.000000 1.000000 -0.076281 -0.717052 0.692833
4372 1 -0.652688 -12.204646 12.325758 0 1.000000 1.000000 1.000000 -0.037230 -0.701982 0.711221
4373 1 0.000000 -12.456704 12.087929 0 1.000000 1.000000 1.000000 0.000000 -0.719219 0.694783
4374 1 0.652688 -12.204646 12.325758 0 1.000000 1.000000 1.000000 0.037230 -0.701982 0.711221
4375 1 1.313966 -12.421034 12.053358 0 1.000000 1.000000 1.000000 0.076281 -0.717052 0.692833
4376 1 1.947127 -12.136314 12.256856 0 1.000000 1.000000 1.000000 0.111077 -0.698261 0.707173
4377 1 2.605724 -12.315831 11.951393 0 1.000000 1.000000 1.000000 0.151251 -0.710667 0.687077
4378 1 -3.313419 -12.938611 11.085700 0 1.000000 1.000000 1.000000 -0.192109 -0.745958 0.637684
4379 1 -2.648293 -12.789738 11.431977 0 1.000000 1.000000 1.000000 -0.151245 -0.736490 0.659324
4380 1 -2.011539 -13.091834 11.216833 0 1.000000 1.000000 1.000000 -0.116648 -0.755171 0.645067
4381 1 -1.335810 -12.902647 11.532752 0 1.000000 1.000000 1.000000 -0.076278 -0.742705 0.665260
4382 1 -0.674533 -13.170507 11.284162 0 1.000000 1.000000 1.000000 -0.039119 -0.759906 0.648855
4383 1 0.000000 -12.940952 11.566938 0 1.000000 1.000000 1.000000 0.000000 -0.744811 0.667275
4384 1 0.674533 -13.170507 11.284162 0 1.000000 1.000000 1.000000 0.039119 -0.759906 0.648855
4385 1 1.335810 -12.902647 11.532752 0 1.000000 1.000000 1.000000 0.076278 -0.742705 0.665260
4386 1 2.011539 -13.091834 11.216833 0 1.000000 1.000000 1.000000 0.116648 -0.755171 0.645067
4387 1 2.648293 -12.789738 11.431977 0 1.000000 1.000000 1.000000 0.151245 -0.736490 0.659324
4388 1 3.313419 -12.938611 11.085700 0 1.000000 1.000000 1.000000 0.192109 -0.745958 0.637684
4389 1 -4.023107 -13.506295 10.131879 0 1.000000 1.000000 1.000000 -0.232950 -0.778170 0.583255
4390 1 -3.359370 -13.394769 10.514344 0 1.000000 1.000000 1.000000 -0.192101 -0.771853 0.606085
4391 1 -2.722821 -13.711979 10.286025 0 1.000000 1.000000 1.000000 -0.157690 -0.790431 0.591907
4392 1 -2.040116 -13.557917 10.642237 0 1.000000 1.000000 1.000000 -0.116643 -0.780920 0.613643
4393 1 -1.374088 -13.839975 10.381946 0 1.000000 1.000000 1.000000 -0.079589 -0.798070 0.597286
4394 1 -0.684234 -13.641751 10.707952 0 1.000000 1.000000 1.000000 -0.039118 -0.785574 0.617530
4395 1 0.000000 -13.883440 10.414519 0 1.000000 1.000000 1.000000 0.000000 -0.800666 0.599111
4396 1 0.684234 -13.641751 10.707952 0 1.000000 1.000000 1.000000 0.039118 -0.785574 0.617530
4397 1 1.374088 -13.839975 10.381946 0 1.000000 1.000000 1.000000 0.079589 -0.798070 0.597286
4398 1 2.040116 -13.557917 10.642237 0 1.000000 1.000000 1.000000 0.116643 -0.780920 0.613643
4399 1 2.722821 -13.711979 10.286025 0 1.000000 1.000000 1.000000 0.157690 -0.790431 0.591907
4400 1 3.359370 -13.394769 10.514344 0 1.000000 1.000000 1.000000 0.192101 -0.771853 0.606085
4401 1 4.023107 -13.506295 10.131879 0 1.000000 1.000000 1.000000 0.232950 -0.778170 0.583255
4402 1 -4.721792 -14.004383 9.101236 0 1.000000 1.000000 1.000000 -0.273015 -0.806503 0.524419
4403 1 -4.067792 -13.935532 9.512893 0 1.000000 1.000000 1.000000 -0.232943 -0.803395 0.547991
4404 1 -3.435244 -14.264641 9.270242 0 1.000000 1.000000 1.000000 -0.198662 -0.821899 0.533869
4405 1 -2.754010 -14.152614 9.660909 0 1.000000 1.000000 1.000000 -0.157684 -0.815562 0.556772
4406 1 -2.087347 -14.446395 9.388266 0 1.000000 1.000000 1.000000 -0.120728 -0.832664 0.540459
4407 1 -1.390130 -14.287818 9.753091 0 1.000000 1.000000 1.000000 -0.079586 -0.823132 0.562246
4408 1 -0.700275 -14.539905 9.448987 0 1.000000 1.000000 1.000000 -0.040505 -0.838207 0.543846
4409 1 0.000000 -14.333751 9.784408 0 1.000000 1.000000 1.000000 0.000000 -0.825702 0.564107
4410 1 0.700275 -14.539905 9.448987 0 1.000000 1.000000 1.000000 0.040505 -0.838207 0.543846
4411 1 1.390130 -14.287818 9.753091 0 1.000000 1.000000 1.000000 0.079586 -0.823132 0.562246
4412 1 2.087347 -14.446395 9.388266 0 1.000000 1.000000 1.000000 0.120728 -0.832664 0.540459
4413 1 2.754010 -14.152614 9.660909 0 1.000000 1.000000 1.000000 0.157684 -0.815562 0.556772
4414 1 3.435244 -14.264641 9.270242 0 1.000000 1.000000 1.000000 0.198662 -0.821899 0.533869
4415 1 4.067792 -13.935532 9.512893 0 1.000000 1.000000 1.000000 0.232943 -0.803395 0.547991
4416 1 4.721792 -14.004383 9.101236 0 1.000000 1.000000 1.000000 0.273015 -0.806503 0.524419
4417 1 -5.396359 -14.421288 8.009765 0 1.000000 1.000000 1.000000 -0.311548 -0.830318 0.462071
4418 1 -4.760214 -14.398410 8.441677 0 1.000000 1.000000 1.000000 -0.273008 -0.830297 0.485874
4419 1 -4.135232 -14.735413 8.184141 0 1.000000 1.000000 1.000000 -0.238774 -0.848774 0.471773
4420 1 -3.464262 -14.670495 8.601048 0 1.000000 1.000000 1.000000 -0.198657 -0.845661 0.495372
4421 1 -2.801119 -14.972733 8.315878 0 1.000000 1.000000 1.000000 -0.161758 -0.862734 0.479087
4422 1 -2.105438 -14.860660 8.712429 0 1.000000 1.000000 1.000000 -0.120724 -0.856388 0.502022
4423 1 -1.414370 -15.120724 8.398028 0 1.000000 1.000000 1.000000 -0.081682 -0.871446 0.483642
4424 1 -0.706425 -14.958547 8.769760 0 1.000000 1.000000 1.000000 -0.040504 -0.861906 0.505448
4425 1 0.000000 -15.171034 8.425955 0 1.000000 1.000000 1.000000 0.000000 -0.874409 0.485189
4426 1 0.706425 -14.958547 8.769760 0 1.000000 1.000000 1.000000 0.040504 -0.861906 0.505448
4427 1 1.414370 -15.120724 8.398028 0 1.000000 1.000000 1.000000 0.081682 -0.871446 0.483642
4428 1 2.105438 -14.860660 8.712429 0 1.000000 1.000000 1.000000 0.120724 -0.856388 0.502022
4429 1 2.801119 -14.972733 8.315878 0 1.000000 1.000000 1.000000 0.161758 -0.862734 0.479087
4430 1 3.464262 -14.670495 8.601048 0 1.000000 1.000000 1.000000 0.198657 -0.845661 0.495372
4431 1 4.135232 -14.735413 8.184141 0 1.000000 1.000000 1.000000 0.238774 -0.848774 0.471773
4432 1 4.760214 -14.398410 8.441677 0 1.000000 1.000000 1.000000 0.273008 -0.830297 0.485874
4433 1 5.396359 -14.421288 8.009765 0 1.000000 1.000000 1.000000 0.311548 -0.830318 0.462071
4434 1 -6.034741 -14.749554 6.876987 0 1.000000 1.000000 1.000000 -0.347871 -0.849194 0.397310
4435 1 -5.423672 -14.773512 7.319033 0 1.000000 1.000000 1.000000 -0.311543 -0.851972 0.420814
4436 1 -4.809389 -15.113909 7.046829 0 1.000000 1.000000 1.000000 -0.277259 -0.870474 0.406696
4437 1 -4.157093 -15.098688 7.480024 0 1.000000 1.000000 1.000000 -0.238770 -0.870452 0.430469
4438 1 -3.501417 -15.405541 7.182772 0 1.000000 1.000000 1.000000 -0.201870 -0.887524 0.414186
4439 1 -2.816413 -15.344505 7.601718 0 1.000000 1.000000 1.000000 -0.161755 -0.884409 0.437785
4440 1 -2.128610 -15.609568 7.277878 0 1.000000 1.000000 1.000000 -0.122728 -0.899461 0.419414
4441 1 -1.422248 -15.497860 7.677636 0 1.000000 1.000000 1.000000 -0.081681 -0.893112 0.442356
4442 1 -0.714302 -15.714654 7.326863 0 1.000000 1.000000 1.000000 -0.041185 -0.905612 0.422103
4443 1 0.000000 -15.550006 7.703450 0 1.000000 1.000000 1.000000 0.000000 -0.896070 0.443912
4444 1 0.714302 -15.714654 7.326863 0 1.000000 1.000000 1.000000 0.041185 -0.905612 0.422103
4445 1 1.422248 -15.497860 7.677636 0 1.000000 1.000000 1.000000 0.081681 -0.893112 0.442356
4446 1 2.128610 -15.609568 7.277878 0 1.000000 1.000000 1.000000 0.122728 -0.899461 0.419414
4447 1 2.816413 -15.344505 7.601718 0 1.000000 1.000000 1.000000 0.161755 -0.884409 0.437785
4448 1 3.501417 -15.405541 7.182772 0 1.000000 1.000000 1.000000 0.201870 -0.887524 0.414186
4449 1 4.157093 -15.098688 7.480024 0 1.000000 1.000000 1.000000 0.238770 -0.870452 0.430469
4450 1 4.809389 -15.113909 7.046829 0 1.000000 1.000000 1.000000 0.277259 -0.870474 0.406696
4451 1 5.423672 -14.773512 7.319033 0 1.000000 1.000000 1.000000 0.311543 -0.851972 0.420814
4452 1 6.034741 -14.749554 6.876987 0 1.000000 1.000000 1.000000 0.347871 -0.849194 0.397310
4453 1 -6.626979 -14.986504 5.724248 0 1.000000 1.000000 1.000000 -0.381437 -0.862970 0.331343
4454 1 -6.046757 -15.055666 6.166061 0 1.000000 1.000000 1.000000 -0.347868 -0.868123 0.354049
4455 1 -5.445745 -15.394839 5.880241 0 1.000000 1.000000 1.000000 -0.313451 -0.886696 0.339880
4456 1 -4.819446 -15.429124 6.318963 0 1.000000 1.000000 1.000000 -0.277257 -0.889462 0.363298
4457 1 -4.174759 -15.736487 6.010763 0 1.000000 1.000000 1.000000 -0.240297 -0.906562 0.346992
4458 1 -3.509026 -15.728125 6.441376 0 1.000000 1.000000 1.000000 -0.201868 -0.906537 0.370729
4459 1 -2.828772 -15.994873 6.109478 0 1.000000 1.000000 1.000000 -0.162824 -0.921595 0.352352
4460 1 -2.133360 -15.937352 6.527033 0 1.000000 1.000000 1.000000 -0.122727 -0.918480 0.375942
4461 1 -1.428613 -16.156122 6.171085 0 1.000000 1.000000 1.000000 -0.082231 -0.930980 0.355689
4462 1 -0.715918 -16.045132 6.571157 0 1.000000 1.000000 1.000000 -0.041185 -0.924631 0.378631
4463 1 0.000000 -16.210961 6.192036 0 1.000000 1.000000 1.000000 0.000000 -0.934172 0.356822
4464 1 0.715918 -16.045132 6.571157 0 1.000000 1.000000 1.000000 0.041185 -0.924631 0.378631
4465 1 1.428613 -16.156122 6.171085 0 1.000000 1.000000 1.000000 0.082231 -0.930980 0.355689
4466 1 2.133360 -15.937352 6.527033 0 1.000000 1.000000 1.000000 0.122727 -0.918480 0.375942
4467 1 2.828772 -15.994873 6.109478 0 1.000000 1.000000 1.000000 0.162824 -0.921595 0.352352
4468 1 3.509026 -15.728125 6.441376 0 1.000000 1.000000 1.000000 0.201868 -0.906537 0.370729
4469 1 4.174759 -15.736487 6.010763 0 1.000000 1.000000 1.000000 0.240297 -0.906562 0.346992
4470 1 4.819446 -15.429124 6.318963 0 1.000000 1.000000 1.000000 0.277257 -0.889462 0.363298
4471 1 5.445745 -15.394839 5.880241 0 1.000000 1.000000 1.000000 0.313451 -0.886696 0.339880
4472 1 6.046757 -15.055666 6.166061 0 1.000000 1.000000 1.000000 0.347868 -0.868123 0.354049
4473 1 6.626979 -14.986504 5.724248 0 1.000000 1.000000 1.000000 0.381437 -0.862970 0.331343
4474 1 -7.165942 -15.134200 4.572807 0 1.000000 1.000000 1.000000 -0.411874 -0.871741 0.265380
4475 1 -6.620564 -15.244736 5.004708 0 1.000000 1.000000 1.000000 -0.381439 -0.878757 0.286863
4476 1 -6.034779 -15.578333 4.707094 0 1.000000 1.000000 1.000000 -0.346833 -0.897433 0.272619
4477 1 -5.440182 -15.659273 5.140815 0 1.000000 1.000000 1.000000 -0.313452 -0.902555 0.295200
4478 1 -4.809427 -15.963131 4.823451 0 1.000000 1.000000 1.000000 -0.276391 -0.919701 0.278852
4479 1 -4.170303 -16.006060 5.254677 0 1.000000 1.000000 1.000000 -0.240298 -0.922457 0.302209
4480 1 -3.501451 -16.271127 4.916590 0 1.000000 1.000000 1.000000 -0.201213 -0.937530 0.283815
4481 1 -2.825652 -16.268301 5.340778 0 1.000000 1.000000 1.000000 -0.162825 -0.937504 0.307529
4482 1 -2.128633 -16.486602 4.981754 0 1.000000 1.000000 1.000000 -0.122319 -0.950006 0.287273
4483 1 -1.427006 -16.431944 5.394506 0 1.000000 1.000000 1.000000 -0.082232 -0.946892 0.310859
4484 1 -0.714311 -16.597585 5.015319 0 1.000000 1.000000 1.000000 -0.041046 -0.956434 0.289050
4485 1 0.000000 -16.487593 5.412777 0 1.000000 1.000000 1.000000 0.000000 -0.950085 0.311993
4486 1 0.714311 -16.597585 5.015319 0 1.000000 1.000000 1.000000 0.041046 -0.956434 0.289050
4487 1 1.427006 -16.431944 5.394506 0 1.000000 1.000000 1.000000 0.082232 -0.946892 0.310859
4488 1 2.128633 -16.486602 4.981754 0 1.000000 1.000000 1.000000 0.122319 -0.950006 0.287273
4489 1 2.825652 -16.268301 5.340778 0 1.000000 1.000000 1.000000 0.162825 -0.937504 0.307529
4490 1 3.501451 -16.271127 4.916590 0 1.000000 1.000000 1.000000 0.201213 -0.937530 0.283815
4491 1 4.170303 -16.006060 5.254677 0 1.000000 1.000000 1.000000 0.240298 -0.922457 0.302209
4492 1 4.809427 -15.963131 4.823451 0 1.000000 1.000000 1.000000 0.276391 -0.919701 0.278852
4493 1 5.440182 -15.659273 5.140815 0 1.000000 1.000000 1.000000 0.313452 -0.902555 0.295200
4494 1 6.034779 -15.578333 4.707094 0 1.000000 1.000000 1.000000 0.346833 -0.897433 0.272619
4495 1 6.620564 -15.244736 5.004708 0 1.000000 1.000000 1.000000 0.381439 -0.878757 0.286863
4496 1 7.165942 -15.134200 4.572807 0 1.000000 1.000000 1.000000 0.411874 -0.871741 0.265380
4497 1 -7.647622 -15.198772 3.442092 0 1.000000 1.000000 1.000000 -0.438989 -0.875829 0.200532
4498 1 -7.139241 -15.345216 3.855839 0 1.000000 1.000000 1.000000 -0.411879 -0.884167 0.220466
4499 1 -6.570043 -15.669469 3.548845 0 1.000000 1.000000 1.000000 -0.377073 -0.902952 0.206142
4500 1 -6.010960 -15.792049 3.968200 0 1.000000 1.000000 1.000000 -0.346838 -0.909920 0.227486
4501 1 -5.396435 -16.088803 3.643964 0 1.000000 1.000000 1.000000 -0.309671 -0.927116 0.211094
4502 1 -4.789499 -16.178944 4.065493 0 1.000000 1.000000 1.000000 -0.276395 -0.932220 0.233607
4503 1 -4.135304 -16.439198 3.723457 0 1.000000 1.000000 1.000000 -0.237272 -0.947308 0.215197
4504 1 -3.486379 -16.488452 4.143327 0 1.000000 1.000000 1.000000 -0.201216 -0.950060 0.238532
4505 1 -2.801175 -16.703921 3.783521 0 1.000000 1.000000 1.000000 -0.160708 -0.962563 0.218276
4506 1 -2.119228 -16.704896 4.197759 0 1.000000 1.000000 1.000000 -0.122321 -0.962537 0.241992
4507 1 -1.414401 -16.869001 3.820979 0 1.000000 1.000000 1.000000 -0.081142 -0.972077 0.220187
4508 1 -0.711112 -16.816349 4.225788 0 1.000000 1.000000 1.000000 -0.041047 -0.968962 0.243779
4509 1 0.000000 -16.925121 3.833714 0 1.000000 1.000000 1.000000 0.000000 -0.975311 0.220835
4510 1 0.711112 -16.816349 4.225788 0 1.000000 1.000000 1.000000 0.041047 -0.968962 0.243779
4511 1 1.414401 -16.869001 3.820979 0 1.000000 1.000000 1.000000 0.081142 -0.972077 0.220187
4512 1 2.119228 -16.704896 4.197759 0 1.000000 1.000000 1.000000 0.122321 -0.962537 0.241992
4513 1 2.801175 -16.703921 3.783521 0 1.000000 1.000000 1.000000 0.160708 -0.962563 0.218276
4514 1 3.486379 -16.488452 4.143327 0 1.000000 1.000000 1.000000 0.201216 -0.950060 0.238532
4515 1 4.135304 -16.439198 3.723457 0 1.000000 1.000000 1.000000 0.237272 -0.947308 0.215197
4516 1 4.789499 -16.178944 4.065493 0 1.000000 1.000000 1.000000 0.276395 -0.932220 0.233607
4517 1 5.396435 -16.088803 3.643964 0 1.000000 1.000000 1.000000 0.309671 -0.927116 0.211094
4518 1 6.010960 -15.792049 3.968200 0 1.000000 1.000000 1.000000 0.346838 -0.909920 0.227486
4519 1 6.570043 -15.669469 3.548845 0 1.000000 1.000000 1.000000 0.377073 -0.902952 0.206142
4520 1 7.139241 -15.345216 3.855839 0 1.000000 1.000000 1.000000 0.411879 -0.884167 0.220466
4521 1 7.647622 -15.198772 3.442092 0 1.000000 1.000000 1.000000 0.438989 -0.875829 0.200532
4522 1 -8.070991 -15.189327 2.348419 0 1.000000 1.000000 1.000000 -0.462756 -0.875720 0.137738
4523 1 -7.600075 -15.365265 2.737661 0 1.000000 1.000000 1.000000 -0.438997 -0.884858 0.155910
4524 1 -7.048300 -15.677193 2.424053 0 1.000000 1.000000 1.000000 -0.404021 -0.903736 0.141519
4525 1 -6.526649 -15.834953 2.821490 0 1.000000 1.000000 1.000000 -0.377080 -0.912021 0.161332
4526 1 -5.930006 -16.121649 2.492977 0 1.000000 1.000000 1.000000 -0.339841 -0.929252 0.144910
4527 1 -5.358876 -16.252919 2.896095 0 1.000000 1.000000 1.000000 -0.309677 -0.936203 0.166206
4528 1 -4.721902 -16.505687 2.552547 0 1.000000 1.000000 1.000000 -0.270551 -0.951293 0.147798
4529 1 -4.105265 -16.601824 2.958379 0 1.000000 1.000000 1.000000 -0.237277 -0.956396 0.170313
4530 1 -3.435339 -16.812365 2.600129 0 1.000000 1.000000 1.000000 -0.196803 -0.968889 0.150075
4531 1 -2.780173 -16.865207 3.005400 0 1.000000 1.000000 1.000000 -0.160712 -0.971644 0.173436
4532 1 -2.087412 -17.026538 2.633365 0 1.000000 1.000000 1.000000 -0.119569 -0.981176 0.151650
4533 1 -1.403588 -17.029357 3.034706 0 1.000000 1.000000 1.000000 -0.081144 -0.981149 0.175392
4534 1 -0.700298 -17.136728 2.650466 0 1.000000 1.000000 1.000000 -0.040111 -0.987496 0.152456
4535 1 0.000000 -17.085144 3.044666 0 1.000000 1.000000 1.000000 0.000000 -0.984380 0.176059
4536 1 0.700298 -17.136728 2.650466 0 1.000000 1.000000 1.000000 0.040111 -0.987496 0.152456
4537 1 1.403588 -17.029357 3.034706 0 1.000000 1.000000 1.000000 0.081144 -0.981149 0.175392
4538 1 2.087412 -17.026538 2.633365 0 1.000000 1.000000 1.000000 0.119569 -0.981176 0.151650
4539 1 2.780173 -16.865207 3.005400 0 1.000000 1.000000 1.000000 0.160712 -0.971644 0.173436
4540 1 3.435339 -16.812365 2.600129 0 1.000000 1.000000 1.000000 0.196803 -0.968889 0.150075
4541 1 4.105265 -16.601824 2.958379 0 1.000000 1.000000 1.000000 0.237277 -0.956396 0.170313
4542 1 4.721902 -16.505687 2.552547 0 1.000000 1.000000 1.000000 0.270551 -0.951293 0.147798
4543 1 5.358876 -16.252919 2.896095 0 1.000000 1.000000 1.000000 0.309677 -0.936203 0.166206
4544 1 5.930006 -16.121649 2.492977 0 1.000000 1.000000 1.000000 0.339841 -0.929252 0.144910
4545 1 6.526649 -15.834953 2.821490 0 1.000000 1.000000 1.000000 0.377080 -0.912021 0.161332
4546 1 7.048300 -15.677193 2.424053 0 1.000000 1.000000 1.000000 0.404021 -0.903736 0.141519
4547 1 7.600075 -15.365265 2.737661 0 1.000000 1.000000 1.000000 0.438997 -0.884858 0.155910
4548 1 8.070991 -15.189327 2.348419 0 1.000000 1.000000 1.000000 0.462756 -0.875720 0.137738
4549 1 -8.437536 -15.116699 1.304308 0 1.000000 1.000000 1.000000 -0.483290 -0.872003 0.077727
4550 1 -8.003182 -15.315439 1.664727 0 1.000000 1.000000 1.000000 -0.462767 -0.881479 0.094029
4551 1 -7.469232 -15.612923 1.347367 0 1.000000 1.000000 1.000000 -0.427692 -0.900413 0.079599
4552 1 -6.985265 -15.798739 1.717450 0 1.000000 1.000000 1.000000 -0.404031 -0.909513 0.097698
4553 1 -6.407569 -16.073187 1.387329 0 1.000000 1.000000 1.000000 -0.366789 -0.926747 0.081277
4554 1 -5.873961 -16.238337 1.765418 0 1.000000 1.000000 1.000000 -0.339850 -0.935031 0.101092
4555 1 -5.256078 -16.481544 1.422804 0 1.000000 1.000000 1.000000 -0.300791 -0.950096 0.082716
4556 1 -4.675150 -16.617625 1.806815 0 1.000000 1.000000 1.000000 -0.270559 -0.957062 0.104065
4557 1 -4.023240 -16.821532 1.452355 0 1.000000 1.000000 1.000000 -0.230185 -0.969525 0.083879
4558 1 -3.400066 -16.920135 1.839838 0 1.000000 1.000000 1.000000 -0.196809 -0.974644 0.106467
4559 1 -2.722924 -17.077635 1.474625 0 1.000000 1.000000 1.000000 -0.155761 -0.984154 0.084732
4560 1 -2.065436 -17.131196 1.862881 0 1.000000 1.000000 1.000000 -0.119573 -0.986916 0.108160
4561 1 -1.374145 -17.237007 1.488487 0 1.000000 1.000000 1.000000 -0.078597 -0.993254 0.085254
4562 1 -0.692831 -17.239720 1.874731 0 1.000000 1.000000 1.000000 -0.040113 -0.993228 0.109035
4563 1 0.000000 -17.291127 1.493196 0 1.000000 1.000000 1.000000 0.000000 -0.996344 0.085429
4564 1 0.692831 -17.239720 1.874731 0 1.000000 1.000000 1.000000 0.040113 -0.993228 0.109035
4565 1 1.374145 -17.237007 1.488487 0 1.000000 1.000000 1.000000 0.078597 -0.993254 0.085254
4566 1 2.065436 -17.131196 1.862881 0 1.000000 1.000000 1.000000 0.119573 -0.986916 0.108160
4567 1 2.722924 -17.077635 1.474625 0 1.000000 1.000000 1.000000 0.155761 -0.984154 0.084732
4568 1 3.400066 -16.920135 1.839838 0 1.000000 1.000000 1.000000 0.196809 -0.974644 0.106467
4569 1 4.023240 -16.821532 1.452355 0 1.000000 1.000000 1.000000 0.230185 -0.969525 0.083879
4570 1 4.675150 -16.617625 1.806815 0 1.000000 1.000000 1.000000 0.270559 -0.957062 0.104065
4571 1 5.256078 -16.481544 1.422804 0 1.000000 1.000000 1.000000 0.300791 -0.950096 0.082716
4572 1 5.873961 -16.238337 1.765418 0 1.000000 1.000000 1.000000 0.339850 -0.935031 0.101092
4573 1 6.407569 -16.073187 1.387329 0 1.000000 1.000000 1.000000 0.366789 -0.926747 0.081277
4574 1 6.985265 -15.798739 1.717450 0 1.000000 1.000000 1.000000 0.404031 -0.909513 0.097698
4575 1 7.469232 -15.612923 1.347367 0 1.000000 1.000000 1.000000 0.427692 -0.900413 0.079599
4576 1 8.003182 -15.315439 1.664727 0 1.000000 1.000000 1.000000 0.462767 -0.881479 0.094029
4577 1 8.437536 -15.116699 1.304308 0 1.000000 1.000000 1.000000 0.483290 -0.872003 0.077727
4578 1 -8.750622 -14.992302 0.318368 0 1.000000 1.000000 1.000000 -0.500804 -0.865306 0.021003
4579 1 -8.350933 -15.207413 0.647554 0 1.000000 1.000000 1.000000 -0.483304 -0.874736 0.035421
4580 1 -7.834877 -15.489163 0.329186 0 1.000000 1.000000 1.000000 -0.448226 -0.893674 0.020992
4581 1 -7.387530 -15.695933 0.668580 0 1.000000 1.000000 1.000000 -0.427704 -0.903149 0.037296
4582 1 -6.829344 -15.956706 0.339393 0 1.000000 1.000000 1.000000 -0.390558 -0.920341 0.020919
4583 1 -6.333351 -16.148144 0.688059 0 1.000000 1.000000 1.000000 -0.366801 -0.929478 0.039094
4584 1 -5.735779 -16.380356 0.348665 0 1.000000 1.000000 1.000000 -0.327907 -0.944481 0.020798
4585 1 -5.192114 -16.548607 0.705322 0 1.000000 1.000000 1.000000 -0.300802 -0.952816 0.040739
4586 1 -4.560217 -16.744626 0.356656 0 1.000000 1.000000 1.000000 -0.260623 -0.965220 0.020651
4587 1 -3.972271 -16.881471 0.719680 0 1.000000 1.000000 1.000000 -0.230194 -0.972232 0.042143
4588 1 -3.313560 -17.034309 0.363024 0 1.000000 1.000000 1.000000 -0.189329 -0.981700 0.020505
4589 1 -2.687387 -17.131871 0.730486 0 1.000000 1.000000 1.000000 -0.155767 -0.986848 0.043223
4590 1 -2.011634 -17.235970 0.367463 0 1.000000 1.000000 1.000000 -0.114920 -0.993165 0.020388
4591 1 -1.355880 -17.287546 0.737207 0 1.000000 1.000000 1.000000 -0.078600 -0.995939 0.043904
4592 1 -0.674566 -17.339516 0.369745 0 1.000000 1.000000 1.000000 -0.038533 -0.999051 0.020323
4593 1 0.000000 -17.340384 0.739489 0 1.000000 1.000000 1.000000 0.000000 -0.999025 0.044137
4594 1 0.674566 -17.339516 0.369745 0 1.000000 1.000000 1.000000 0.038533 -0.999051 0.020323
4595 1 1.355880 -17.287546 0.737207 0 1.000000 1.000000 1.000000 0.078600 -0.995939 0.043904
4596 1 2.011634 -17.235970 0.367463 0 1.000000 1.000000 1.000000 0.114920 -0.993165 0.020388
4597 1 2.687387 -17.131871 0.730486 0 1.000000 1.000000 1.000000 0.155767 -0.986848 0.043223
4598 1 3.313560 -17.034309 0.363024 0 1.000000 1.000000 1.000000 0.189329 -0.981700 0.020505
4599 1 3.972271 -16.881471 0.719680 0 1.000000 1.000000 1.000000 0.230194 -0.972232 0.042143
4600 1 4.560217 -16.744626 0.356656 0 1.000000 1.000000 1.000000 0.260623 -0.965220 0.020651
4601 1 5.192114 -16.548607 0.705322 0 1.000000 1.000000 1.000000 0.300802 -0.952816 0.040739
4602 1 5.735779 -16.380356 0.348665 0 1.000000 1.000000 1.000000 0.327907 -0.944481 0.020798
4603 1 6.333351 -16.148144 0.688059 0 1.000000 1.000000 1.000000 0.366801 -0.929478 0.039094
4604 1 6.829344 -15.956706 0.339393 0 1.000000 1.000000 1.000000 0.390558 -0.920341 0.020919
4605 1 7.387530 -15.695933 0.668580 0 1.000000 1.000000 1.000000 0.427704 -0.903149 0.037296
4606 1 7.834877 -15.489163 0.329186 0 1.000000 1.000000 1.000000 0.448226 -0.893674 0.020992
4607 1 8.350933 -15.207413 0.647554 0 1.000000 1.000000 1.000000 0.483304 -0.874736 0.035421
4608 1 8.750622 -14.992302 0.318368 0 1.000000 1.000000 1.000000 0.500804 -0.865306 0.021003
4609 1 -14.992302 -0.318368 8.750622 0 1.000000 1.000000 1.000000 -0.865306 -0.021003 0.500804
4610 1 -15.489163 -0.329186 7.834877 0 1.000000 1.000000 1.000000 -0.893674 -0.020992 0.448226
4611 1 -15.207413 -0.647554 8.350933 0 1.000000 1.000000 1.000000 -0.874736 -0.035421 0.483304
4612 1 -15.116699 -1.304308 8.437536 0 1.000000 1.000000 1.000000 -0.872003 -0.077727 0.483290
4613 1 -15.956706 -0.339393 6.829344 0 1.000000 1.000000 1.000000 -0.920341 -0.020919 0.390558
4614 1 -15.695933 -0.668580 7.387530 0 1.000000 1.000000 1.000000 -0.903149 -0.037296 0.427704
4615 1 -15.612923 -1.347367 7.469232 0 1.000000 1.000000 1.000000 -0.900413 -0.079599 0.427692
4616 1 -15.315439 -1.664727 8.003182 0 1.000000 1.000000 1.000000 -0.881479 -0.094029 0.462767
4617 1 -15.189327 -2.348419 8.070991 0 1.000000 1.000000 1.000000 -0.875720 -0.137738 0.462756
4618 1 -16.380356 -0.348665 5.735779 0 1.000000 1.000000 1.000000 -0.944481 -0.020798 0.327907
4619 1 -16.148144 -0.688059 6.333351 0 1.000000 1.000000 1.000000 -0.929478 -0.039094 0.366801
4620 1 -16.073187 -1.387329 6.407569 0 1.000000 1.000000 1.000000 -0.926747 -0.081277 0.366789
4621 1 -15.798739 -1.717450 6.985265 0 1.000000 1.000000 1.000000 -0.909513 -0.097698 0.404031
4622 1 -15.677193 -2.424053 7.048300 0 1.000000 1.000000 1.000000 -0.903736 -0.141519 0.404021
4623 1 -15.365265 -2.737661 7.600075 0 1.000000 1.000000 1.000000 -0.884858 -0.155910 0.438997
4624 1 -15.198772 -3.442092 7.647622 0 1.000000 1.000000 1.000000 -0.875829 -0.200532 0.438989
4625 1 -16.744626 -0.356656 4.560217 0 1.000000 1.000000 1.000000 -0.965220 -0.020651 0.260623
4626 1 -16.548607 -0.705322 5.192114 0 1.000000 1.000000 1.000000 -0.952816 -0.040739 0.300802
4627 1 -16.481544 -1.422804 5.256078 0 1.000000 1.000000 1.000000 -0.950096 -0.082716 0.300791
4628 1 -16.238337 -1.765418 5.873961 0 1.000000 1.000000 1.000000 -0.935031 -0.101092 0.339850
4629 1 -16.121649 -2.492977 5.930006 0 1.000000 1.000000 1.000000 -0.929252 -0.144910 0.339841
4630 1 -15.834953 -2.821490 6.526649 0 1.000000 1.000000 1.000000 -0.912021 -0.161332 0.377080
4631 1 -15.669469 -3.548845 6.570043 0 1.000000 1.000000 1.000000 -0.902952 -0.206142 0.377073
4632 1 -15.345216 -3.855839 7.139241 0 1.000000 1.000000 1.000000 -0.884167 -0.220466 0.411879
4633 1 -15.134200 -4.572807 7.165942 0 1.000000 1.000000 1.000000 -0.871741 -0.265380 0.411874
4634 1 -17.034309 -0.363024 3.313560 0 1.000000 1.000000 1.000000 -0.981700 -0.020505 0.189329
4635 1 -16.881471 -0.719680 3.972271 0 1.000000 1.000000 1.000000 -0.972232 -0.042143 0.230194
4636 1 -16.821532 -1.452355 4.023240 0 1.000000 1.000000 1.000000 -0.969525 -0.083879 0.230185
4637 1 -16.617625 -1.806815 4.675150 0 1.000000 1.000000 1.000000 -0.957062 -0.104065 0.270559
4638 1 -16.505687 -2.552547 4.721902 0 1.000000 1.000000 1.000000 -0.951293 -0.147798 0.270551
4639 1 -16.252919 -2.896095 5.358876 0 1.000000 1.000000 1.000000 -0.936203 -0.166206 0.309677
4640 1 -16.088803 -3.643964 5.396435 0 1.000000 1.000000 1.000000 -0.927116 -0.211094 0.309671
4641 1 -15.792049 -3.968200 6.010960 0 1.000000 1.000000 1.000000 -0.909920 -0.227486 0.346838
4642 1 -15.578333 -4.707094 6.034779 0 1.000000 1.000000 1.000000 -0.897433 -0.272619 0.346833
4643 1 -15.244736 -5.004708 6.620564 0 1.000000 1.000000 1.000000 -0.878757 -0.286863 0.381439
4644 1 -14.986504 -5.724248 6.626979 0 1.000000 1.000000 1.000000 -0.862970 -0.331343 0.381437
4645 1 -17.235970 -0.367463 2.011634 0 1.000000 1.000000 1.000000 -0.993165 -0.020388 0.114920
4646 1 -17.131871 -0.730486 2.687387 0 1.000000 1.000000 1.000000 -0.986848 -0.043223 0.155767
4647 1 -17.077635 -1.474625 2.722924 0 1.000000 1.000000 1.000000 -0.984154 -0.084732 0.155761
4648 1 -16.920135 -1.839838 3.400066 0 1.000000 1.000000 1.000000 -0.974644 -0.106467 0.196809
4649 1 -16.812365 -2.600129 3.435339 0 1.000000 1.000000 1.000000 -0.968889 -0.150075 0.196803
4650 1 -16.601824 -2.958379 4.105265 0 1.000000 1.000000 1.000000 -0.956396 -0.170313 0.237277
4651 1 -16.439198 -3.723457 4.135304 0 1.000000 1.000000 1.000000 -0.947308 -0.215197 0.237272
4652 1 -16.178944 -4.065493 4.789499 0 1.000000 1.000000 1.000000 -0.932220 -0.233607 0.276395
4653 1 -15.963131 -4.823451 4.809427 0 1.000000 1.000000 1.000000 -0.919701 -0.278852 0.276391
4654 1 -15.659273 -5.140815 5.440182 0 1.000000 1.000000 1.000000 -0.902555 -0.295200 0.313452
4655 1 -15.394839 -5.880241 5.445745 0 1.000000 1.000000 1.000000 -0.886696 -0.339880 0.313451
4656 1 -15.055666 -6.166061 6.046757 0 1.000000 1.000000 1.000000 -0.868123 -0.354049 0.347868
4657 1 -14.749554 -6.876987 6.034741 0 1.000000 1.000000 1.000000 -0.849194 -0.397310 0.347871
4658 1 -17.339516 -0.369745 0.674566 0 1.000000 1.000000 1.000000 -0.999051 -0.020323 0.038533
4659 1 -17.287546 -0.737207 1.355880 0 1.000000 1.000000 1.000000 -0.995939 -0.043904 0.078600
4660 1 -17.237007 -1.488487 1.374145 0 1.000000 1.000000 1.000000 -0.993254 -0.085254 0.078597
4661 1 -17.131196 -1.862881 2.065436 0 1.000000 1.000000 1.000000 -0.986916 -0.108160 0.119573
4662 1 -17.026538 -2.633365 2.087412 0 1.000000 1.000000 1.000000 -0.981176 -0.151650 0.119569
4663 1 -16.865207 -3.005400 2.780173 0 1.000000 1.000000 1.000000 -0.971644 -0.173436 0.160712
4664 1 -16.703921 -3.783521 2.801175 0 1.000000 1.000000 1.000000 -0.962563 -0.218276 0.160708
4665 1 -16.488452 -4.143327 3.486379 0 1.000000 1.000000 1.000000 -0.950060 -0.238532 0.201216
4666 1 -16.271127 -4.916590 3.501451 0 1.000000 1.000000 1.000000 -0.937530 -0.283815 0.201213
4667 1 -16.006060 -5.254677 4.170303 0 1.000000 1.000000 1.000000 -0.922457 -0.302209 0.240298
4668 1 -15.736487 -6.010763 4.174759 0 1.000000 1.000000 1.000000 -0.906562 -0.346992 0.240297
4669 1 -15.429124 -6.318963 4.819446 0 1.000000 1.000000 1.000000 -0.889462 -0.363298 0.277257
4670 1 -15.113909 -7.046829 4.809389 0 1.000000 1.000000 1.000000 -0.870474 -0.406696 0.277259
4671 1 -14.773512 -7.319033 5.423672 0 1.000000 1.000000 1.000000 -0.851972 -0.420814 0.311543
4672 1 -14.421288 -8.009765 5.396359 0 1.000000 1.000000 1.000000 -0.830318 -0.462071 0.311548
4673 1 -17.339516 -0.369745 -0.674566 0 1.000000 1.000000 1.000000 -0.999051 -0.020323 -0.038533
4674 1 -17.340384 -0.739489 -0.000000 0 1.000000 1.000000 1.000000 -0.999025 -0.044137 0.000000
4675 1 -17.291127 -1.493196 -0.000000 0 1.000000 1.000000 1.000000 -0.996344 -0.085429 -0.000000
4676 1 -17.239720 -1.874731 0.692831 0 1.000000 1.000000 1.000000 -0.993228 -0.109035 0.040113
4677 1 -17.136728 -2.650466 0.700298 0 1.000000 1.000000 1.000000 -0.987496 -0.152456 0.040111
4678 1 -17.029357 -3.034706 1.403588 0 1.000000 1.000000 1.000000 -0.981149 -0.175392 0.081144
4679 1 -16.869001 -3.820979 1.414401 0 1.000000 1.000000 1.000000 -0.972077 -0.220187 0.081142
4680 1 -16.704896 -4.197759 2.119228 0 1.000000 1.000000 1.000000 -0.962537 -0.241992 0.122321
4681 1 -16.486602 -4.981754 2.128633 0 1.000000 1.000000 1.000000 -0.950006 -0.287273 0.122319
4682 1 -16.268301 -5.340778 2.825652 0 1.000000 1.000000 1.000000 -0.937504 -0.307529 0.162825
4683 1 -15.994873 -6.109478 2.828772 0 1.000000 1.000000 1.000000 -0.921595 -0.352352 0.162824
4684 1 -15.728125 -6.441376 3.509026 0 1.000000 1.000000 1.000000 -0.906537 -0.370729 0.201868
4685 1 -15.405541 -7.182772 3.501417 0 1.000000 1.000000 1.000000 -0.887524 -0.414186 0.201870
4686 1 -15.098688 -7.480024 4.157093 0 1.000000 1.000000 1.000000 -0.870452 -0.430469 0.238770
4687 1 -14.735413 -8.184141 4.135232 0 1.000000 1.000000 1.000000 -0.848774 -0.471773 0.238774
4688 1 -14.398410 -8.441677 4.760214 0 1.000000 1.000000 1.000000 -0.830297 -0.485874 0.273008
4689 1 -14.004383 -9.101236 4.721792 0 1.000000 1.000000 1.000000 -0.806503 -0.524419 0.273015
4690 1 -17.235970 -0.367463 -2.011634 0 1.000000 1.000000 1.000000 -0.993165 -0.020388 -0.114920
4691 1 -17.287546 -0.737207 -1.355880 0 1.000000 1.000000 1.000000 -0.995939 -0.043904 -0.078600
4692 1 -17.237007 -1.488487 -1.374145 0 1.000000 1.000000 1.000000 -0.993254 -0.085254 -0.078597
4693 1 -17.239720 -1.874731 -0.692831 0 1.000000 1.000000 1.000000 -0.993228 -0.109035 -0.040113
4694 1 -17.136728 -2.650466 -0.700298 0 1.000000 1.000000 1.000000 -0.987496 -0.152456 -0.040111
4695 1 -17.085144 -3.044666 0.000000 0 1.000000 1.000000 1.000000 -0.984380 -0.176059 -0.000000
4696 1 -16.925121 -3.833714 0.000000 0 1.000000 1.000000 1.000000 -0.975311 -0.220835 -0.000000
4697 1 -16.816349 -4.225788 0.711112 0 1.000000 1.000000 1.000000 -0.968962 -0.243779 0.041047
4698 1 -16.597585 -5.015319 0.714311 0 1.000000 1.000000 1.000000 -0.956434 -0.289050 0.041046
4699 1 -16.431944 -5.394506 1.427006 0 1.000000 1.000000 1.000000 -0.946892 -0.310859 0.082232
4700 1 -16.156122 -6.171085 1.428613 0 1.000000 1.000000 1.000000 -0.930980 -0.355689 0.082231
4701 1 -15.937352 -6.527033 2.133360 0 1.000000 1.000000 1.000000 -0.918480 -0.375942 0.122727
4702 1 -15.609568 -7.277878 2.128610 0 1.000000 1.000000 1.000000 -0.899461 -0.419414 0.122728
4703 1 -15.344505 -7.601718 2.816413 0 1.000000 1.000000 1.000000 -0.884409 -0.437785 0.161755
4704 1 -14.972733 -8.315878 2.801119 0 1.000000 1.000000 1.000000 -0.862734 -0.479087 0.161758
4705 1 -14.670495 -8.601048 3.464262 0 1.000000 1.000000 1.000000 -0.845661 -0.495372 0.198657
4706 1 -14.264641 -9.270242 3.435244 0 1.000000 1.000000 1.000000 -0.821899 -0.533869 0.198662
4707 1 -13.935532 -9.512893 4.067792 0 1.000000 1.000000 1.000000 -0.803395 -0.547991 0.232943
4708 1 -13.506295 -10.131879 4.023107 0 1.000000 1.000000 1.000000 -0.778170 -0.583255 0.232950
4709 1 -17.034309 -0.363024 -3.313560 0 1.000000 1.000000 1.000000 -0.981700 -0.020505 -0.189329
4710 1 -17.131871 -0.730486 -2.687387 0 1.000000 1.000000 1.000000 -0.986848 -0.043223 -0.155767
4711 1 -17.077635 -1.474625 -2.722924 0 1.000000 1.000000 1.000000 -0.984154 -0.084732 -0.155761
4712 1 -17.131196 -1.862881 -2.065436 0 1.000000 1.000000 1.000000 -0.986916 -0.108160 -0.119573
4713 1 -17.026538 -2.633365 -2.087412 0 1.000000 1.000000 1.000000 -0.981176 -0.151650 -0.119569
4714 1 -17.029357 -3.034706 -1.403588 0 1.000000 1.000000 1.000000 -0.981149 -0.175392 -0.081144
4715 1 -16.869001 -3.820979 -1.414401 0 1.000000 1.000000 1.000000 -0.972077 -0.220187 -0.081142
4716 1 -16.816349 -4.225788 -0.711112 0 1.000000 1.000000 1.000000 -0.968962 -0.243779 -0.041047
4717 1 -16.597585 -5.015319 -0.714311 0 1.000000 1.000000 1.000000 -0.956434 -0.289050 -0.041046
4718 1 -16.487593 -5.412777 0.000000 0 1.000000 1.000000 1.000000 -0.950085 -0.311993 -0.000000
4719 1 -16.210961 -6.192036 -0.000000 0 1.000000 1.000000 1.000000 -0.934172 -0.356822 -0.000000
4720 1 -16.045132 -6.571157 0.715918 0 1.000000 1.000000 1.000000 -0.924631 -0.378631 0.041185
4721 1 -15.714654 -7.326863 0.714302 0 1.000000 1.000000 1.000000 -0.905612 -0.422103 0.041185
4722 1 -15.497860 -7.677636 1.422248 0 1.000000 1.000000 1.000000 -0.893112 -0.442356 0.081681
4723 1 -15.120724 -8.398028 1.414370 0 1.000000 1.000000 1.000000 -0.871446 -0.483642 0.081682
4724 1 -14.860660 -8.712429 2.105438 0 1.000000 1.000000 1.000000 -0.856388 -0.502022 0.120724
4725 1 -14.446395 -9.388266 2.087347 0 1.000000 1.000000 1.000000 -0.832664 -0.540459 0.120728
4726 1 -14.152614 -9.660909 2.754010 0 1.000000 1.000000 1.000000 -0.815562 -0.556772 0.157684
4727 1 -13.711979 -10.286025 2.722821 0 1.000000 1.000000 1.000000 -0.790431 -0.591907 0.157690
4728 1 -13.394769 -10.514344 3.359370 0 1.000000 1.000000 1.000000 -0.771853 -0.606085 0.192101
4729 1 -12.938611 -11.085700 3.313419 0 1.000000 1.000000 1.000000 -0.745958 -0.637684 0.192109
4730 1 -16.744626 -0.356656 -4.560217 0 1.000000 1.000000 1.000000 -0.965220 -0.020651 -0.260623
4731 1 -16.881471 -0.719680 -3.972271 0 1.000000 1.000000 1.000000 -0.972232 -0.042143 -0.230194
4732 1 -16.821532 -1.452355 -4.023240 0 1.000000 1.000000 1.000000 -0.969525 -0.083879 -0.230185
4733 1 -16.920135 -1.839838 -3.400066 0 1.000000 1.000000 1.000000 -0.974644 -0.106467 -0.196809
4734 1 -16.812365 -2.600129 -3.435339 0 1.000000 1.000000 1.000000 -0.968889 -0.150075 -0.196803
4735 1 -16.865207 -3.005400 -2.780173 0 1.000000 1.000000 1.000000 -0.971644 -0.173436 -0.160712
4736 1 -16.703921 -3.783521 -2.801175 0 1.000000 1.000000 1.000000 -0.962563 -0.218276 -0.160708
4737 1 -16.704896 -4.197759 -2.119228 0 1.000000 1.000000 1.000000 -0.962537 -0.241992 -0.122321
4738 1 -16.486602 -4.981754 -2.128633 0 1.000000 1.000000 1.000000 -0.950006 -0.287273 -0.122319
4739 1 -16.431944 -5.394506 -1.427006 0 1.000000 1.000000 1.000000 -0.946892 -0.310859 -0.082232
4740 1 -16.156122 -6.171085 -1.428613 0 1.000000 1.000000 1.000000 -0.930980 -0.355689 -0.082231
4741 1 -16.045132 -6.571157 -0.715918 0 1.000000 1.000000 1.000000 -0.924631 -0.378631 -0.041185
4742 1 -15.714654 -7.326863 -0.714302 0 1.000000 1.000000 1.000000 -0.905612 -0.422103 -0.041185
4743 1 -15.550006 -7.703450 -0.000000 0 1.000000 1.000000 1.000000 -0.896070 -0.443912 0.000000
4744 1 -15.171034 -8.425955 -0.000000 0 1.000000 1.000000 1.000000 -0.874409 -0.485189 0.000000
4745 1 -14.958547 -8.769760 0.706425 0 1.000000 1.000000 1.000000 -0.861906 -0.505448 0.040504
4746 1 -14.539905 -9.448987 0.700275 0 1.000000 1.000000 1.000000 -0.838207 -0.543846 0.040505
4747 1 -14.287818 -9.753091 1.390130 0 1.000000 1.000000 1.000000 -0.823132 -0.562246 0.079586
4748 1 -13.839975 -10.381946 1.374088 0 1.000000 1.000000 1.000000 -0.798070 -0.597286 0.079589
4749 1 -13.557917 -10.642237 2.040116 0 1.000000 1.000000 1.000000 -0.780920 -0.613643 0.116643
4750 1 -13.091834 -11.216833 2.011539 0 1.000000 1.000000 1.000000 -0.755171 -0.645067 0.116648
4751 1 -12.789738 -11.431977 2.648293 0 1.000000 1.000000 1.000000 -0.736490 -0.659324 0.151245
4752 1 -12.315831 -11.951393 2.605724 0 1.000000 1.000000 1.000000 -0.710667 -0.687077 0.151251
4753 1 -16.380356 -0.348665 -5.735779 0 1.000000 1.000000 1.000000 -0.944481 -0.020798 -0.327907
4754 1 -16.548607 -0.705322 -5.192114 0 1.000000 1.000000 1.000000 -0.952816 -0.040739 -0.300802
4755 1 -16.481544 -1.422804 -5.256078 0 1.000000 1.000000 1.000000 -0.950096 -0.082716 -0.300791
4756 1 -16.617625 -1.806815 -4.675150 0 1.000000 1.000000 1.000000 -0.957062 -0.104065 -0.270559
4757 1 -16.505687 -2.552547 -4.721902 0 1.000000 1.000000 1.000000 -0.951293 -0.147798 -0.270551
4758 1 -16.601824 -2.958379 -4.105265 0 1.000000 1.000000 1.000000 -0.956396 -0.170313 -0.237277
4759 1 -16.439198 -3.723457 -4.135304 0 1.000000 1.000000 1.000000 -0.947308 -0.215197 -0.237272
4760 1 -16.488452 -4.143327 -3.486379 0 1.000000 1.000000 1.000000 -0.950060 -0.238532 -0.201216
4761 1 -16.271127 -4.916590 -3.501451 0 1.000000 1.000000 1.000000 -0.937530 -0.283815 -0.201213
4762 1 -16.268301 -5.340778 -2.825652 0 1.000000 1.000000 1.000000 -0.937504 -0.307529 -0.162825
4763 1 -15.994873 -6.109478 -2.828772 0 1.000000 1.000000 1.000000 -0.921595 -0.352352 -0.162824
4764 1 -15.937352 -6.527033 -2.133360 0 1.000000 1.000000 1.000000 -0.918480 -0.375942 -0.122727
4765 1 -15.609568 -7.277878 -2.128610 0 1.000000 1.000000 1.000000 -0.899461 -0.419414 -0.122728
4766 1 -15.497860 -7.677636 -1.422248 0 1.000000 1.000000 1.000000 -0.893112 -0.442356 -0.081681
4767 1 -15.120724 -8.398028 -1.414370 0 1.000000 1.000000 1.000000 -0.871446 -0.483642 -0.081682
4768 1 -14.958547 -8.769760 -0.706425 0 1.000000 1.000000 1.000000 -0.861906 -0.505448 -0.040504
4769 1 -14.539905 -9.448987 -0.700275 0 1.000000 1.000000 1.000000 -0.838207 -0.543846 -0.040505
4770 1 -14.333751 -9.784408 -0.000000 0 1.000000 1.000000 1.000000 -0.825702 -0.564107 0.000000
4771 1 -13.883440 -10.414519 0.000000 0 1.000000 1.000000 1.000000 -0.800666 -0.599111 0.000000
4772 1 -13.641751 -10.707952 0.684234 0 1.000000 1.000000 1.000000 -0.785574 -0.617530 0.039118
4773 1 -13.170507 -11.284162 0.674533 0 1.000000 1.000000 1.000000 -0.759906 -0.648855 0.039119
4774 1 -12.902647 -11.532752 1.335810 0 1.000000 1.000000 1.000000 -0.742705 -0.665260 0.076278
4775 1 -12.421034 -12.053358 1.313966 0 1.000000 1.000000 1.000000 -0.717052 -0.692833 0.076281
4776 1 -12.136314 -12.256856 1.947127 0 1.000000 1.000000 1.000000 -0.698261 -0.707173 0.111077
4777 1 -11.653866 -12.722777 1.911843 0 1.000000 1.000000 1.000000 -0.673171 -0.731096 0.111082
4778 1 -15.956706 -0.339393 -6.829344 0 1.000000 1.000000 1.000000 -0.920341 -0.020919 -0.390558
4779 1 -16.148144 -0.688059 -6.333351 0 1.000000 1.000000 1.000000 -0.929478 -0.039094 -0.366801
4780 1 -16.073187 -1.387329 -6.407569 0 1.000000 1.000000 1.000000 -0.926747 -0.081277 -0.366789
4781 1 -16.238337 -1.765418 -5.873961 0 1.000000 1.000000 1.000000 -0.935031 -0.101092 -0.339850
4782 1 -16.121649 -2.492977 -5.930006 0 1.000000 1.000000 1.000000 -0.929252 -0.144910 -0.339841
4783 1 -16.252919 -2.896095 -5.358876 0 1.000000 1.000000 1.000000 -0.936203 -0.166206 -0.309677
4784 1 -16.088803 -3.643964 -5.396435 0 1.000000 1.000000 1.000000 -0.927116 -0.211094 -0.309671
4785 1 -16.178944 -4.065493 -4.789499 0 1.000000 1.000000 1.000000 -0.932220 -0.233607 -0.276395
4786 1 -15.963131 -4.823451 -4.809427 0 1.000000 1.000000 1.000000 -0.919701 -0.278852 -0.276391
4787 1 -16.006060 -5.254677 -4.170303 0 1.000000 1.000000 1.000000 -0.922457 -0.302209 -0.240298
4788 1 -15.736487 -6.010763 -4.174759 0 1.000000 1.000000 1.000000 -0.906562 -0.346992 -0.240297
4789 1 -15.728125 -6.441376 -3.509026 0 1.000000 1.000000 1.000000 -0.906537 -0.370729 -0.201868
4790 1 -15.405541 -7.182772 -3.501417 0 1.000000 1.000000 1.000000 -0.887524 -0.414186 -0.201870
4791 1 -15.344505 -7.601718 -2.816413 0 1.000000 1.000000 1.000000 -0.884409 -0.437785 -0.161755
4792 1 -14.972733 -8.315878 -2.801119 0 1.000000 1.000000 1.000000 -0.862734 -0.479087 -0.161758
4793 1 -14.860660 -8.712429 -2.105438 0 1.000000 1.000000 1.000000 -0.856388 -0.502022 -0.120724
4794 1 -14.446395 -9.388266 -2.087347 0 1.000000 1.000000 1.000000 -0.832664 -0.540459 -0.120728
4795 1 -14.287818 -9.753091 -1.390130 0 1.000000 1.000000 1.000000 -0.823132 -0.562246 -0.079586
4796 1 -13.839975 -10.381946 -1.374088 0 1.000000 1.000000 1.000000 -0.798070 -0.597286 -0.079589
4797 1 -13.641751 -10.707952 -0.684234 0 1.000000 1.000000 1.000000 -0.785574 -0.617530 -0.039118
4798 1 -13.170507 -11.284162 -0.674533 0 1.000000 1.000000 1.000000 -0.759906 -0.648855 -0.039119
4799 1 -12.940952 -11.566938 0.000000 0 1.000000 1.000000 1.000000 -0.744811 -0.667275 -0.000000
4800 1 -12.456704 -12.087929 -0.000000 0 1.000000 1.000000 1.000000 -0.719219 -0.694783 -0.000000
4801 1 -12.204646 -12.325758 0.652688 0 1.000000 1.000000 1.000000 -0.701982 -0.711221 0.037230
4802 1 -11.717098 -12.791718 0.640731 0 1.000000 1.000000 1.000000 -0.677048 -0.734996 0.037232
4803 1 -11.451039 -12.985239 1.266724 0 1.000000 1.000000 1.000000 -0.658163 -0.749406 0.072196
4804 1 -10.968560 -13.398531 1.241646 0 1.000000 1.000000 1.000000 -0.634342 -0.769674 0.072199
4805 1 -15.489163 -0.329186 -7.834877 0 1.000000 1.000000 1.000000 -0.893674 -0.020992 -0.448226
4806 1 -15.695933 -0.668580 -7.387530 0 1.000000 1.000000 1.000000 -0.903149 -0.037296 -0.427704
4807 1 -15.612923 -1.347367 -7.469232 0 1.000000 1.000000 1.000000 -0.900413 -0.079599 -0.427692
4808 1 -15.798739 -1.717450 -6.985265 0 1.000000 1.000000 1.000000 -0.909513 -0.097698 -0.404031
4809 1 -15.677193 -2.424053 -7.048300 0 1.000000 1.000000 1.000000 -0.903736 -0.141519 -0.404021
4810 1 -15.834953 -2.821490 -6.526649 0 1.000000 1.000000 1.000000 -0.912021 -0.161332 -0.377080
4811 1 -15.669469 -3.548845 -6.570043 0 1.000000 1.000000 1.000000 -0.902952 -0.206142 -0.377073
4812 1 -15.792049 -3.968200 -6.010960 0 1.000000 1.000000 1.000000 -0.909920 -0.227486 -0.346838
4813 1 -15.578333 -4.707094 -6.034779 0 1.000000 1.000000 1.000000 -0.897433 -0.272619 -0.346833
4814 1 -15.659273 -5.140815 -5.440182 0 1.000000 1.000000 1.000000 -0.902555 -0.295200 -0.313452
4815 1 -15.394839 -5.880241 -5.445745 0 1.000000 1.000000 1.000000 -0.886696 -0.339880 -0.313451
4816 1 -15.429124 -6.318963 -4.819446 0 1.000000 1.000000 1.000000 -0.889462 -0.363298 -0.277257
4817 1 -15.113909 -7.046829 -4.809389 0 1.000000 1.000000 1.000000 -0.870474 -0.406696 -0.277259
4818 1 -15.098688 -7.480024 -4.157093 0 1.000000 1.000000 1.000000 -0.870452 -0.430469 -0.238770
4819 1 -14.735413 -8.184141 -4.135232 0 1.000000 1.000000 1.000000 -0.848774 -0.471773 -0.238774
4820 1 -14.670495 -8.601048 -3.464262 0 1.000000 1.000000 1.000000 -0.845661 -0.495372 -0.198657
4821 1 -14.264641 -9.270242 -3.435244 0 1.000000 1.000000 1.000000 -0.821899 -0.533869 -0.198662
4822 1 -14.152614 -9.660909 -2.754010 0 1.000000 1.000000 1.000000 -0.815562 -0.556772 -0.157684
4823 1 -13.711979 -10.286025 -2.722821 0 1.000000 1.000000 1.000000 -0.790431 -0.591907 -0.157690
4824 1 -13.557917 -10.642237 -2.040116 0 1.000000 1.000000 1.000000 -0.780920 -0.613643 -0.116643
4825 1 -13.091834 -11.216833 -2.011539 0 1.000000 1.000000 1.000000 -0.755171 -0.645067 -0.116648
4826 1 -12.902647 -11.532752 -1.335810 0 1.000000 1.000000 1.000000 -0.742705 -0.665260 -0.076278
4827 1 -12.421034 -12.053358 -1.313966 0 1.000000 1.000000 1.000000 -0.717052 -0.692833 -0.076281
4828 1 -12.204646 -12.325758 -0.652688 0 1.000000 1.000000 1.000000 -0.701982 -0.711221 -0.037230
4829 1 -11.717098 -12.791718 -0.640731 0 1.000000 1.000000 1.000000 -0.677048 -0.734996 -0.037232
4830 1 -11.481608 -13.019847 0.000000 0 1.000000 1.000000 1.000000 -0.659808 -0.751434 0.000000
4831 1 -10.996684 -13.432838 0.000000 0 1.000000 1.000000 1.000000 -0.636085 -0.771619 0.000000
4832 1 -10.749694 -13.618001 0.615653 0 1.000000 1.000000 1.000000 -0.617143 -0.786069 0.035063
4833 1 -10.274479 -13.981406 0.602658 0 1.000000 1.000000 1.000000 -0.594984 -0.802973 0.035064
4834 1 -14.992302 -0.318368 -8.750622 0 1.000000 1.000000 1.000000 -0.865306 -0.021003 -0.500804
4835 1 -15.207413 -0.647554 -8.350933 0 1.000000 1.000000 1.000000 -0.874736 -0.035421 -0.483304
4836 1 -15.116699 -1.304308 -8.437536 0 1.000000 1.000000 1.000000 -0.872003 -0.077727 -0.483290
4837 1 -15.315439 -1.664727 -8.003182 0 1.000000 1.000000 1.000000 -0.881479 -0.094029 -0.462767
4838 1 -15.189327 -2.348419 -8.070991 0 1.000000 1.000000 1.000000 -0.875720 -0.137738 -0.462756
4839 1 -15.365265 -2.737661 -7.600075 0 1.000000 1.000000 1.000000 -0.884858 -0.155910 -0.438997
4840 1 -15.198772 -3.442092 -7.647622 0 1.000000 1.000000 1.000000 -0.875829 -0.200532 -0.438989
4841 1 -15.345216 -3.855839 -7.139241 0 1.000000 1.000000 1.000000 -0.884167 -0.220466 -0.411879
4842 1 -15.134200 -4.572807 -7.165942 0 1.000000 1.000000 1.000000 -0.871741 -0.265380 -0.411874
4843 1 -15.244736 -5.004708 -6.620564 0 1.000000 1.000000 1.000000 -0.878757 -0.286863 -0.381439
4844 1 -14.986504 -5.724248 -6.626979 0 1.000000 1.000000 1.000000 -0.862970 -0.331343 -0.381437
4845 1 -15.055666 -6.166061 -6.046757 0 1.000000 1.000000 1.000000 -0.868123 -0.354049 -0.347868
4846 1 -14.749554 -6.876987 -6.034741 0 1.000000 1.000000 1.000000 -0.849194 -0.397310 -0.347871
4847 1 -14.773512 -7.319033 -5.423672 0 1.000000 1.000000 1.000000 -0.851972 -0.420814 -0.311543
4848 1 -14.421288 -8.009765 -5.396359 0 1.000000 1.000000 1.000000 -0.830318 -0.462071 -0.311548
4849 1 -14.398410 -8.441677 -4.760214 0 1.000000 1.000000 1.000000 -0.830297 -0.485874 -0.273008
4850 1 -14.004383 -9.101236 -4.721792 0 1.000000 1.000000 1.000000 -0.806503 -0.524419 -0.273015
4851 1 -13.935532 -9.512893 -4.067792 0 1.000000 1.000000 1.000000 -0.803395 -0.547991 -0.232943
4852 1 -13.506295 -10.131879 -4.023107 0 1.000000 1.000000 1.000000 -0.778170 -0.583255 -0.232950
4853 1 -13.394769 -10.514344 -3.359370 0 1.000000 1.000000 1.000000 -0.771853 -0.606085 -0.192101
4854 1 -12.938611 -11.085700 -3.313419 0 1.000000 1.000000 1.000000 -0.745958 -0.637684 -0.192109
4855 1 -12.789738 -11.431977 -2.648293 0 1.000000 1.000000 1.000000 -0.736490 -0.659324 -0.151245
4856 1 -12.315831 -11.951393 -2.605724 0 1.000000 1.000000 1.000000 -0.710667 -0.687077 -0.151251
4857 1 -12.136314 -12.256856 -1.947127 0 1.000000 1.000000 1.000000 -0.698261 -0.707173 -0.111077
4858 1 -11.653866 -12.722777 -1.911843 0 1.000000 1.000000 1.000000 -0.673171 -0.731096 -0.111082
4859 1 -11.451039 -12.985239 -1.266724 0 1.000000 1.000000 1.000000 -0.658163 -0.749406 -0.072196
4860 1 -10.968560 -13.398531 -1.241646 0 1.000000 1.000000 1.000000 -0.634342 -0.769674 -0.072199
4861 1 -10.749694 -13.618001 -0.615653 0 1.000000 1.000000 1.000000 -0.617143 -0.786069 -0.035063
4862 1 -10.274479 -13.981406 -0.602658 0 1.000000 1.000000 1.000000 -0.594984 -0.802973 -0.035064
4863 1 -10.046253 -14.159648 0.000000 0 1.000000 1.000000 1.000000 -0.576038 -0.817423 0.000000
4864 1 -9.584120 -14.477172 0.000000 0 1.000000 1.000000 1.000000 -0.555791 -0.831322 -0.000000
4865 1 -9.265752 14.673934 -0.515130 0 1.000000 1.000000 1.000000 -0.534788 0.844302 -0.033984
4866 1 -8.970171 14.787513 -1.507757 0 1.000000 1.000000 1.000000 -0.517257 0.851011 -0.090701
4867 1 -9.398698 14.559859 -1.047765 0 1.000000 1.000000 1.000000 -0.540617 0.839315 -0.057313
4868 1 -9.945292 14.184854 -1.135293 0 1.000000 1.000000 1.000000 -0.573991 0.815946 -0.069030
4869 1 -8.620141 14.849933 -2.558176 0 1.000000 1.000000 1.000000 -0.496603 0.854801 -0.150667
4870 1 -9.084967 14.646859 -2.077932 0 1.000000 1.000000 1.000000 -0.523114 0.844183 -0.117079
4871 1 -9.649317 14.265557 -2.180085 0 1.000000 1.000000 1.000000 -0.556486 0.820814 -0.128794
4872 1 -10.081114 14.031206 -1.697438 0 1.000000 1.000000 1.000000 -0.579847 0.809120 -0.095409
4873 1 -10.629166 13.608287 -1.790796 0 1.000000 1.000000 1.000000 -0.613423 0.782602 -0.106046
4874 1 -8.211774 14.850107 -3.657579 0 1.000000 1.000000 1.000000 -0.472640 0.855031 -0.213385
4875 1 -8.713378 14.677206 -3.162905 0 1.000000 1.000000 1.000000 -0.502253 0.845764 -0.180071
4876 1 -9.293045 14.289865 -3.281469 0 1.000000 1.000000 1.000000 -0.535529 0.822460 -0.191751
4877 1 -9.764158 14.081289 -2.778892 0 1.000000 1.000000 1.000000 -0.562110 0.811815 -0.158079
4878 1 -10.329769 13.649134 -2.885476 0 1.000000 1.000000 1.000000 -0.595771 0.785228 -0.168740
4879 1 -10.762980 13.410482 -2.380027 0 1.000000 1.000000 1.000000 -0.619068 0.773568 -0.135452
4880 1 -11.305201 12.938264 -2.475995 0 1.000000 1.000000 1.000000 -0.652374 0.743949 -0.144733
4881 1 -7.743023 14.777543 -4.793233 0 1.000000 1.000000 1.000000 -0.445288 0.851091 -0.278143
4882 1 -8.280475 14.639895 -4.291751 0 1.000000 1.000000 1.000000 -0.477795 0.843428 -0.245643
4883 1 -8.872189 14.246665 -4.428187 0 1.000000 1.000000 1.000000 -0.510910 0.820235 -0.257263
4884 1 -9.383156 14.069535 -3.912578 0 1.000000 1.000000 1.000000 -0.540651 0.810929 -0.223810
4885 1 -9.963727 13.628673 -4.033721 0 1.000000 1.000000 1.000000 -0.574309 0.784343 -0.234469
4886 1 -10.439228 13.416847 -3.509195 0 1.000000 1.000000 1.000000 -0.600890 0.773699 -0.200800
4887 1 -10.998230 12.932699 -3.616111 0 1.000000 1.000000 1.000000 -0.634336 0.743954 -0.210119
4888 1 -11.430992 12.692768 -3.088361 0 1.000000 1.000000 1.000000 -0.657522 0.732351 -0.176994
4889 1 -11.959174 12.171819 -3.182806 0 1.000000 1.000000 1.000000 -0.690017 0.699840 -0.184664
4890 1 -7.214363 14.623480 -5.948609 0 1.000000 1.000000 1.000000 -0.414615 0.842465 -0.344016
4891 1 -7.785030 14.525056 -5.449494 0 1.000000 1.000000 1.000000 -0.449627 0.836614 -0.312908
4892 1 -8.384739 14.125977 -5.604699 0 1.000000 1.000000 1.000000 -0.482552 0.813554 -0.324459
4893 1 -8.934447 13.985234 -5.084873 0 1.000000 1.000000 1.000000 -0.515219 0.805854 -0.291802
4894 1 -9.526543 13.536256 -5.221525 0 1.000000 1.000000 1.000000 -0.548812 0.779318 -0.302438
4895 1 -10.044856 13.356824 -4.685981 0 1.000000 1.000000 1.000000 -0.578605 0.769996 -0.268928
4896 1 -10.617960 12.861723 -4.804641 0 1.000000 1.000000 1.000000 -0.612108 0.740199 -0.278261
4897 1 -11.095833 12.649425 -4.259297 0 1.000000 1.000000 1.000000 -0.638639 0.729576 -0.244659
4898 1 -11.639478 12.114438 -4.361500 0 1.000000 1.000000 1.000000 -0.671292 0.696906 -0.252366
4899 1 -12.070058 11.876763 -3.812759 0 1.000000 1.000000 1.000000 -0.694347 0.685369 -0.219434
4900 1 -12.575587 11.310061 -3.900803 0 1.000000 1.000000 1.000000 -0.725453 0.650356 -0.225286
4901 1 -6.629309 14.382091 -7.104091 0 1.000000 1.000000 1.000000 -0.380860 0.828806 -0.409911
4902 1 -7.228709 14.325179 -6.617526 0 1.000000 1.000000 1.000000 -0.417804 0.824900 -0.380762
4903 1 -7.831738 13.920214 -6.791610 0 1.000000 1.000000 1.000000 -0.450551 0.801964 -0.392247
4904 1 -8.417102 13.819436 -6.277898 0 1.000000 1.000000 1.000000 -0.485720 0.796087 -0.361001
4905 1 -9.016524 13.363002 -6.430419 0 1.000000 1.000000 1.000000 -0.519218 0.769626 -0.371604
4906 1 -9.576258 13.220565 -5.893872 0 1.000000 1.000000 1.000000 -0.551967 0.761907 -0.338866
4907 1 -10.159983 12.715741 -6.024680 0 1.000000 1.000000 1.000000 -0.585468 0.732110 -0.348197
4908 1 -10.683372 12.536331 -5.470992 0 1.000000 1.000000 1.000000 -0.615261 0.722789 -0.314690
4909 1 -11.239846 11.988914 -5.581185 0 1.000000 1.000000 1.000000 -0.647995 0.690037 -0.322415
4910 1 -11.718079 11.779319 -5.017036 0 1.000000 1.000000 1.000000 -0.674453 0.679444 -0.288911
4911 1 -12.237355 11.197393 -5.108814 0 1.000000 1.000000 1.000000 -0.705698 0.644274 -0.294790
4912 1 -12.664283 10.965810 -4.541322 0 1.000000 1.000000 1.000000 -0.728631 0.632798 -0.262037
4913 1 -13.138832 10.358984 -4.617674 0 1.000000 1.000000 1.000000 -0.757781 0.595855 -0.265939
4914 1 -5.994618 14.051543 -8.238280 0 1.000000 1.000000 1.000000 -0.344432 0.809995 -0.474632
4915 1 -6.616499 14.036305 -7.774652 0 1.000000 1.000000 1.000000 -0.382581 0.808068 -0.447948
4916 1 -7.217812 13.625422 -7.966765 0 1.000000 1.000000 1.000000 -0.415203 0.785221 -0.459386
4917 1 -7.833651 13.566243 -7.470287 0 1.000000 1.000000 1.000000 -0.452263 0.781302 -0.430145
4918 1 -8.435632 13.103122 -7.638272 0 1.000000 1.000000 1.000000 -0.485672 0.754911 -0.440717
4919 1 -9.033142 13.000660 -7.112116 0 1.000000 1.000000 1.000000 -0.520923 0.749021 -0.409398
4920 1 -9.623316 12.487606 -7.254934 0 1.000000 1.000000 1.000000 -0.554392 0.719253 -0.418717
4921 1 -10.190424 12.345125 -6.704044 0 1.000000 1.000000 1.000000 -0.587170 0.711528 -0.385954
4922 1 -10.756385 11.787331 -6.822140 0 1.000000 1.000000 1.000000 -0.619930 0.678748 -0.393684
4923 1 -11.282418 11.610530 -6.252968 0 1.000000 1.000000 1.000000 -0.649696 0.669435 -0.360211
4924 1 -11.813030 11.015775 -6.348220 0 1.000000 1.000000 1.000000 -0.681014 0.634184 -0.366103
4925 1 -12.289733 10.812233 -5.768215 0 1.000000 1.000000 1.000000 -0.707402 0.623618 -0.332690
4926 1 -12.776154 10.190178 -5.843667 0 1.000000 1.000000 1.000000 -0.736645 0.586559 -0.336606
4927 1 -13.198325 9.968513 -5.260619 0 1.000000 1.000000 1.000000 -0.759491 0.575125 -0.303981
4928 1 -13.634638 9.329751 -5.320051 0 1.000000 1.000000 1.000000 -0.786180 0.536980 -0.305899
4929 1 -5.320051 13.634638 -9.329751 0 1.000000 1.000000 1.000000 -0.305899 0.786180 -0.536980
4930 1 -5.956733 13.658921 -8.898707 0 1.000000 1.000000 1.000000 -0.344424 0.786160 -0.513152
4931 1 -6.551273 13.242218 -9.106986 0 1.000000 1.000000 1.000000 -0.377001 0.763345 -0.524571
4932 1 -7.190471 13.223957 -8.638671 0 1.000000 1.000000 1.000000 -0.415192 0.761416 -0.497856
4933 1 -7.789961 12.755075 -8.820850 0 1.000000 1.000000 1.000000 -0.448548 0.735068 -0.508409
4934 1 -8.419283 12.693419 -8.316928 0 1.000000 1.000000 1.000000 -0.485659 0.731145 -0.479127
4935 1 -9.011246 12.173893 -8.470973 0 1.000000 1.000000 1.000000 -0.519094 0.701407 -0.488435
4936 1 -9.617769 12.070543 -7.935136 0 1.000000 1.000000 1.000000 -0.554377 0.695512 -0.457089
4937 1 -10.189280 11.504848 -8.060647 0 1.000000 1.000000 1.000000 -0.587136 0.662733 -0.464818
4938 1 -10.760788 11.364118 -7.498541 0 1.000000 1.000000 1.000000 -0.619913 0.655008 -0.432056
4939 1 -11.299745 10.759523 -7.596845 0 1.000000 1.000000 1.000000 -0.651259 0.619725 -0.437953
4940 1 -11.825954 10.587981 -7.015696 0 1.000000 1.000000 1.000000 -0.680995 0.610420 -0.404515
4941 1 -12.322267 9.953956 -7.089663 0 1.000000 1.000000 1.000000 -0.710278 0.573310 -0.408437
4942 1 -12.795764 9.759696 -6.497640 0 1.000000 1.000000 1.000000 -0.736625 0.562760 -0.375079
4943 1 -13.242218 9.106986 -6.551273 0 1.000000 1.000000 1.000000 -0.763345 0.524571 -0.377001
4944 1 -13.658921 8.898707 -5.956733 0 1.000000 1.000000 1.000000 -0.786160 0.513152 -0.344424
4945 1 -14.051543 8.238280 -5.994618 0 1.000000 1.000000 1.000000 -0.809995 0.474632 -0.344432
4946 1 -4.617674 13.138832 -10.358984 0 1.000000 1.000000 1.000000 -0.265939 0.757781 -0.595855
4947 1 -5.260619 13.198325 -9.968513 0 1.000000 1.000000 1.000000 -0.303981 0.759491 -0.575125
4948 1 -5.843667 12.776154 -10.190178 0 1.000000 1.000000 1.000000 -0.336606 0.736645 -0.586559
4949 1 -6.497640 12.795764 -9.759696 0 1.000000 1.000000 1.000000 -0.375079 0.736625 -0.562760
4950 1 -7.089663 12.322267 -9.953956 0 1.000000 1.000000 1.000000 -0.408437 0.710278 -0.573310
4951 1 -7.742786 12.299839 -9.483425 0 1.000000 1.000000 1.000000 -0.446625 0.708350 -0.546595
4952 1 -8.331690 11.775853 -9.647243 0 1.000000 1.000000 1.000000 -0.480047 0.678626 -0.555897
4953 1 -8.970828 11.711564 -9.138713 0 1.000000 1.000000 1.000000 -0.517170 0.674701 -0.526605
4954 1 -9.543570 11.140803 -9.270722 0 1.000000 1.000000 1.000000 -0.549923 0.641930 -0.534331
4955 1 -10.155500 11.037438 -8.728494 0 1.000000 1.000000 1.000000 -0.585212 0.636034 -0.502980
4956 1 -10.699335 10.426501 -8.829259 0 1.000000 1.000000 1.000000 -0.616563 0.600745 -0.508877
4957 1 -11.272073 10.289316 -8.259716 0 1.000000 1.000000 1.000000 -0.649333 0.593020 -0.476124
4958 1 -11.775853 9.647243 -8.331690 0 1.000000 1.000000 1.000000 -0.678626 0.555897 -0.480047
4959 1 -12.299839 9.483425 -7.742786 0 1.000000 1.000000 1.000000 -0.708350 0.546595 -0.446625
4960 1 -12.755075 8.820850 -7.789961 0 1.000000 1.000000 1.000000 -0.735068 0.508409 -0.448548
4961 1 -13.223957 8.638671 -7.190471 0 1.000000 1.000000 1.000000 -0.761416 0.497856 -0.415192
4962 1 -13.625422 7.966765 -7.217812 0 1.000000 1.000000 1.000000 -0.785221 0.459386 -0.415203
4963 1 -14.036305 7.774652 -6.616499 0 1.000000 1.000000 1.000000 -0.808068 0.447948 -0.382581
4964 1 -14.382091 7.104091 -6.629309 0 1.000000 1.000000 1.000000 -0.828806 0.409911 -0.380860
4965 1 -3.900803 12.575587 -11.310061 0 1.000000 1.000000 1.000000 -0.225286 0.725453 -0.650356
4966 1 -4.541322 12.664283 -10.965810 0 1.000000 1.000000 1.000000 -0.262037 0.728631 -0.632798
4967 1 -5.108814 12.237355 -11.197393 0 1.000000 1.000000 1.000000 -0.294790 0.705698 -0.644274
4968 1 -5.768215 12.289733 -10.812233 0 1.000000 1.000000 1.000000 -0.332690 0.707402 -0.623618
4969 1 -6.348220 11.813030 -11.015775 0 1.000000 1.000000 1.000000 -0.366103 0.681014 -0.634184
4970 1 -7.015696 11.825954 -10.587981 0 1.000000 1.000000 1.000000 -0.404515 0.680995 -0.610420
4971 1 -7.596845 11.299745 -10.759523 0 1.000000 1.000000 1.000000 -0.437953 0.651259 -0.619725
4972 1 -8.259716 11.272073 -10.289316 0 1.000000 1.000000 1.000000 -0.476124 0.649333 -0.593020
4973 1 -8.829259 10.699335 -10.426501 0 1.000000 1.000000 1.000000 -0.508877 0.616563 -0.600745
4974 1 -9.473975 10.632355 -9.916437 0 1.000000 1.000000 1.000000 -0.546000 0.612638 -0.571453
4975 1 -10.018925 10.018925 -10.018925 0 1.000000 1.000000 1.000000 -0.577350 0.577350 -0.577350
4976 1 -10.632355 9.916437 -9.473975 0 1.000000 1.000000 1.000000 -0.612638 0.571453 -0.546000
4977 1 -11.140803 9.270722 -9.543570 0 1.000000 1.000000 1.000000 -0.641930 0.534331 -0.549923
4978 1 -11.711564 9.138713 -8.970828 0 1.000000 1.000000 1.000000 -0.674701 0.526605 -0.517170
4979 1 -12.173893 8.470973 -9.011246 0 1.000000 1.000000 1.000000 -0.701407 0.488435 -0.519094
4980 1 -12.693419 8.316928 -8.419283 0 1.000000 1.000000 1.000000 -0.731145 0.479127 -0.485659
4981 1 -13.103122 7.638272 -8.435632 0 1.000000 1.000000 1.000000 -0.754911 0.440717 -0.485672
4982 1 -13.566243 7.470287 -7.833651 0 1.000000 1.000000 1.000000 -0.781302 0.430145 -0.452263
4983 1 -13.920214 6.791610 -7.831738 0 1.000000 1.000000 1.000000 -0.801964 0.392247 -0.450551
4984 1 -14.325179 6.617526 -7.228709 0 1.000000 1.000000 1.000000 -0.824900 0.380762 -0.417804
4985 1 -14.623480 5.948609 -7.214363 0 1.000000 1.000000 1.000000 -0.842465 0.344016 -0.414615
4986 1 -3.182806 11.959174 -12.171819 0 1.000000 1.000000 1.000000 -0.184664 0.690017 -0.699840
4987 1 -3.812759 12.070058 -11.876763 0 1.000000 1.000000 1.000000 -0.219434 0.694347 -0.685369
4988 1 -4.361500 11.639478 -12.114438 0 1.000000 1.000000 1.000000 -0.252366 0.671292 -0.696906
4989 1 -5.017036 11.718079 -11.779319 0 1.000000 1.000000 1.000000 -0.288911 0.674453 -0.679444
4990 1 -5.581185 11.239846 -11.988914 0 1.000000 1.000000 1.000000 -0.322415 0.647995 -0.690037
4991 1 -6.252968 11.282418 -11.610530 0 1.000000 1.000000 1.000000 -0.360211 0.649696 -0.669435
4992 1 -6.822140 10.756385 -11.787331 0 1.000000 1.000000 1.000000 -0.393684 0.619930 -0.678748
4993 1 -7.498541 10.760788 -11.364118 0 1.000000 1.000000 1.000000 -0.432056 0.619913 -0.655008
4994 1 -8.060647 10.189280 -11.504848 0 1.000000 1.000000 1.000000 -0.464818 0.587136 -0.662733
4995 1 -8.728494 10.155500 -11.037438 0 1.000000 1.000000 1.000000 -0.502980 0.585212 -0.636034
4996 1 -9.270722 9.543570 -11.140803 0 1.000000 1.000000 1.000000 -0.534331 0.549923 -0.641930
4997 1 -9.916437 9.473975 -10.632355 0 1.000000 1.000000 1.000000 -0.571453 0.546000 -0.612638
4998 1 -10.426501 8.829259 -10.699335 0 1.000000 1.000000 1.000000 -0.600745 0.508877 -0.616563
4999 1 -11.037438 8.728494 -10.155500 0 1.000000 1.000000 1.000000 -0.636034 0.502980 -0.585212
5000 1 -11.504848 8.060647 -10.189280 0 1.000000 1.000000 1.000000 -0.662733 0.464818 -0.587136
5001 1 -12.070543 7.935136 -9.617769 0 1.000000 1.000000 1.000000 -0.695512 0.457089 -0.554377
5002 1 -12.487606 7.254934 -9.623316 0 1.000000 1.000000 1.000000 -0.719253 0.418717 -0.554392
5003 1 -13.000660 7.112116 -9.033142 0 1.000000 1.000000 1.000000 -0.749021 0.409398 -0.520923
5004 1 -13.363002 6.430419 -9.016524 0 1.000000 1.000000 1.000000 -0.769626 0.371604 -0.519218
5005 1 -13.819436 6.277898 -8.417102 0 1.000000 1.000000 1.000000 -0.796087 0.361001 -0.485720
5006 1 -14.125977 5.604699 -8.384739 0 1.000000 1.000000 1.000000 -0.813554 0.324459 -0.482552
5007 1 -14.525056 5.449494 -7.785030 0 1.000000 1.000000 1.000000 -0.836614 0.312908 -0.449627
5008 1 -14.777543 4.793233 -7.743023 0 1.000000 1.000000 1.000000 -0.851091 0.278143 -0.445288
5009 1 -2.475995 11.305201 -12.938264 0 1.000000 1.000000 1.000000 -0.144733 0.652374 -0.743949
5010 1 -3.088361 11.430992 -12.692768 0 1.000000 1.000000 1.000000 -0.176994 0.657522 -0.732351
5011 1 -3.616111 10.998230 -12.932699 0 1.000000 1.000000 1.000000 -0.210119 0.634336 -0.743954
5012 1 -4.259297 11.095833 -12.649425 0 1.000000 1.000000 1.000000 -0.244659 0.638639 -0.729576
5013 1 -4.804641 10.617960 -12.861723 0 1.000000 1.000000 1.000000 -0.278261 0.612108 -0.740199
5014 1 -5.470992 10.683372 -12.536331 0 1.000000 1.000000 1.000000 -0.314690 0.615261 -0.722789
5015 1 -6.024680 10.159983 -12.715741 0 1.000000 1.000000 1.000000 -0.348197 0.585468 -0.732110
5016 1 -6.704044 10.190424 -12.345125 0 1.000000 1.000000 1.000000 -0.385954 0.587170 -0.711528
5017 1 -7.254934 9.623316 -12.487606 0 1.000000 1.000000 1.000000 -0.418717 0.554392 -0.719253
5018 1 -7.935136 9.617769 -12.070543 0 1.000000 1.000000 1.000000 -0.457089 0.554377 -0.695512
5019 1 -8.470973 9.011246 -12.173893 0 1.000000 1.000000 1.000000 -0.488435 0.519094 -0.701407
5020 1 -9.138713 8.970828 -11.711564 0 1.000000 1.000000 1.000000 -0.526605 0.517170 -0.674701
5021 1 -9.647243 8.331690 -11.775853 0 1.000000 1.000000 1.000000 -0.555897 0.480047 -0.678626
5022 1 -10.289316 8.259716 -11.272073 0 1.000000 1.000000 1.000000 -0.593020 0.476124 -0.649333
5023 1 -10.759523 7.596845 -11.299745 0 1.000000 1.000000 1.000000 -0.619725 0.437953 -0.651259
5024 1 -11.364118 7.498541 -10.760788 0 1.000000 1.000000 1.000000 -0.655008 0.432056 -0.619913
5025 1 -11.787331 6.822140 -10.756385 0 1.000000 1.000000 1.000000 -0.678748 0.393684 -0.619930
5026 1 -12.345125 6.704044 -10.190424 0 1.000000 1.000000 1.000000 -0.711528 0.385954 -0.587170
5027 1 -12.715741 6.024680 -10.159983 0 1.000000 1.000000 1.000000 -0.732110 0.348197 -0.585468
5028 1 -13.220565 5.893872 -9.576258 0 1.000000 1.000000 1.000000 -0.761907 0.338866 -0.551967
5029 1 -13.536256 5.221525 -9.526543 0 1.000000 1.000000 1.000000 -0.779318 0.302438 -0.548812
5030 1 -13.985234 5.084873 -8.934447 0 1.000000 1.000000 1.000000 -0.805854 0.291802 -0.515219
5031 1 -14.246665 4.428187 -8.872189 0 1.000000 1.000000 1.000000 -0.820235 0.257263 -0.510910
5032 1 -14.639895 4.291751 -8.280475 0 1.000000 1.000000 1.000000 -0.843428 0.245643 -0.477795
5033 1 -14.850107 3.657579 -8.211774 0 1.000000 1.000000 1.000000 -0.855031 0.213385 -0.472640
5034 1 -1.790796 10.629166 -13.608287 0 1.000000 1.000000 1.000000 -0.106046 0.613423 -0.782602
5035 1 -2.380027 10.762980 -13.410482 0 1.000000 1.000000 1.000000 -0.135452 0.619068 -0.773568
5036 1 -2.885476 10.329769 -13.649134 0 1.000000 1.000000 1.000000 -0.168740 0.595771 -0.785228
5037 1 -3.509195 10.439228 -13.416847 0 1.000000 1.000000 1.000000 -0.200800 0.600890 -0.773699
5038 1 -4.033721 9.963727 -13.628673 0 1.000000 1.000000 1.000000 -0.234469 0.574309 -0.784343
5039 1 -4.685981 10.044856 -13.356824 0 1.000000 1.000000 1.000000 -0.268928 0.578605 -0.769996
5040 1 -5.221525 9.526543 -13.536256 0 1.000000 1.000000 1.000000 -0.302438 0.548812 -0.779318
5041 1 -5.893872 9.576258 -13.220565 0 1.000000 1.000000 1.000000 -0.338866 0.551967 -0.761907
5042 1 -6.430419 9.016524 -13.363002 0 1.000000 1.000000 1.000000 -0.371604 0.519218 -0.769626
5043 1 -7.112116 9.033142 -13.000660 0 1.000000 1.000000 1.000000 -0.409398 0.520923 -0.749021
5044 1 -7.638272 8.435632 -13.103122 0 1.000000 1.000000 1.000000 -0.440717 0.485672 -0.754911
5045 1 -8.316928 8.419283 -12.693419 0 1.000000 1.000000 1.000000 -0.479127 0.485659 -0.731145
5046 1 -8.820850 7.789961 -12.755075 0 1.000000 1.000000 1.000000 -0.508409 0.448548 -0.735068
5047 1 -9.483425 7.742786 -12.299839 0 1.000000 1.000000 1.000000 -0.546595 0.446625 -0.708350
5048 1 -9.953956 7.089663 -12.322267 0 1.000000 1.000000 1.000000 -0.573310 0.408437 -0.710278
5049 1 -10.587981 7.015696 -11.825954 0 1.000000 1.000000 1.000000 -0.610420 0.404515 -0.680995
5050 1 -11.015775 6.348220 -11.813030 0 1.000000 1.000000 1.000000 -0.634184 0.366103 -0.681014
5051 1 -11.610530 6.252968 -11.282418 0 1.000000 1.000000 1.000000 -0.669435 0.360211 -0.649696
5052 1 -11.988914 5.581185 -11.239846 0 1.000000 1.000000 1.000000 -0.690037 0.322415 -0.647995
5053 1 -12.536331 5.470992 -10.683372 0 1.000000 1.000000 1.000000 -0.722789 0.314690 -0.615261
5054 1 -12.861723 4.804641 -10.617960 0 1.000000 1.000000 1.000000 -0.740199 0.278261 -0.612108
5055 1 -13.356824 4.685981 -10.044856 0 1.000000 1.000000 1.000000 -0.769996 0.268928 -0.578605
5056 1 -13.628673 4.033721 -9.963727 0 1.000000 1.000000 1.000000 -0.784343 0.234469 -0.574309
5057 1 -14.069535 3.912578 -9.383156 0 1.000000 1.000000 1.000000 -0.810929 0.223810 -0.540651
5058 1 -14.289865 3.281469 -9.293045 0 1.000000 1.000000 1.000000 -0.822460 0.191751 -0.535529
5059 1 -14.677206 3.162905 -8.713378 0 1.000000 1.000000 1.000000 -0.845764 0.180071 -0.502253
5060 1 -14.849933 2.558176 -8.620141 0 1.000000 1.000000 1.000000 -0.854801 0.150667 -0.496603
5061 1 -1.135293 9.945292 -14.184854 0 1.000000 1.000000 1.000000 -0.069030 0.573991 -0.815946
5062 1 -1.697438 10.081114 -14.031206 0 1.000000 1.000000 1.000000 -0.095409 0.579847 -0.809120
5063 1 -2.180085 9.649317 -14.265557 0 1.000000 1.000000 1.000000 -0.128794 0.556486 -0.820814
5064 1 -2.778892 9.764158 -14.081289 0 1.000000 1.000000 1.000000 -0.158079 0.562110 -0.811815
5065 1 -3.281469 9.293045 -14.289865 0 1.000000 1.000000 1.000000 -0.191751 0.535529 -0.822460
5066 1 -3.912578 9.383156 -14.069535 0 1.000000 1.000000 1.000000 -0.223810 0.540651 -0.810929
5067 1 -4.428187 8.872189 -14.246665 0 1.000000 1.000000 1.000000 -0.257263 0.510910 -0.820235
5068 1 -5.084873 8.934447 -13.985234 0 1.000000 1.000000 1.000000 -0.291802 0.515219 -0.805854
5069 1 -5.604699 8.384739 -14.125977 0 1.000000 1.000000 1.000000 -0.324459 0.482552 -0.813554
5070 1 -6.277898 8.417102 -13.819436 0 1.000000 1.000000 1.000000 -0.361001 0.485720 -0.796087
5071 1 -6.791610 7.831738 -13.920214 0 1.000000 1.000000 1.000000 -0.392247 0.450551 -0.801964
5072 1 -7.470287 7.833651 -13.566243 0 1.000000 1.000000 1.000000 -0.430145 0.452263 -0.781302
5073 1 -7.966765 7.217812 -13.625422 0 1.000000 1.000000 1.000000 -0.459386 0.415203 -0.785221
5074 1 -8.638671 7.190471 -13.223957 0 1.000000 1.000000 1.000000 -0.497856 0.415192 -0.761416
5075 1 -9.106986 6.551273 -13.242218 0 1.000000 1.000000 1.000000 -0.524571 0.377001 -0.763345
5076 1 -9.759696 6.497640 -12.795764 0 1.000000 1.000000 1.000000 -0.562760 0.375079 -0.736625
5077 1 -10.190178 5.843667 -12.776154 0 1.000000 1.000000 1.000000 -0.586559 0.336606 -0.736645
5078 1 -10.812233 5.768215 -12.289733 0 1.000000 1.000000 1.000000 -0.623618 0.332690 -0.707402
5079 1 -11.197393 5.108814 -12.237355 0 1.000000 1.000000 1.000000 -0.644274 0.294790 -0.705698
5080 1 -11.779319 5.017036 -11.718079 0 1.000000 1.000000 1.000000 -0.679444 0.288911 -0.674453
5081 1 -12.114438 4.361500 -11.639478 0 1.000000 1.000000 1.000000 -0.696906 0.252366 -0.671292
5082 1 -12.649425 4.259297 -11.095833 0 1.000000 1.000000 1.000000 -0.729576 0.244659 -0.638639
5083 1 -12.932699 3.616111 -10.998230 0 1.000000 1.000000 1.000000 -0.743954 0.210119 -0.634336
5084 1 -13.416847 3.509195 -10.439228 0 1.000000 1.000000 1.000000 -0.773699 0.200800 -0.600890
5085 1 -13.649134 2.885476 -10.329769 0 1.000000 1.000000 1.000000 -0.785228 0.168740 -0.595771
5086 1 -14.081289 2.778892 -9.764158 0 1.000000 1.000000 1.000000 -0.811815 0.158079 -0.562110
5087 1 -14.265557 2.180085 -9.649317 0 1.000000 1.000000 1.000000 -0.820814 0.128794 -0.556486
5088 1 -14.646859 2.077932 -9.084967 0 1.000000 1.000000 1.000000 -0.844183 0.117079 -0.523114
5089 1 -14.787513 1.507757 -8.970171 0 1.000000 1.000000 1.000000 -0.851011 0.090701 -0.517257
5090 1 -0.515130 9.265752 -14.673934 0 1.000000 1.000000 1.000000 -0.033984 0.534788 -0.844302
5091 1 -1.047765 9.398698 -14.559859 0 1.000000 1.000000 1.000000 -0.057313 0.540617 -0.839315
5092 1 -1.507757 8.970171 -14.787513 0 1.000000 1.000000 1.000000 -0.090701 0.517257 -0.851011
5093 1 -2.077932 9.084967 -14.646859 0 1.000000 1.000000 1.000000 -0.117079 0.523114 -0.844183
5094 1 -2.558176 8.620141 -14.849933 0 1.000000 1.000000 1.000000 -0.150667 0.496603 -0.854801
5095 1 -3.162905 8.713378 -14.677206 0 1.000000 1.000000 1.000000 -0.180071 0.502253 -0.845764
5096 1 -3.657579 8.211774 -14.850107 0 1.000000 1.000000 1.000000 -0.213385 0.472640 -0.855031
5097 1 -4.291751 8.280475 -14.639895 0 1.000000 1.000000 1.000000 -0.245643 0.477795 -0.843428
5098 1 -4.793233 7.743023 -14.777543 0 1.000000 1.000000 1.000000 -0.278143 0.445288 -0.851091
5099 1 -5.449494 7.785030 -14.525056 0 1.000000 1.000000 1.000000 -0.312908 0.449627 -0.836614
5100 1 -5.948609 7.214363 -14.623480 0 1.000000 1.000000 1.000000 -0.344016 0.414615 -0.842465
5101 1 -6.617526 7.228709 -14.325179 0 1.000000 1.000000 1.000000 -0.380762 0.417804 -0.824900
5102 1 -7.104091 6.629309 -14.382091 0 1.000000 1.000000 1.000000 -0.409911 0.380860 -0.828806
5103 1 -7.774652 6.616499 -14.036305 0 1.000000 1.000000 1.000000 -0.447948 0.382581 -0.808068
5104 1 -8.238280 5.994618 -14.051543 0 1.000000 1.000000 1.000000 -0.474632 0.344432 -0.809995
5105 1 -8.898707 5.956733 -13.658921 0 1.000000 1.000000 1.000000 -0.513152 0.344424 -0.786160
5106 1 -9.329751 5.320051 -13.634638 0 1.000000 1.000000 1.000000 -0.536980 0.305899 -0.786180
5107 1 -9.968513 5.260619 -13.198325 0 1.000000 1.000000 1.000000 -0.575125 0.303981 -0.759491
5108 1 -10.358984 4.617674 -13.138832 0 1.000000 1.000000 1.000000 -0.595855 0.265939 -0.757781
5109 1 -10.965810 4.541322 -12.664283 0 1.000000 1.000000 1.000000 -0.632798 0.262037 -0.728631
5110 1 -11.310061 3.900803 -12.575587 0 1.000000 1.000000 1.000000 -0.650356 0.225286 -0.725453
5111 1 -11.876763 3.812759 -12.070058 0 1.000000 1.000000 1.000000 -0.685369 0.219434 -0.694347
5112 1 -12.171819 3.182806 -11.959174 0 1.000000 1.000000 1.000000 -0.699840 0.184664 -0.690017
5113 1 -12.692768 3.088361 -11.430992 0 1.000000 1.000000 1.000000 -0.732351 0.176994 -0.657522
5114 1 -12.938264 2.475995 -11.305201 0 1.000000 1.000000 1.000000 -0.743949 0.144733 -0.652374
5115 1 -13.410482 2.380027 -10.762980 0 1.000000 1.000000 1.000000 -0.773568 0.135452 -0.619068
5116 1 -13.608287 1.790796 -10.629166 0 1.000000 1.000000 1.000000 -0.782602 0.106046 -0.613423
5117 1 -14.031206 1.697438 -10.081114 0 1.000000 1.000000 1.000000 -0.809120 0.095409 -0.579847
5118 1 -14.184854 1.135293 -9.945292 0 1.000000 1.000000 1.000000 -0.815946 0.069030 -0.573991
5119 1 -14.559859 1.047765 -9.398698 0 1.000000 1.000000 1.000000 -0.839315 0.057313 -0.540617
5120 1 -14.673934 0.515130 -9.265752 0 1.000000 1.000000 1.000000 -0.844302 0.033984 -0.534788
