LAMMPS data file for atom_style dipole_sphere_angle (vesicle radius 11.959)

2420 atoms
2 atom types

-14.350547 14.350547 xlo xhi
-14.350547 14.350547 ylo yhi
-14.350547 14.350547 zlo zhi

Atoms # hybrid angle sphere dipole

1 1 -0.323837 5.901277 10.396283 0 1.000000 1.000000 1.000000 -0.031001 0.488703 0.871899
2 1 -1.338814 5.558751 10.500814 0 1.000000 1.000000 1.000000 -0.115671 0.461227 0.879710
3 1 -0.663404 5.481611 10.606247 0 1.000000 1.000000 1.000000 -0.053217 0.461265 0.885665
4 1 -0.339567 4.941182 10.882492 0 1.000000 1.000000 1.000000 -0.030970 0.408879 0.912063
5 1 -2.430538 5.135177 10.518091 0 1.000000 1.000000 1.000000 -0.206546 0.427117 0.880290
6 1 -1.722022 5.086753 10.680986 0 1.000000 1.000000 1.000000 -0.141803 0.427143 0.892995
7 1 -1.400135 4.519268 10.977930 0 1.000000 1.000000 1.000000 -0.119553 0.374767 0.919379
8 1 -0.693089 4.450837 11.074003 0 1.000000 1.000000 1.000000 -0.057112 0.374801 0.925344
9 1 -0.353523 3.851511 11.311440 0 1.000000 1.000000 1.000000 -0.030774 0.318484 0.947429
10 1 -3.573276 4.627490 10.425072 0 1.000000 1.000000 1.000000 -0.301445 0.385995 0.871859
11 1 -2.848973 4.608825 10.654274 0 1.000000 1.000000 1.000000 -0.236303 0.386006 0.891718
12 1 -2.534814 4.015464 10.967881 0 1.000000 1.000000 1.000000 -0.214148 0.333881 0.917967
13 1 -1.794491 3.974331 11.128642 0 1.000000 1.000000 1.000000 -0.149145 0.333904 0.930733
14 1 -1.452061 3.346286 11.381456 0 1.000000 1.000000 1.000000 -0.122693 0.277359 0.952900
15 1 -0.718138 3.291897 11.468180 0 1.000000 1.000000 1.000000 -0.060552 0.277386 0.958848
16 1 -0.364615 2.644429 11.650671 0 1.000000 1.000000 1.000000 -0.030501 0.218543 0.975350
17 1 -4.730088 4.040525 10.204649 0 1.000000 1.000000 1.000000 -0.397289 0.338104 0.853140
18 1 -4.012368 4.049061 10.504116 0 1.000000 1.000000 1.000000 -0.334064 0.338099 0.879824
19 1 -3.711486 3.432528 10.827877 0 1.000000 1.000000 1.000000 -0.312038 0.286305 0.905904
20 1 -2.958234 3.417596 11.062440 0 1.000000 1.000000 1.000000 -0.246557 0.286314 0.925869
21 1 -2.618033 2.764195 11.326660 0 1.000000 1.000000 1.000000 -0.220102 0.229781 0.948027
22 1 -1.852182 2.734018 11.484915 0 1.000000 1.000000 1.000000 -0.155112 0.229798 0.960798
23 1 -1.490053 2.059607 11.676389 0 1.000000 1.000000 1.000000 -0.124901 0.170648 0.977384
24 1 -0.736409 2.024407 11.755421 0 1.000000 1.000000 1.000000 -0.063153 0.170666 0.983303
25 1 -0.371794 1.346950 11.869369 0 1.000000 1.000000 1.000000 -0.030269 0.111273 0.993329
26 1 -5.856857 3.388417 9.850876 0 1.000000 1.000000 1.000000 -0.490447 0.284461 0.823738
27 1 -5.170153 3.417714 10.217460 0 1.000000 1.000000 1.000000 -0.431545 0.284445 0.856072
28 1 -4.886826 2.782561 10.542894 0 1.000000 1.000000 1.000000 -0.409603 0.232881 0.882039
29 1 -4.145880 2.788838 10.853844 0 1.000000 1.000000 1.000000 -0.346156 0.232877 0.908815
30 1 -3.812990 2.115525 11.123646 0 1.000000 1.000000 1.000000 -0.319741 0.176449 0.930931
31 1 -3.038395 2.105813 11.361899 0 1.000000 1.000000 1.000000 -0.254167 0.176454 0.950927
32 1 -2.672049 1.410384 11.559447 0 1.000000 1.000000 1.000000 -0.223910 0.117222 0.967535
33 1 -1.889557 1.394354 11.715682 0 1.000000 1.000000 1.000000 -0.159038 0.117231 0.980288
34 1 -1.510196 0.695688 11.832652 0 1.000000 1.000000 1.000000 -0.126041 0.057630 0.990350
35 1 -0.746076 0.683484 11.907307 0 1.000000 1.000000 1.000000 -0.064561 0.057636 0.996248
36 1 -0.374282 0.000000 11.945033 0 1.000000 1.000000 1.000000 -0.030178 0.000000 0.999545
37 1 -6.909500 2.693574 9.372188 0 1.000000 1.000000 1.000000 -0.577333 0.226831 0.784369
38 1 -6.276054 2.734230 9.795044 0 1.000000 1.000000 1.000000 -0.524802 0.226809 0.820451
39 1 -6.012473 2.086872 10.112935 0 1.000000 1.000000 1.000000 -0.502849 0.175251 0.846422
40 1 -5.309950 2.105907 10.494201 0 1.000000 1.000000 1.000000 -0.443955 0.175240 0.878746
41 1 -4.988627 1.420131 10.762573 0 1.000000 1.000000 1.000000 -0.417556 0.118869 0.900842
42 1 -4.232614 1.423472 11.081069 0 1.000000 1.000000 1.000000 -0.354065 0.118867 0.927636
43 1 -3.866942 0.715094 11.280831 0 1.000000 1.000000 1.000000 -0.323807 0.059642 0.944241
44 1 -3.080972 0.711718 11.520957 0 1.000000 1.000000 1.000000 -0.258241 0.059644 0.964238
45 1 -2.690806 0.000000 11.640263 0 1.000000 1.000000 1.000000 -0.225222 -0.000000 0.974307
46 1 -1.902521 0.000000 11.795723 0 1.000000 1.000000 1.000000 -0.160411 -0.000000 0.987050
47 1 -1.510196 -0.695688 11.832652 0 1.000000 1.000000 1.000000 -0.126041 -0.057630 0.990350
48 1 -0.746076 -0.683484 11.907307 0 1.000000 1.000000 1.000000 -0.064561 -0.057636 0.996248
49 1 -0.371794 -1.346950 11.869369 0 1.000000 1.000000 1.000000 -0.030269 -0.111273 0.993329
50 1 -7.852051 1.983061 8.790725 0 1.000000 1.000000 1.000000 -0.655055 0.167452 0.736792
51 1 -7.287927 2.024654 9.252964 0 1.000000 1.000000 1.000000 -0.610208 0.167433 0.774346
52 1 -7.044000 1.372921 9.554970 0 1.000000 1.000000 1.000000 -0.588153 0.115657 0.800437
53 1 -6.401992 1.394484 9.992085 0 1.000000 1.000000 1.000000 -0.535840 0.115646 0.836362
54 1 -6.095040 0.705141 10.251981 0 1.000000 1.000000 1.000000 -0.509410 0.059226 0.858483
55 1 -5.384197 0.711754 10.641203 0 1.000000 1.000000 1.000000 -0.450572 0.059223 0.890774
56 1 -5.023988 -0.000000 10.838878 0 1.000000 1.000000 1.000000 -0.420311 0.000000 0.907380
57 1 -4.262745 -0.000000 11.160011 0 1.000000 1.000000 1.000000 -0.356822 0.000000 0.934172
58 1 -3.866942 -0.715094 11.280831 0 1.000000 1.000000 1.000000 -0.323807 -0.059642 0.944241
59 1 -3.080972 -0.711718 11.520957 0 1.000000 1.000000 1.000000 -0.258241 -0.059644 0.964238
60 1 -2.672049 -1.410384 11.559447 0 1.000000 1.000000 1.000000 -0.223910 -0.117222 0.967535
61 1 -1.889557 -1.394354 11.715682 0 1.000000 1.000000 1.000000 -0.159038 -0.117231 0.980288
62 1 -1.490053 -2.059607 11.676389 0 1.000000 1.000000 1.000000 -0.124901 -0.170648 0.977384
63 1 -0.736409 -2.024407 11.755421 0 1.000000 1.000000 1.000000 -0.063153 -0.170666 0.983303
64 1 -0.364615 -2.644429 11.650671 0 1.000000 1.000000 1.000000 -0.030501 -0.218543 0.975350
65 1 -8.662413 1.283666 8.137726 0 1.000000 1.000000 1.000000 -0.721864 0.108633 0.683456
66 1 -8.175374 1.316929 8.619770 0 1.000000 1.000000 1.000000 -0.685123 0.108620 0.720284
67 1 -7.949219 0.669178 8.899762 0 1.000000 1.000000 1.000000 -0.662924 0.056523 0.746550
68 1 -7.381969 0.683578 9.372724 0 1.000000 1.000000 1.000000 -0.618377 0.056516 0.783847
69 1 -7.090594 -0.000000 9.618293 0 1.000000 1.000000 1.000000 -0.591895 0.000000 0.806015
70 1 -6.445672 -0.000000 10.060435 0 1.000000 1.000000 1.000000 -0.539676 0.000000 0.841873
71 1 -6.095040 -0.705141 10.251981 0 1.000000 1.000000 1.000000 -0.509410 -0.059226 0.858483
72 1 -5.384197 -0.711754 10.641203 0 1.000000 1.000000 1.000000 -0.450572 -0.059223 0.890774
73 1 -4.988627 -1.420131 10.762573 0 1.000000 1.000000 1.000000 -0.417556 -0.118869 0.900842
74 1 -4.232614 -1.423472 11.081069 0 1.000000 1.000000 1.000000 -0.354065 -0.118867 0.927636
75 1 -3.812990 -2.115525 11.123646 0 1.000000 1.000000 1.000000 -0.319741 -0.176449 0.930931
76 1 -3.038395 -2.105813 11.361899 0 1.000000 1.000000 1.000000 -0.254167 -0.176454 0.950927
77 1 -2.618033 -2.764195 11.326660 0 1.000000 1.000000 1.000000 -0.220102 -0.229781 0.948027
78 1 -1.852182 -2.734018 11.484915 0 1.000000 1.000000 1.000000 -0.155112 -0.229798 0.960798
79 1 -1.452061 -3.346286 11.381456 0 1.000000 1.000000 1.000000 -0.122693 -0.277359 0.952900
80 1 -0.718138 -3.291897 11.468180 0 1.000000 1.000000 1.000000 -0.060552 -0.277386 0.958848
81 1 -0.353523 -3.851511 11.311440 0 1.000000 1.000000 1.000000 -0.030774 -0.318484 0.947429
82 1 -9.333815 0.617569 7.446995 0 1.000000 1.000000 1.000000 -0.777251 0.052348 0.627009
83 1 -8.923628 0.635915 7.930217 0 1.000000 1.000000 1.000000 -0.748244 0.052342 0.661356
84 1 -8.712464 -0.000000 8.184869 0 1.000000 1.000000 1.000000 -0.725938 0.000000 0.687760
85 1 -8.225094 -0.000000 8.672370 0 1.000000 1.000000 1.000000 -0.689412 0.000000 0.724369
86 1 -7.949219 -0.669178 8.899762 0 1.000000 1.000000 1.000000 -0.662924 -0.056523 0.746550
87 1 -7.381969 -0.683578 9.372724 0 1.000000 1.000000 1.000000 -0.618377 -0.056516 0.783847
88 1 -7.044000 -1.372921 9.554970 0 1.000000 1.000000 1.000000 -0.588153 -0.115657 0.800437
89 1 -6.401992 -1.394484 9.992085 0 1.000000 1.000000 1.000000 -0.535840 -0.115646 0.836362
90 1 -6.012473 -2.086872 10.112935 0 1.000000 1.000000 1.000000 -0.502849 -0.175251 0.846422
91 1 -5.309950 -2.105907 10.494201 0 1.000000 1.000000 1.000000 -0.443955 -0.175240 0.878746
92 1 -4.886826 -2.782561 10.542894 0 1.000000 1.000000 1.000000 -0.409603 -0.232881 0.882039
93 1 -4.145880 -2.788838 10.853844 0 1.000000 1.000000 1.000000 -0.346156 -0.232877 0.908815
94 1 -3.711486 -3.432528 10.827877 0 1.000000 1.000000 1.000000 -0.312038 -0.286305 0.905904
95 1 -2.958234 -3.417596 11.062440 0 1.000000 1.000000 1.000000 -0.246557 -0.286314 0.925869
96 1 -2.534814 -4.015464 10.967881 0 1.000000 1.000000 1.000000 -0.214148 -0.333881 0.917967
97 1 -1.794491 -3.974331 11.128642 0 1.000000 1.000000 1.000000 -0.149145 -0.333904 0.930733
98 1 -1.400135 -4.519268 10.977930 0 1.000000 1.000000 1.000000 -0.119553 -0.374767 0.919379
99 1 -0.693089 -4.450837 11.074003 0 1.000000 1.000000 1.000000 -0.057112 -0.374801 0.925344
100 1 -0.339567 -4.941182 10.882492 0 1.000000 1.000000 1.000000 -0.030970 -0.408879 0.912063
101 1 -9.872304 0.000000 6.749093 0 1.000000 1.000000 1.000000 -0.821739 0.000000 0.569865
102 1 -9.532837 0.000000 7.218425 0 1.000000 1.000000 1.000000 -0.799559 0.000000 0.600588
103 1 -9.333815 -0.617569 7.446995 0 1.000000 1.000000 1.000000 -0.777251 -0.052348 0.627009
104 1 -8.923628 -0.635915 7.930217 0 1.000000 1.000000 1.000000 -0.748244 -0.052342 0.661356
105 1 -8.662413 -1.283666 8.137726 0 1.000000 1.000000 1.000000 -0.721864 -0.108633 0.683456
106 1 -8.175374 -1.316929 8.619770 0 1.000000 1.000000 1.000000 -0.685123 -0.108620 0.720284
107 1 -7.852051 -1.983061 8.790725 0 1.000000 1.000000 1.000000 -0.655055 -0.167452 0.736792
108 1 -7.287927 -2.024654 9.252964 0 1.000000 1.000000 1.000000 -0.610208 -0.167433 0.774346
109 1 -6.909500 -2.693574 9.372188 0 1.000000 1.000000 1.000000 -0.577333 -0.226831 0.784369
110 1 -6.276054 -2.734230 9.795044 0 1.000000 1.000000 1.000000 -0.524802 -0.226809 0.820451
111 1 -5.856857 -3.388417 9.850876 0 1.000000 1.000000 1.000000 -0.490447 -0.284461 0.823738
112 1 -5.170153 -3.417714 10.217460 0 1.000000 1.000000 1.000000 -0.431545 -0.284445 0.856072
113 1 -4.730088 -4.040525 10.204649 0 1.000000 1.000000 1.000000 -0.397289 -0.338104 0.853140
114 1 -4.012368 -4.049061 10.504116 0 1.000000 1.000000 1.000000 -0.334064 -0.338099 0.879824
115 1 -3.573276 -4.627490 10.425072 0 1.000000 1.000000 1.000000 -0.301445 -0.385995 0.871859
116 1 -2.848973 -4.608825 10.654274 0 1.000000 1.000000 1.000000 -0.236303 -0.386006 0.891718
117 1 -2.430538 -5.135177 10.518091 0 1.000000 1.000000 1.000000 -0.206546 -0.427117 0.880290
118 1 -1.722022 -5.086753 10.680986 0 1.000000 1.000000 1.000000 -0.141803 -0.427143 0.892995
119 1 -1.338814 -5.558751 10.500814 0 1.000000 1.000000 1.000000 -0.115671 -0.461227 0.879710
120 1 -0.663404 -5.481611 10.606247 0 1.000000 1.000000 1.000000 -0.053217 -0.461265 0.885665
121 1 -0.323837 -5.901277 10.396283 0 1.000000 1.000000 1.000000 -0.031001 -0.488703 0.871899
122 1 -0.523979 6.425256 10.072446 0 1.000000 1.000000 1.000000 -0.050161 0.538863 0.840898
123 1 -1.166999 7.107429 9.543679 0 1.000000 1.000000 1.000000 -0.102459 0.596039 0.796392
124 1 -1.073410 6.555021 9.942843 0 1.000000 1.000000 1.000000 -0.086106 0.547371 0.832448
125 1 -1.548678 6.108182 10.161247 0 1.000000 1.000000 1.000000 -0.134812 0.511338 0.848740
126 1 -1.855678 7.784203 8.880902 0 1.000000 1.000000 1.000000 -0.158426 0.652682 0.740883
127 1 -1.757358 7.237128 9.351981 0 1.000000 1.000000 1.000000 -0.144752 0.604243 0.783541
128 1 -2.265466 6.784734 9.577795 0 1.000000 1.000000 1.000000 -0.193441 0.568207 0.799826
129 1 -2.150375 6.208195 9.987897 0 1.000000 1.000000 1.000000 -0.177101 0.519552 0.835883
130 1 -2.649027 5.707188 10.164568 0 1.000000 1.000000 1.000000 -0.225565 0.476910 0.849516
131 1 -2.573021 8.426110 8.077395 0 1.000000 1.000000 1.000000 -0.216805 0.706291 0.673906
132 1 -2.478900 7.901632 8.619207 0 1.000000 1.000000 1.000000 -0.206595 0.659732 0.722546
133 1 -3.018662 7.447701 8.846642 0 1.000000 1.000000 1.000000 -0.255043 0.623858 0.738752
134 1 -2.903548 6.877879 9.334151 0 1.000000 1.000000 1.000000 -0.241321 0.575225 0.781589
135 1 -3.432237 6.364948 9.515820 0 1.000000 1.000000 1.000000 -0.289976 0.532402 0.795275
136 1 -3.292807 5.770797 9.936136 0 1.000000 1.000000 1.000000 -0.273726 0.483981 0.831166
137 1 -3.798620 5.217449 10.060457 0 1.000000 1.000000 1.000000 -0.320296 0.435348 0.841358
138 1 -3.295149 9.000394 7.139281 0 1.000000 1.000000 1.000000 -0.275807 0.754100 0.596040
139 1 -3.216189 8.516555 7.743053 0 1.000000 1.000000 1.000000 -0.269616 0.711194 0.649239
140 1 -3.783877 8.064917 7.964903 0 1.000000 1.000000 1.000000 -0.317751 0.675536 0.665346
141 1 -3.680472 7.520542 8.526680 0 1.000000 1.000000 1.000000 -0.307492 0.628735 0.714242
142 1 -4.236066 7.000261 8.708627 0 1.000000 1.000000 1.000000 -0.356132 0.585913 0.727926
143 1 -4.102946 6.414490 9.210258 0 1.000000 1.000000 1.000000 -0.342421 0.537290 0.770758
144 1 -4.632389 5.843484 9.337824 0 1.000000 1.000000 1.000000 -0.389231 0.488399 0.781003
145 1 -4.467494 5.240595 9.767707 0 1.000000 1.000000 1.000000 -0.373095 0.440282 0.816671
146 1 -4.959870 4.642099 9.832855 0 1.000000 1.000000 1.000000 -0.415996 0.387080 0.822871
147 1 -3.994019 9.476593 6.088176 0 1.000000 1.000000 1.000000 -0.333291 0.793559 0.509098
148 1 -3.941406 9.048967 6.737154 0 1.000000 1.000000 1.000000 -0.331270 0.755891 0.564703
149 1 -4.530420 8.602739 6.945826 0 1.000000 1.000000 1.000000 -0.379189 0.720381 0.580747
150 1 -4.451851 8.102528 7.569803 0 1.000000 1.000000 1.000000 -0.372974 0.677324 0.634131
151 1 -5.028607 7.579932 7.746457 0 1.000000 1.000000 1.000000 -0.421521 0.634573 0.647794
152 1 -4.916227 7.022040 8.323504 0 1.000000 1.000000 1.000000 -0.411251 0.587705 0.696760
153 1 -5.464408 6.438991 8.451597 0 1.000000 1.000000 1.000000 -0.458125 0.538743 0.707020
154 1 -5.313690 5.846206 8.964287 0 1.000000 1.000000 1.000000 -0.444447 0.490205 0.749777
155 1 -5.820179 5.226109 9.032698 0 1.000000 1.000000 1.000000 -0.487500 0.436819 0.755998
156 1 -5.631253 4.624891 9.471384 0 1.000000 1.000000 1.000000 -0.471446 0.388906 0.791512
157 1 -6.088176 3.994019 9.476593 0 1.000000 1.000000 1.000000 -0.509098 0.333291 0.793559
158 1 -4.642099 9.832855 4.959870 0 1.000000 1.000000 1.000000 -0.387080 0.822871 0.415996
159 1 -4.624891 9.471384 5.631253 0 1.000000 1.000000 1.000000 -0.388906 0.791512 0.471446
160 1 -5.226109 9.032698 5.820179 0 1.000000 1.000000 1.000000 -0.436819 0.755998 0.487500
161 1 -5.184251 8.591680 6.485773 0 1.000000 1.000000 1.000000 -0.434791 0.718335 0.543095
162 1 -5.773947 8.071768 6.651636 0 1.000000 1.000000 1.000000 -0.483286 0.675620 0.556751
163 1 -5.696871 7.560231 7.288343 0 1.000000 1.000000 1.000000 -0.477065 0.632533 0.610173
164 1 -6.256843 6.971937 7.413889 0 1.000000 1.000000 1.000000 -0.523931 0.583573 0.620434
165 1 -6.136759 6.408589 8.000097 0 1.000000 1.000000 1.000000 -0.513666 0.536709 0.669396
166 1 -6.651636 5.773947 8.071768 0 1.000000 1.000000 1.000000 -0.556751 0.483286 0.675620
167 1 -6.485773 5.184251 8.591680 0 1.000000 1.000000 1.000000 -0.543095 0.434791 0.718335
168 1 -6.945826 4.530420 8.602739 0 1.000000 1.000000 1.000000 -0.580747 0.379189 0.720381
169 1 -6.737154 3.941406 9.048967 0 1.000000 1.000000 1.000000 -0.564703 0.331270 0.755891
170 1 -7.139281 3.295149 9.000394 0 1.000000 1.000000 1.000000 -0.596040 0.275807 0.754100
171 1 -5.217449 10.060457 3.798620 0 1.000000 1.000000 1.000000 -0.435348 0.841358 0.320296
172 1 -5.240595 9.767707 4.467494 0 1.000000 1.000000 1.000000 -0.440282 0.816671 0.373095
173 1 -5.843484 9.337824 4.632389 0 1.000000 1.000000 1.000000 -0.488399 0.781003 0.389231
174 1 -5.846206 8.964287 5.313690 0 1.000000 1.000000 1.000000 -0.490205 0.749777 0.444447
175 1 -6.438991 8.451597 5.464408 0 1.000000 1.000000 1.000000 -0.538743 0.707020 0.458125
176 1 -6.408589 8.000097 6.136759 0 1.000000 1.000000 1.000000 -0.536709 0.669396 0.513666
177 1 -6.971937 7.413889 6.256843 0 1.000000 1.000000 1.000000 -0.583573 0.620434 0.523931
178 1 -6.897266 6.897266 6.897266 0 1.000000 1.000000 1.000000 -0.577350 0.577350 0.577350
179 1 -7.413889 6.256843 6.971937 0 1.000000 1.000000 1.000000 -0.620434 0.523931 0.583573
180 1 -7.288343 5.696871 7.560231 0 1.000000 1.000000 1.000000 -0.610173 0.477065 0.632533
181 1 -7.746457 5.028607 7.579932 0 1.000000 1.000000 1.000000 -0.647794 0.421521 0.634573
182 1 -7.569803 4.451851 8.102528 0 1.000000 1.000000 1.000000 -0.634131 0.372974 0.677324
183 1 -7.964903 3.783877 8.064917 0 1.000000 1.000000 1.000000 -0.665346 0.317751 0.675536
184 1 -7.743053 3.216189 8.516555 0 1.000000 1.000000 1.000000 -0.649239 0.269616 0.711194
185 1 -8.077395 2.573021 8.426110 0 1.000000 1.000000 1.000000 -0.673906 0.216805 0.706291
186 1 -5.707188 10.164568 2.649027 0 1.000000 1.000000 1.000000 -0.476910 0.849516 0.225565
187 1 -5.770797 9.936136 3.292807 0 1.000000 1.000000 1.000000 -0.483981 0.831166 0.273726
188 1 -6.364948 9.515820 3.432237 0 1.000000 1.000000 1.000000 -0.532402 0.795275 0.289976
189 1 -6.414490 9.210258 4.102946 0 1.000000 1.000000 1.000000 -0.537290 0.770758 0.342421
190 1 -7.000261 8.708627 4.236066 0 1.000000 1.000000 1.000000 -0.585913 0.727926 0.356132
191 1 -7.022040 8.323504 4.916227 0 1.000000 1.000000 1.000000 -0.587705 0.696760 0.411251
192 1 -7.579932 7.746457 5.028607 0 1.000000 1.000000 1.000000 -0.634573 0.647794 0.421521
193 1 -7.560231 7.288343 5.696871 0 1.000000 1.000000 1.000000 -0.632533 0.610173 0.477065
194 1 -8.071768 6.651636 5.773947 0 1.000000 1.000000 1.000000 -0.675620 0.556751 0.483286
195 1 -8.000097 6.136759 6.408589 0 1.000000 1.000000 1.000000 -0.669396 0.513666 0.536709
196 1 -8.451597 5.464408 6.438991 0 1.000000 1.000000 1.000000 -0.707020 0.458125 0.538743
197 1 -8.323504 4.916227 7.022040 0 1.000000 1.000000 1.000000 -0.696760 0.411251 0.587705
198 1 -8.708627 4.236066 7.000261 0 1.000000 1.000000 1.000000 -0.727926 0.356132 0.585913
199 1 -8.526680 3.680472 7.520542 0 1.000000 1.000000 1.000000 -0.714242 0.307492 0.628735
200 1 -8.846642 3.018662 7.447701 0 1.000000 1.000000 1.000000 -0.738752 0.255043 0.623858
201 1 -8.619207 2.478900 7.901632 0 1.000000 1.000000 1.000000 -0.722546 0.206595 0.659732
202 1 -8.880902 1.855678 7.784203 0 1.000000 1.000000 1.000000 -0.740883 0.158426 0.652682
203 1 -6.108182 10.161247 1.548678 0 1.000000 1.000000 1.000000 -0.511338 0.848740 0.134812
204 1 -6.208195 9.987897 2.150375 0 1.000000 1.000000 1.000000 -0.519552 0.835883 0.177101
205 1 -6.784734 9.577795 2.265466 0 1.000000 1.000000 1.000000 -0.568207 0.799826 0.193441
206 1 -6.877879 9.334151 2.903548 0 1.000000 1.000000 1.000000 -0.575225 0.781589 0.241321
207 1 -7.447701 8.846642 3.018662 0 1.000000 1.000000 1.000000 -0.623858 0.738752 0.255043
208 1 -7.520542 8.526680 3.680472 0 1.000000 1.000000 1.000000 -0.628735 0.714242 0.307492
209 1 -8.064917 7.964903 3.783877 0 1.000000 1.000000 1.000000 -0.675536 0.665346 0.317751
210 1 -8.102528 7.569803 4.451851 0 1.000000 1.000000 1.000000 -0.677324 0.634131 0.372974
211 1 -8.602739 6.945826 4.530420 0 1.000000 1.000000 1.000000 -0.720381 0.580747 0.379189
212 1 -8.591680 6.485773 5.184251 0 1.000000 1.000000 1.000000 -0.718335 0.543095 0.434791
213 1 -9.032698 5.820179 5.226109 0 1.000000 1.000000 1.000000 -0.755998 0.487500 0.436819
214 1 -8.964287 5.313690 5.846206 0 1.000000 1.000000 1.000000 -0.749777 0.444447 0.490205
215 1 -9.337824 4.632389 5.843484 0 1.000000 1.000000 1.000000 -0.781003 0.389231 0.488399
216 1 -9.210258 4.102946 6.414490 0 1.000000 1.000000 1.000000 -0.770758 0.342421 0.537290
217 1 -9.515820 3.432237 6.364948 0 1.000000 1.000000 1.000000 -0.795275 0.289976 0.532402
218 1 -9.334151 2.903548 6.877879 0 1.000000 1.000000 1.000000 -0.781589 0.241321 0.575225
219 1 -9.577795 2.265466 6.784734 0 1.000000 1.000000 1.000000 -0.799826 0.193441 0.568207
220 1 -9.351981 1.757358 7.237128 0 1.000000 1.000000 1.000000 -0.783541 0.144752 0.604243
221 1 -9.543679 1.166999 7.107429 0 1.000000 1.000000 1.000000 -0.796392 0.102459 0.596039
222 1 -6.425256 10.072446 0.523979 0 1.000000 1.000000 1.000000 -0.538863 0.840898 0.050161
223 1 -6.555021 9.942843 1.073410 0 1.000000 1.000000 1.000000 -0.547371 0.832448 0.086106
224 1 -7.107429 9.543679 1.166999 0 1.000000 1.000000 1.000000 -0.596039 0.796392 0.102459
225 1 -7.237128 9.351981 1.757358 0 1.000000 1.000000 1.000000 -0.604243 0.783541 0.144752
226 1 -7.784203 8.880902 1.855678 0 1.000000 1.000000 1.000000 -0.652682 0.740883 0.158426
227 1 -7.901632 8.619207 2.478900 0 1.000000 1.000000 1.000000 -0.659732 0.722546 0.206595
228 1 -8.426110 8.077395 2.573021 0 1.000000 1.000000 1.000000 -0.706291 0.673906 0.216805
229 1 -8.516555 7.743053 3.216189 0 1.000000 1.000000 1.000000 -0.711194 0.649239 0.269616
230 1 -9.000394 7.139281 3.295149 0 1.000000 1.000000 1.000000 -0.754100 0.596040 0.275807
231 1 -9.048967 6.737154 3.941406 0 1.000000 1.000000 1.000000 -0.755891 0.564703 0.331270
232 1 -9.476593 6.088176 3.994019 0 1.000000 1.000000 1.000000 -0.793559 0.509098 0.333291
233 1 -9.471384 5.631253 4.624891 0 1.000000 1.000000 1.000000 -0.791512 0.471446 0.388906
234 1 -9.832855 4.959870 4.642099 0 1.000000 1.000000 1.000000 -0.822871 0.415996 0.387080
235 1 -9.767707 4.467494 5.240595 0 1.000000 1.000000 1.000000 -0.816671 0.373095 0.440282
236 1 -10.060457 3.798620 5.217449 0 1.000000 1.000000 1.000000 -0.841358 0.320296 0.435348
237 1 -9.936136 3.292807 5.770797 0 1.000000 1.000000 1.000000 -0.831166 0.273726 0.483981
238 1 -10.164568 2.649027 5.707188 0 1.000000 1.000000 1.000000 -0.849516 0.225565 0.476910
239 1 -9.987897 2.150375 6.208195 0 1.000000 1.000000 1.000000 -0.835883 0.177101 0.519552
240 1 -10.161247 1.548678 6.108182 0 1.000000 1.000000 1.000000 -0.848740 0.134812 0.511338
241 1 -9.942843 1.073410 6.555021 0 1.000000 1.000000 1.000000 -0.832448 0.086106 0.547371
242 1 -10.072446 0.523979 6.425256 0 1.000000 1.000000 1.000000 -0.840898 0.050161 0.538863
243 1 0.000000 6.749093 9.872304 0 1.000000 1.000000 1.000000 0.000000 0.569865 0.821739
244 1 0.617569 7.446995 9.333815 0 1.000000 1.000000 1.000000 0.052348 0.627009 0.777251
245 1 0.000000 7.218425 9.532837 0 1.000000 1.000000 1.000000 0.000000 0.600588 0.799559
246 1 -0.617569 7.446995 9.333815 0 1.000000 1.000000 1.000000 -0.052348 0.627009 0.777251
247 1 1.283666 8.137726 8.662413 0 1.000000 1.000000 1.000000 0.108633 0.683456 0.721864
248 1 0.635915 7.930217 8.923628 0 1.000000 1.000000 1.000000 0.052342 0.661356 0.748244
249 1 0.000000 8.184869 8.712464 0 1.000000 1.000000 1.000000 0.000000 0.687760 0.725938
250 1 -0.635915 7.930217 8.923628 0 1.000000 1.000000 1.000000 -0.052342 0.661356 0.748244
251 1 -1.283666 8.137726 8.662413 0 1.000000 1.000000 1.000000 -0.108633 0.683456 0.721864
252 1 1.983061 8.790725 7.852051 0 1.000000 1.000000 1.000000 0.167452 0.736792 0.655055
253 1 1.316929 8.619770 8.175374 0 1.000000 1.000000 1.000000 0.108620 0.720284 0.685123
254 1 0.669178 8.899762 7.949219 0 1.000000 1.000000 1.000000 0.056523 0.746550 0.662924
255 1 0.000000 8.672370 8.225094 0 1.000000 1.000000 1.000000 0.000000 0.724369 0.689412
256 1 -0.669178 8.899762 7.949219 0 1.000000 1.000000 1.000000 -0.056523 0.746550 0.662924
257 1 -1.316929 8.619770 8.175374 0 1.000000 1.000000 1.000000 -0.108620 0.720284 0.685123
258 1 -1.983061 8.790725 7.852051 0 1.000000 1.000000 1.000000 -0.167452 0.736792 0.655055
259 1 2.693574 9.372188 6.909500 0 1.000000 1.000000 1.000000 0.226831 0.784369 0.577333
260 1 2.024654 9.252964 7.287927 0 1.000000 1.000000 1.000000 0.167433 0.774346 0.610208
261 1 1.372921 9.554970 7.044000 0 1.000000 1.000000 1.000000 0.115657 0.800437 0.588153
262 1 0.683578 9.372724 7.381969 0 1.000000 1.000000 1.000000 0.056516 0.783847 0.618377
263 1 0.000000 9.618293 7.090594 0 1.000000 1.000000 1.000000 0.000000 0.806015 0.591895
264 1 -0.683578 9.372724 7.381969 0 1.000000 1.000000 1.000000 -0.056516 0.783847 0.618377
265 1 -1.372921 9.554970 7.044000 0 1.000000 1.000000 1.000000 -0.115657 0.800437 0.588153
266 1 -2.024654 9.252964 7.287927 0 1.000000 1.000000 1.000000 -0.167433 0.774346 0.610208
267 1 -2.693574 9.372188 6.909500 0 1.000000 1.000000 1.000000 -0.226831 0.784369 0.577333
268 1 3.388417 9.850876 5.856857 0 1.000000 1.000000 1.000000 0.284461 0.823738 0.490447
269 1 2.734230 9.795044 6.276054 0 1.000000 1.000000 1.000000 0.226809 0.820451 0.524802
270 1 2.086872 10.112935 6.012473 0 1.000000 1.000000 1.000000 0.175251 0.846422 0.502849
271 1 1.394484 9.992085 6.401992 0 1.000000 1.000000 1.000000 0.115646 0.836362 0.535840
272 1 0.705141 10.251981 6.095040 0 1.000000 1.000000 1.000000 0.059226 0.858483 0.509410
273 1 0.000000 10.060435 6.445672 0 1.000000 1.000000 1.000000 0.000000 0.841873 0.539676
274 1 -0.705141 10.251981 6.095040 0 1.000000 1.000000 1.000000 -0.059226 0.858483 0.509410
275 1 -1.394484 9.992085 6.401992 0 1.000000 1.000000 1.000000 -0.115646 0.836362 0.535840
276 1 -2.086872 10.112935 6.012473 0 1.000000 1.000000 1.000000 -0.175251 0.846422 0.502849
277 1 -2.734230 9.795044 6.276054 0 1.000000 1.000000 1.000000 -0.226809 0.820451 0.524802
278 1 -3.388417 9.850876 5.856857 0 1.000000 1.000000 1.000000 -0.284461 0.823738 0.490447
279 1 4.040525 10.204649 4.730088 0 1.000000 1.000000 1.000000 0.338104 0.853140 0.397289
280 1 3.417714 10.217460 5.170153 0 1.000000 1.000000 1.000000 0.284445 0.856072 0.431545
281 1 2.782561 10.542894 4.886826 0 1.000000 1.000000 1.000000 0.232881 0.882039 0.409603
282 1 2.105907 10.494201 5.309950 0 1.000000 1.000000 1.000000 0.175240 0.878746 0.443955
283 1 1.420131 10.762573 4.988627 0 1.000000 1.000000 1.000000 0.118869 0.900842 0.417556
284 1 0.711754 10.641203 5.384197 0 1.000000 1.000000 1.000000 0.059223 0.890774 0.450572
285 1 0.000000 10.838878 5.023988 0 1.000000 1.000000 1.000000 0.000000 0.907380 0.420311
286 1 -0.711754 10.641203 5.384197 0 1.000000 1.000000 1.000000 -0.059223 0.890774 0.450572
287 1 -1.420131 10.762573 4.988627 0 1.000000 1.000000 1.000000 -0.118869 0.900842 0.417556
288 1 -2.105907 10.494201 5.309950 0 1.000000 1.000000 1.000000 -0.175240 0.878746 0.443955
289 1 -2.782561 10.542894 4.886826 0 1.000000 1.000000 1.000000 -0.232881 0.882039 0.409603
290 1 -3.417714 10.217460 5.170153 0 1.000000 1.000000 1.000000 -0.284445 0.856072 0.431545
291 1 -4.040525 10.204649 4.730088 0 1.000000 1.000000 1.000000 -0.338104 0.853140 0.397289
292 1 4.627490 10.425072 3.573276 0 1.000000 1.000000 1.000000 0.385995 0.871859 0.301445
293 1 4.049061 10.504116 4.012368 0 1.000000 1.000000 1.000000 0.338099 0.879824 0.334064
294 1 3.432528 10.827877 3.711486 0 1.000000 1.000000 1.000000 0.286305 0.905904 0.312038
295 1 2.788838 10.853844 4.145880 0 1.000000 1.000000 1.000000 0.232877 0.908815 0.346156
296 1 2.115525 11.123646 3.812990 0 1.000000 1.000000 1.000000 0.176449 0.930931 0.319741
297 1 1.423472 11.081069 4.232614 0 1.000000 1.000000 1.000000 0.118867 0.927636 0.354065
298 1 0.715094 11.280831 3.866942 0 1.000000 1.000000 1.000000 0.059642 0.944241 0.323807
299 1 0.000000 11.160011 4.262745 0 1.000000 1.000000 1.000000 0.000000 0.934172 0.356822
300 1 -0.715094 11.280831 3.866942 0 1.000000 1.000000 1.000000 -0.059642 0.944241 0.323807
301 1 -1.423472 11.081069 4.232614 0 1.000000 1.000000 1.000000 -0.118867 0.927636 0.354065
302 1 -2.115525 11.123646 3.812990 0 1.000000 1.000000 1.000000 -0.176449 0.930931 0.319741
303 1 -2.788838 10.853844 4.145880 0 1.000000 1.000000 1.000000 -0.232877 0.908815 0.346156
304 1 -3.432528 10.827877 3.711486 0 1.000000 1.000000 1.000000 -0.286305 0.905904 0.312038
305 1 -4.049061 10.504116 4.012368 0 1.000000 1.000000 1.000000 -0.338099 0.879824 0.334064
306 1 -4.627490 10.425072 3.573276 0 1.000000 1.000000 1.000000 -0.385995 0.871859 0.301445
307 1 5.135177 10.518091 2.430538 0 1.000000 1.000000 1.000000 0.427117 0.880290 0.206546
308 1 4.608825 10.654274 2.848973 0 1.000000 1.000000 1.000000 0.386006 0.891718 0.236303
309 1 4.015464 10.967881 2.534814 0 1.000000 1.000000 1.000000 0.333881 0.917967 0.214148
310 1 3.417596 11.062440 2.958234 0 1.000000 1.000000 1.000000 0.286314 0.925869 0.246557
311 1 2.764195 11.326660 2.618033 0 1.000000 1.000000 1.000000 0.229781 0.948027 0.220102
312 1 2.105813 11.361899 3.038395 0 1.000000 1.000000 1.000000 0.176454 0.950927 0.254167
313 1 1.410384 11.559447 2.672049 0 1.000000 1.000000 1.000000 0.117222 0.967535 0.223910
314 1 0.711718 11.520957 3.080972 0 1.000000 1.000000 1.000000 0.059644 0.964238 0.258241
315 1 0.000000 11.640263 2.690806 0 1.000000 1.000000 1.000000 0.000000 0.974307 0.225222
316 1 -0.711718 11.520957 3.080972 0 1.000000 1.000000 1.000000 -0.059644 0.964238 0.258241
317 1 -1.410384 11.559447 2.672049 0 1.000000 1.000000 1.000000 -0.117222 0.967535 0.223910
318 1 -2.105813 11.361899 3.038395 0 1.000000 1.000000 1.000000 -0.176454 0.950927 0.254167
319 1 -2.764195 11.326660 2.618033 0 1.000000 1.000000 1.000000 -0.229781 0.948027 0.220102
320 1 -3.417596 11.062440 2.958234 0 1.000000 1.000000 1.000000 -0.286314 0.925869 0.246557
321 1 -4.015464 10.967881 2.534814 0 1.000000 1.000000 1.000000 -0.333881 0.917967 0.214148
322 1 -4.608825 10.654274 2.848973 0 1.000000 1.000000 1.000000 -0.386006 0.891718 0.236303
323 1 -5.135177 10.518091 2.430538 0 1.000000 1.000000 1.000000 -0.427117 0.880290 0.206546
324 1 5.558751 10.500814 1.338814 0 1.000000 1.000000 1.000000 0.461227 0.879710 0.115671
325 1 5.086753 10.680986 1.722022 0 1.000000 1.000000 1.000000 0.427143 0.892995 0.141803
326 1 4.519268 10.977930 1.400135 0 1.000000 1.000000 1.000000 0.374767 0.919379 0.119553
327 1 3.974331 11.128642 1.794491 0 1.000000 1.000000 1.000000 0.333904 0.930733 0.149145
328 1 3.346286 11.381456 1.452061 0 1.000000 1.000000 1.000000 0.277359 0.952900 0.122693
329 1 2.734018 11.484915 1.852182 0 1.000000 1.000000 1.000000 0.229798 0.960798 0.155112
330 1 2.059607 11.676389 1.490053 0 1.000000 1.000000 1.000000 0.170648 0.977384 0.124901
331 1 1.394354 11.715682 1.889557 0 1.000000 1.000000 1.000000 0.117231 0.980288 0.159038
332 1 0.695688 11.832652 1.510196 0 1.000000 1.000000 1.000000 0.057630 0.990350 0.126041
333 1 0.000000 11.795723 1.902521 0 1.000000 1.000000 1.000000 0.000000 0.987050 0.160411
334 1 -0.695688 11.832652 1.510196 0 1.000000 1.000000 1.000000 -0.057630 0.990350 0.126041
335 1 -1.394354 11.715682 1.889557 0 1.000000 1.000000 1.000000 -0.117231 0.980288 0.159038
336 1 -2.059607 11.676389 1.490053 0 1.000000 1.000000 1.000000 -0.170648 0.977384 0.124901
337 1 -2.734018 11.484915 1.852182 0 1.000000 1.000000 1.000000 -0.229798 0.960798 0.155112
338 1 -3.346286 11.381456 1.452061 0 1.000000 1.000000 1.000000 -0.277359 0.952900 0.122693
339 1 -3.974331 11.128642 1.794491 0 1.000000 1.000000 1.000000 -0.333904 0.930733 0.149145
340 1 -4.519268 10.977930 1.400135 0 1.000000 1.000000 1.000000 -0.374767 0.919379 0.119553
341 1 -5.086753 10.680986 1.722022 0 1.000000 1.000000 1.000000 -0.427143 0.892995 0.141803
342 1 -5.558751 10.500814 1.338814 0 1.000000 1.000000 1.000000 -0.461227 0.879710 0.115671
343 1 5.901277 10.396283 0.323837 0 1.000000 1.000000 1.000000 0.488703 0.871899 0.031001
344 1 5.481611 10.606247 0.663404 0 1.000000 1.000000 1.000000 0.461265 0.885665 0.053217
345 1 4.941182 10.882492 0.339567 0 1.000000 1.000000 1.000000 0.408879 0.912063 0.030970
346 1 4.450837 11.074003 0.693089 0 1.000000 1.000000 1.000000 0.374801 0.925344 0.057112
347 1 3.851511 11.311440 0.353523 0 1.000000 1.000000 1.000000 0.318484 0.947429 0.030774
348 1 3.291897 11.468180 0.718138 0 1.000000 1.000000 1.000000 0.277386 0.958848 0.060552
349 1 2.644429 11.650671 0.364615 0 1.000000 1.000000 1.000000 0.218543 0.975350 0.030501
350 1 2.024407 11.755421 0.736409 0 1.000000 1.000000 1.000000 0.170666 0.983303 0.063153
351 1 1.346950 11.869369 0.371794 0 1.000000 1.000000 1.000000 0.111273 0.993329 0.030269
352 1 0.683484 11.907307 0.746076 0 1.000000 1.000000 1.000000 0.057636 0.996248 0.064561
353 1 0.000000 11.945033 0.374282 0 1.000000 1.000000 1.000000 0.000000 0.999545 0.030178
354 1 -0.683484 11.907307 0.746076 0 1.000000 1.000000 1.000000 -0.057636 0.996248 0.064561
355 1 -1.346950 11.869369 0.371794 0 1.000000 1.000000 1.000000 -0.111273 0.993329 0.030269
356 1 -2.024407 11.755421 0.736409 0 1.000000 1.000000 1.000000 -0.170666 0.983303 0.063153
357 1 -2.644429 11.650671 0.364615 0 1.000000 1.000000 1.000000 -0.218543 0.975350 0.030501
358 1 -3.291897 11.468180 0.718138 0 1.000000 1.000000 1.000000 -0.277386 0.958848 0.060552
359 1 -3.851511 11.311440 0.353523 0 1.000000 1.000000 1.000000 -0.318484 0.947429 0.030774
360 1 -4.450837 11.074003 0.693089 0 1.000000 1.000000 1.000000 -0.374801 0.925344 0.057112
361 1 -4.941182 10.882492 0.339567 0 1.000000 1.000000 1.000000 -0.408879 0.912063 0.030970
362 1 -5.481611 10.606247 0.663404 0 1.000000 1.000000 1.000000 -0.461265 0.885665 0.053217
363 1 -5.901277 10.396283 0.323837 0 1.000000 1.000000 1.000000 -0.488703 0.871899 0.031001
364 1 0.523979 6.425256 10.072446 0 1.000000 1.000000 1.000000 0.050161 0.538863 0.840898
365 1 1.548678 6.108182 10.161247 0 1.000000 1.000000 1.000000 0.134812 0.511338 0.848740
366 1 1.073410 6.555021 9.942843 0 1.000000 1.000000 1.000000 0.086106 0.547371 0.832448
367 1 1.166999 7.107429 9.543679 0 1.000000 1.000000 1.000000 0.102459 0.596039 0.796392
368 1 2.649027 5.707188 10.164568 0 1.000000 1.000000 1.000000 0.225565 0.476910 0.849516
369 1 2.150375 6.208195 9.987897 0 1.000000 1.000000 1.000000 0.177101 0.519552 0.835883
370 1 2.265466 6.784734 9.577795 0 1.000000 1.000000 1.000000 0.193441 0.568207 0.799826
371 1 1.757358 7.237128 9.351981 0 1.000000 1.000000 1.000000 0.144752 0.604243 0.783541
372 1 1.855678 7.784203 8.880902 0 1.000000 1.000000 1.000000 0.158426 0.652682 0.740883
373 1 3.798620 5.217449 10.060457 0 1.000000 1.000000 1.000000 0.320296 0.435348 0.841358
374 1 3.292807 5.770797 9.936136 0 1.000000 1.000000 1.000000 0.273726 0.483981 0.831166
375 1 3.432237 6.364948 9.515820 0 1.000000 1.000000 1.000000 0.289976 0.532402 0.795275
376 1 2.903548 6.877879 9.334151 0 1.000000 1.000000 1.000000 0.241321 0.575225 0.781589
377 1 3.018662 7.447701 8.846642 0 1.000000 1.000000 1.000000 0.255043 0.623858 0.738752
378 1 2.478900 7.901632 8.619207 0 1.000000 1.000000 1.000000 0.206595 0.659732 0.722546
379 1 2.573021 8.426110 8.077395 0 1.000000 1.000000 1.000000 0.216805 0.706291 0.673906
380 1 4.959870 4.642099 9.832855 0 1.000000 1.000000 1.000000 0.415996 0.387080 0.822871
381 1 4.467494 5.240595 9.767707 0 1.000000 1.000000 1.000000 0.373095 0.440282 0.816671
382 1 4.632389 5.843484 9.337824 0 1.000000 1.000000 1.000000 0.389231 0.488399 0.781003
383 1 4.102946 6.414490 9.210258 0 1.000000 1.000000 1.000000 0.342421 0.537290 0.770758
384 1 4.236066 7.000261 8.708627 0 1.000000 1.000000 1.000000 0.356132 0.585913 0.727926
385 1 3.680472 7.520542 8.526680 0 1.000000 1.000000 1.000000 0.307492 0.628735 0.714242
386 1 3.783877 8.064917 7.964903 0 1.000000 1.000000 1.000000 0.317751 0.675536 0.665346
387 1 3.216189 8.516555 7.743053 0 1.000000 1.000000 1.000000 0.269616 0.711194 0.649239
388 1 3.295149 9.000394 7.139281 0 1.000000 1.000000 1.000000 0.275807 0.754100 0.596040
389 1 6.088176 3.994019 9.476593 0 1.000000 1.000000 1.000000 0.509098 0.333291 0.793559
390 1 5.631253 4.624891 9.471384 0 1.000000 1.000000 1.000000 0.471446 0.388906 0.791512
391 1 5.820179 5.226109 9.032698 0 1.000000 1.000000 1.000000 0.487500 0.436819 0.755998
392 1 5.313690 5.846206 8.964287 0 1.000000 1.000000 1.000000 0.444447 0.490205 0.749777
393 1 5.464408 6.438991 8.451597 0 1.000000 1.000000 1.000000 0.458125 0.538743 0.707020
394 1 4.916227 7.022040 8.323504 0 1.000000 1.000000 1.000000 0.411251 0.587705 0.696760
395 1 5.028607 7.579932 7.746457 0 1.000000 1.000000 1.000000 0.421521 0.634573 0.647794
396 1 4.451851 8.102528 7.569803 0 1.000000 1.000000 1.000000 0.372974 0.677324 0.634131
397 1 4.530420 8.602739 6.945826 0 1.000000 1.000000 1.000000 0.379189 0.720381 0.580747
398 1 3.941406 9.048967 6.737154 0 1.000000 1.000000 1.000000 0.331270 0.755891 0.564703
399 1 3.994019 9.476593 6.088176 0 1.000000 1.000000 1.000000 0.333291 0.793559 0.509098
400 1 7.139281 3.295149 9.000394 0 1.000000 1.000000 1.000000 0.596040 0.275807 0.754100
401 1 6.737154 3.941406 9.048967 0 1.000000 1.000000 1.000000 0.564703 0.331270 0.755891
402 1 6.945826 4.530420 8.602739 0 1.000000 1.000000 1.000000 0.580747 0.379189 0.720381
403 1 6.485773 5.184251 8.591680 0 1.000000 1.000000 1.000000 0.543095 0.434791 0.718335
404 1 6.651636 5.773947 8.071768 0 1.000000 1.000000 1.000000 0.556751 0.483286 0.675620
405 1 6.136759 6.408589 8.000097 0 1.000000 1.000000 1.000000 0.513666 0.536709 0.669396
406 1 6.256843 6.971937 7.413889 0 1.000000 1.000000 1.000000 0.523931 0.583573 0.620434
407 1 5.696871 7.560231 7.288343 0 1.000000 1.000000 1.000000 0.477065 0.632533 0.610173
408 1 5.773947 8.071768 6.651636 0 1.000000 1.000000 1.000000 0.483286 0.675620 0.556751
409 1 5.184251 8.591680 6.485773 0 1.000000 1.000000 1.000000 0.434791 0.718335 0.543095
410 1 5.226109 9.032698 5.820179 0 1.000000 1.000000 1.000000 0.436819 0.755998 0.487500
411 1 4.624891 9.471384 5.631253 0 1.000000 1.000000 1.000000 0.388906 0.791512 0.471446
412 1 4.642099 9.832855 4.959870 0 1.000000 1.000000 1.000000 0.387080 0.822871 0.415996
413 1 8.077395 2.573021 8.426110 0 1.000000 1.000000 1.000000 0.673906 0.216805 0.706291
414 1 7.743053 3.216189 8.516555 0 1.000000 1.000000 1.000000 0.649239 0.269616 0.711194
415 1 7.964903 3.783877 8.064917 0 1.000000 1.000000 1.000000 0.665346 0.317751 0.675536
416 1 7.569803 4.451851 8.102528 0 1.000000 1.000000 1.000000 0.634131 0.372974 0.677324
417 1 7.746457 5.028607 7.579932 0 1.000000 1.000000 1.000000 0.647794 0.421521 0.634573
418 1 7.288343 5.696871 7.560231 0 1.000000 1.000000 1.000000 0.610173 0.477065 0.632533
419 1 7.413889 6.256843 6.971937 0 1.000000 1.000000 1.000000 0.620434 0.523931 0.583573
420 1 6.897266 6.897266 6.897266 0 1.000000 1.000000 1.000000 0.577350 0.577350 0.577350
421 1 6.971937 7.413889 6.256843 0 1.000000 1.000000 1.000000 0.583573 0.620434 0.523931
422 1 6.408589 8.000097 6.136759 0 1.000000 1.000000 1.000000 0.536709 0.669396 0.513666
423 1 6.438991 8.451597 5.464408 0 1.000000 1.000000 1.000000 0.538743 0.707020 0.458125
424 1 5.846206 8.964287 5.313690 0 1.000000 1.000000 1.000000 0.490205 0.749777 0.444447
425 1 5.843484 9.337824 4.632389 0 1.000000 1.000000 1.000000 0.488399 0.781003 0.389231
426 1 5.240595 9.767707 4.467494 0 1.000000 1.000000 1.000000 0.440282 0.816671 0.373095
427 1 5.217449 10.060457 3.798620 0 1.000000 1.000000 1.000000 0.435348 0.841358 0.320296
428 1 8.880902 1.855678 7.784203 0 1.000000 1.000000 1.000000 0.740883 0.158426 0.652682
429 1 8.619207 2.478900 7.901632 0 1.000000 1.000000 1.000000 0.722546 0.206595 0.659732
430 1 8.846642 3.018662 7.447701 0 1.000000 1.000000 1.000000 0.738752 0.255043 0.623858
431 1 8.526680 3.680472 7.520542 0 1.000000 1.000000 1.000000 0.714242 0.307492 0.628735
432 1 8.708627 4.236066 7.000261 0 1.000000 1.000000 1.000000 0.727926 0.356132 0.585913
433 1 8.323504 4.916227 7.022040 0 1.000000 1.000000 1.000000 0.696760 0.411251 0.587705
434 1 8.451597 5.464408 6.438991 0 1.000000 1.000000 1.000000 0.707020 0.458125 0.538743
435 1 8.000097 6.136759 6.408589 0 1.000000 1.000000 1.000000 0.669396 0.513666 0.536709
436 1 8.071768 6.651636 5.773947 0 1.000000 1.000000 1.000000 0.675620 0.556751 0.483286
437 1 7.560231 7.288343 5.696871 0 1.000000 1.000000 1.000000 0.632533 0.610173 0.477065
438 1 7.579932 7.746457 5.028607 0 1.000000 1.000000 1.000000 0.634573 0.647794 0.421521
439 1 7.022040 8.323504 4.916227 0 1.000000 1.000000 1.000000 0.587705 0.696760 0.411251
440 1 7.000261 8.708627 4.236066 0 1.000000 1.000000 1.000000 0.585913 0.727926 0.356132
441 1 6.414490 9.210258 4.102946 0 1.000000 1.000000 1.000000 0.537290 0.770758 0.342421
442 1 6.364948 9.515820 3.432237 0 1.000000 1.000000 1.000000 0.532402 0.795275 0.289976
443 1 5.770797 9.936136 3.292807 0 1.000000 1.000000 1.000000 0.483981 0.831166 0.273726
444 1 5.707188 10.164568 2.649027 0 1.000000 1.000000 1.000000 0.476910 0.849516 0.225565
445 1 9.543679 1.166999 7.107429 0 1.000000 1.000000 1.000000 0.796392 0.102459 0.596039
446 1 9.351981 1.757358 7.237128 0 1.000000 1.000000 1.000000 0.783541 0.144752 0.604243
447 1 9.577795 2.265466 6.784734 0 1.000000 1.000000 1.000000 0.799826 0.193441 0.568207
448 1 9.334151 2.903548 6.877879 0 1.000000 1.000000 1.000000 0.781589 0.241321 0.575225
449 1 9.515820 3.432237 6.364948 0 1.000000 1.000000 1.000000 0.795275 0.289976 0.532402
450 1 9.210258 4.102946 6.414490 0 1.000000 1.000000 1.000000 0.770758 0.342421 0.537290
451 1 9.337824 4.632389 5.843484 0 1.000000 1.000000 1.000000 0.781003 0.389231 0.488399
452 1 8.964287 5.313690 5.846206 0 1.000000 1.000000 1.000000 0.749777 0.444447 0.490205
453 1 9.032698 5.820179 5.226109 0 1.000000 1.000000 1.000000 0.755998 0.487500 0.436819
454 1 8.591680 6.485773 5.184251 0 1.000000 1.000000 1.000000 0.718335 0.543095 0.434791
455 1 8.602739 6.945826 4.530420 0 1.000000 1.000000 1.000000 0.720381 0.580747 0.379189
456 1 8.102528 7.569803 4.451851 0 1.000000 1.000000 1.000000 0.677324 0.634131 0.372974
457 1 8.064917 7.964903 3.783877 0 1.000000 1.000000 1.000000 0.675536 0.665346 0.317751
458 1 7.520542 8.526680 3.680472 0 1.000000 1.000000 1.000000 0.628735 0.714242 0.307492
459 1 7.447701 8.846642 3.018662 0 1.000000 1.000000 1.000000 0.623858 0.738752 0.255043
460 1 6.877879 9.334151 2.903548 0 1.000000 1.000000 1.000000 0.575225 0.781589 0.241321
461 1 6.784734 9.577795 2.265466 0 1.000000 1.000000 1.000000 0.568207 0.799826 0.193441
462 1 6.208195 9.987897 2.150375 0 1.000000 1.000000 1.000000 0.519552 0.835883 0.177101
463 1 6.108182 10.161247 1.548678 0 1.000000 1.000000 1.000000 0.511338 0.848740 0.134812
464 1 10.072446 0.523979 6.425256 0 1.000000 1.000000 1.000000 0.840898 0.050161 0.538863
465 1 9.942843 1.073410 6.555021 0 1.000000 1.000000 1.000000 0.832448 0.086106 0.547371
466 1 10.161247 1.548678 6.108182 0 1.000000 1.000000 1.000000 0.848740 0.134812 0.511338
467 1 9.987897 2.150375 6.208195 0 1.000000 1.000000 1.000000 0.835883 0.177101 0.519552
468 1 10.164568 2.649027 5.707188 0 1.000000 1.000000 1.000000 0.849516 0.225565 0.476910
469 1 9.936136 3.292807 5.770797 0 1.000000 1.000000 1.000000 0.831166 0.273726 0.483981
470 1 10.060457 3.798620 5.217449 0 1.000000 1.000000 1.000000 0.841358 0.320296 0.435348
471 1 9.767707 4.467494 5.240595 0 1.000000 1.000000 1.000000 0.816671 0.373095 0.440282
472 1 9.832855 4.959870 4.642099 0 1.000000 1.000000 1.000000 0.822871 0.415996 0.387080
473 1 9.471384 5.631253 4.624891 0 1.000000 1.000000 1.000000 0.791512 0.471446 0.388906
474 1 9.476593 6.088176 3.994019 0 1.000000 1.000000 1.000000 0.793559 0.509098 0.333291
475 1 9.048967 6.737154 3.941406 0 1.000000 1.000000 1.000000 0.755891 0.564703 0.331270
476 1 9.000394 7.139281 3.295149 0 1.000000 1.000000 1.000000 0.754100 0.596040 0.275807
477 1 8.516555 7.743053 3.216189 0 1.000000 1.000000 1.000000 0.711194 0.649239 0.269616
478 1 8.426110 8.077395 2.573021 0 1.000000 1.000000 1.000000 0.706291 0.673906 0.216805
479 1 7.901632 8.619207 2.478900 0 1.000000 1.000000 1.000000 0.659732 0.722546 0.206595
480 1 7.784203 8.880902 1.855678 0 1.000000 1.000000 1.000000 0.652682 0.740883 0.158426
481 1 7.237128 9.351981 1.757358 0 1.000000 1.000000 1.000000 0.604243 0.783541 0.144752
482 1 7.107429 9.543679 1.166999 0 1.000000 1.000000 1.000000 0.596039 0.796392 0.102459
483 1 6.555021 9.942843 1.073410 0 1.000000 1.000000 1.000000 0.547371 0.832448 0.086106
484 1 6.425256 10.072446 0.523979 0 1.000000 1.000000 1.000000 0.538863 0.840898 0.050161
485 1 0.323837 5.901277 10.396283 0 1.000000 1.000000 1.000000 0.031001 0.488703 0.871899
486 1 0.339567 4.941182 10.882492 0 1.000000 1.000000 1.000000 0.030970 0.408879 0.912063
487 1 0.663404 5.481611 10.606247 0 1.000000 1.000000 1.000000 0.053217 0.461265 0.885665
488 1 1.338814 5.558751 10.500814 0 1.000000 1.000000 1.000000 0.115671 0.461227 0.879710
489 1 0.353523 3.851511 11.311440 0 1.000000 1.000000 1.000000 0.030774 0.318484 0.947429
490 1 0.693089 4.450837 11.074003 0 1.000000 1.000000 1.000000 0.057112 0.374801 0.925344
491 1 1.400135 4.519268 10.977930 0 1.000000 1.000000 1.000000 0.119553 0.374767 0.919379
492 1 1.722022 5.086753 10.680986 0 1.000000 1.000000 1.000000 0.141803 0.427143 0.892995
493 1 2.430538 5.135177 10.518091 0 1.000000 1.000000 1.000000 0.206546 0.427117 0.880290
494 1 0.364615 2.644429 11.650671 0 1.000000 1.000000 1.000000 0.030501 0.218543 0.975350
495 1 0.718138 3.291897 11.468180 0 1.000000 1.000000 1.000000 0.060552 0.277386 0.958848
496 1 1.452061 3.346286 11.381456 0 1.000000 1.000000 1.000000 0.122693 0.277359 0.952900
497 1 1.794491 3.974331 11.128642 0 1.000000 1.000000 1.000000 0.149145 0.333904 0.930733
498 1 2.534814 4.015464 10.967881 0 1.000000 1.000000 1.000000 0.214148 0.333881 0.917967
499 1 2.848973 4.608825 10.654274 0 1.000000 1.000000 1.000000 0.236303 0.386006 0.891718
500 1 3.573276 4.627490 10.425072 0 1.000000 1.000000 1.000000 0.301445 0.385995 0.871859
501 1 0.371794 1.346950 11.869369 0 1.000000 1.000000 1.000000 0.030269 0.111273 0.993329
502 1 0.736409 2.024407 11.755421 0 1.000000 1.000000 1.000000 0.063153 0.170666 0.983303
503 1 1.490053 2.059607 11.676389 0 1.000000 1.000000 1.000000 0.124901 0.170648 0.977384
504 1 1.852182 2.734018 11.484915 0 1.000000 1.000000 1.000000 0.155112 0.229798 0.960798
505 1 2.618033 2.764195 11.326660 0 1.000000 1.000000 1.000000 0.220102 0.229781 0.948027
506 1 2.958234 3.417596 11.062440 0 1.000000 1.000000 1.000000 0.246557 0.286314 0.925869
507 1 3.711486 3.432528 10.827877 0 1.000000 1.000000 1.000000 0.312038 0.286305 0.905904
508 1 4.012368 4.049061 10.504116 0 1.000000 1.000000 1.000000 0.334064 0.338099 0.879824
509 1 4.730088 4.040525 10.204649 0 1.000000 1.000000 1.000000 0.397289 0.338104 0.853140
510 1 0.374282 0.000000 11.945033 0 1.000000 1.000000 1.000000 0.030178 0.000000 0.999545
511 1 0.746076 0.683484 11.907307 0 1.000000 1.000000 1.000000 0.064561 0.057636 0.996248
512 1 1.510196 0.695688 11.832652 0 1.000000 1.000000 1.000000 0.126041 0.057630 0.990350
513 1 1.889557 1.394354 11.715682 0 1.000000 1.000000 1.000000 0.159038 0.117231 0.980288
514 1 2.672049 1.410384 11.559447 0 1.000000 1.000000 1.000000 0.223910 0.117222 0.967535
515 1 3.038395 2.105813 11.361899 0 1.000000 1.000000 1.000000 0.254167 0.176454 0.950927
516 1 3.812990 2.115525 11.123646 0 1.000000 1.000000 1.000000 0.319741 0.176449 0.930931
517 1 4.145880 2.788838 10.853844 0 1.000000 1.000000 1.000000 0.346156 0.232877 0.908815
518 1 4.886826 2.782561 10.542894 0 1.000000 1.000000 1.000000 0.409603 0.232881 0.882039
519 1 5.170153 3.417714 10.217460 0 1.000000 1.000000 1.000000 0.431545 0.284445 0.856072
520 1 5.856857 3.388417 9.850876 0 1.000000 1.000000 1.000000 0.490447 0.284461 0.823738
521 1 0.371794 -1.346950 11.869369 0 1.000000 1.000000 1.000000 0.030269 -0.111273 0.993329
522 1 0.746076 -0.683484 11.907307 0 1.000000 1.000000 1.000000 0.064561 -0.057636 0.996248
523 1 1.510196 -0.695688 11.832652 0 1.000000 1.000000 1.000000 0.126041 -0.057630 0.990350
524 1 1.902521 0.000000 11.795723 0 1.000000 1.000000 1.000000 0.160411 -0.000000 0.987050
525 1 2.690806 0.000000 11.640263 0 1.000000 1.000000 1.000000 0.225222 -0.000000 0.974307
526 1 3.080972 0.711718 11.520957 0 1.000000 1.000000 1.000000 0.258241 0.059644 0.964238
527 1 3.866942 0.715094 11.280831 0 1.000000 1.000000 1.000000 0.323807 0.059642 0.944241
528 1 4.232614 1.423472 11.081069 0 1.000000 1.000000 1.000000 0.354065 0.118867 0.927636
529 1 4.988627 1.420131 10.762573 0 1.000000 1.000000 1.000000 0.417556 0.118869 0.900842
530 1 5.309950 2.105907 10.494201 0 1.000000 1.000000 1.000000 0.443955 0.175240 0.878746
531 1 6.012473 2.086872 10.112935 0 1.000000 1.000000 1.000000 0.502849 0.175251 0.846422
532 1 6.276054 2.734230 9.795044 0 1.000000 1.000000 1.000000 0.524802 0.226809 0.820451
533 1 6.909500 2.693574 9.372188 0 1.000000 1.000000 1.000000 0.577333 0.226831 0.784369
534 1 0.364615 -2.644429 11.650671 0 1.000000 1.000000 1.000000 0.030501 -0.218543 0.975350
535 1 0.736409 -2.024407 11.755421 0 1.000000 1.000000 1.000000 0.063153 -0.170666 0.983303
536 1 1.490053 -2.059607 11.676389 0 1.000000 1.000000 1.000000 0.124901 -0.170648 0.977384
537 1 1.889557 -1.394354 11.715682 0 1.000000 1.000000 1.000000 0.159038 -0.117231 0.980288
538 1 2.672049 -1.410384 11.559447 0 1.000000 1.000000 1.000000 0.223910 -0.117222 0.967535
539 1 3.080972 -0.711718 11.520957 0 1.000000 1.000000 1.000000 0.258241 -0.059644 0.964238
540 1 3.866942 -0.715094 11.280831 0 1.000000 1.000000 1.000000 0.323807 -0.059642 0.944241
541 1 4.262745 0.000000 11.160011 0 1.000000 1.000000 1.000000 0.356822 0.000000 0.934172
542 1 5.023988 -0.000000 10.838878 0 1.000000 1.000000 1.000000 0.420311 0.000000 0.907380
543 1 5.384197 0.711754 10.641203 0 1.000000 1.000000 1.000000 0.450572 0.059223 0.890774
544 1 6.095040 0.705141 10.251981 0 1.000000 1.000000 1.000000 0.509410 0.059226 0.858483
545 1 6.401992 1.394484 9.992085 0 1.000000 1.000000 1.000000 0.535840 0.115646 0.836362
546 1 7.044000 1.372921 9.554970 0 1.000000 1.000000 1.000000 0.588153 0.115657 0.800437
547 1 7.287927 2.024654 9.252964 0 1.000000 1.000000 1.000000 0.610208 0.167433 0.774346
548 1 7.852051 1.983061 8.790725 0 1.000000 1.000000 1.000000 0.655055 0.167452 0.736792
549 1 0.353523 -3.851511 11.311440 0 1.000000 1.000000 1.000000 0.030774 -0.318484 0.947429
550 1 0.718138 -3.291897 11.468180 0 1.000000 1.000000 1.000000 0.060552 -0.277386 0.958848
551 1 1.452061 -3.346286 11.381456 0 1.000000 1.000000 1.000000 0.122693 -0.277359 0.952900
552 1 1.852182 -2.734018 11.484915 0 1.000000 1.000000 1.000000 0.155112 -0.229798 0.960798
553 1 2.618033 -2.764195 11.326660 0 1.000000 1.000000 1.000000 0.220102 -0.229781 0.948027
554 1 3.038395 -2.105813 11.361899 0 1.000000 1.000000 1.000000 0.254167 -0.176454 0.950927
555 1 3.812990 -2.115525 11.123646 0 1.000000 1.000000 1.000000 0.319741 -0.176449 0.930931
556 1 4.232614 -1.423472 11.081069 0 1.000000 1.000000 1.000000 0.354065 -0.118867 0.927636
557 1 4.988627 -1.420131 10.762573 0 1.000000 1.000000 1.000000 0.417556 -0.118869 0.900842
558 1 5.384197 -0.711754 10.641203 0 1.000000 1.000000 1.000000 0.450572 -0.059223 0.890774
559 1 6.095040 -0.705141 10.251981 0 1.000000 1.000000 1.000000 0.509410 -0.059226 0.858483
560 1 6.445672 -0.000000 10.060435 0 1.000000 1.000000 1.000000 0.539676 0.000000 0.841873
561 1 7.090594 -0.000000 9.618293 0 1.000000 1.000000 1.000000 0.591895 0.000000 0.806015
562 1 7.381969 0.683578 9.372724 0 1.000000 1.000000 1.000000 0.618377 0.056516 0.783847
563 1 7.949219 0.669178 8.899762 0 1.000000 1.000000 1.000000 0.662924 0.056523 0.746550
564 1 8.175374 1.316929 8.619770 0 1.000000 1.000000 1.000000 0.685123 0.108620 0.720284
565 1 8.662413 1.283666 8.137726 0 1.000000 1.000000 1.000000 0.721864 0.108633 0.683456
566 1 0.339567 -4.941182 10.882492 0 1.000000 1.000000 1.000000 0.030970 -0.408879 0.912063
567 1 0.693089 -4.450837 11.074003 0 1.000000 1.000000 1.000000 0.057112 -0.374801 0.925344
568 1 1.400135 -4.519268 10.977930 0 1.000000 1.000000 1.000000 0.119553 -0.374767 0.919379
569 1 1.794491 -3.974331 11.128642 0 1.000000 1.000000 1.000000 0.149145 -0.333904 0.930733
570 1 2.534814 -4.015464 10.967881 0 1.000000 1.000000 1.000000 0.214148 -0.333881 0.917967
571 1 2.958234 -3.417596 11.062440 0 1.000000 1.000000 1.000000 0.246557 -0.286314 0.925869
572 1 3.711486 -3.432528 10.827877 0 1.000000 1.000000 1.000000 0.312038 -0.286305 0.905904
573 1 4.145880 -2.788838 10.853844 0 1.000000 1.000000 1.000000 0.346156 -0.232877 0.908815
574 1 4.886826 -2.782561 10.542894 0 1.000000 1.000000 1.000000 0.409603 -0.232881 0.882039
575 1 5.309950 -2.105907 10.494201 0 1.000000 1.000000 1.000000 0.443955 -0.175240 0.878746
576 1 6.012473 -2.086872 10.112935 0 1.000000 1.000000 1.000000 0.502849 -0.175251 0.846422
577 1 6.401992 -1.394484 9.992085 0 1.000000 1.000000 1.000000 0.535840 -0.115646 0.836362
578 1 7.044000 -1.372921 9.554970 0 1.000000 1.000000 1.000000 0.588153 -0.115657 0.800437
579 1 7.381969 -0.683578 9.372724 0 1.000000 1.000000 1.000000 0.618377 -0.056516 0.783847
580 1 7.949219 -0.669178 8.899762 0 1.000000 1.000000 1.000000 0.662924 -0.056523 0.746550
581 1 8.225094 -0.000000 8.672370 0 1.000000 1.000000 1.000000 0.689412 0.000000 0.724369
582 1 8.712464 -0.000000 8.184869 0 1.000000 1.000000 1.000000 0.725938 0.000000 0.687760
583 1 8.923628 0.635915 7.930217 0 1.000000 1.000000 1.000000 0.748244 0.052342 0.661356
584 1 9.333815 0.617569 7.446995 0 1.000000 1.000000 1.000000 0.777251 0.052348 0.627009
585 1 0.323837 -5.901277 10.396283 0 1.000000 1.000000 1.000000 0.031001 -0.488703 0.871899
586 1 0.663404 -5.481611 10.606247 0 1.000000 1.000000 1.000000 0.053217 -0.461265 0.885665
587 1 1.338814 -5.558751 10.500814 0 1.000000 1.000000 1.000000 0.115671 -0.461227 0.879710
588 1 1.722022 -5.086753 10.680986 0 1.000000 1.000000 1.000000 0.141803 -0.427143 0.892995
589 1 2.430538 -5.135177 10.518091 0 1.000000 1.000000 1.000000 0.206546 -0.427117 0.880290
590 1 2.848973 -4.608825 10.654274 0 1.000000 1.000000 1.000000 0.236303 -0.386006 0.891718
591 1 3.573276 -4.627490 10.425072 0 1.000000 1.000000 1.000000 0.301445 -0.385995 0.871859
592 1 4.012368 -4.049061 10.504116 0 1.000000 1.000000 1.000000 0.334064 -0.338099 0.879824
593 1 4.730088 -4.040525 10.204649 0 1.000000 1.000000 1.000000 0.397289 -0.338104 0.853140
594 1 5.170153 -3.417714 10.217460 0 1.000000 1.000000 1.000000 0.431545 -0.284445 0.856072
595 1 5.856857 -3.388417 9.850876 0 1.000000 1.000000 1.000000 0.490447 -0.284461 0.823738
596 1 6.276054 -2.734230 9.795044 0 1.000000 1.000000 1.000000 0.524802 -0.226809 0.820451
597 1 6.909500 -2.693574 9.372188 0 1.000000 1.000000 1.000000 0.577333 -0.226831 0.784369
598 1 7.287927 -2.024654 9.252964 0 1.000000 1.000000 1.000000 0.610208 -0.167433 0.774346
599 1 7.852051 -1.983061 8.790725 0 1.000000 1.000000 1.000000 0.655055 -0.167452 0.736792
600 1 8.175374 -1.316929 8.619770 0 1.000000 1.000000 1.000000 0.685123 -0.108620 0.720284
601 1 8.662413 -1.283666 8.137726 0 1.000000 1.000000 1.000000 0.721864 -0.108633 0.683456
602 1 8.923628 -0.635915 7.930217 0 1.000000 1.000000 1.000000 0.748244 -0.052342 0.661356
603 1 9.333815 -0.617569 7.446995 0 1.000000 1.000000 1.000000 0.777251 -0.052348 0.627009
604 1 9.532837 0.000000 7.218425 0 1.000000 1.000000 1.000000 0.799559 0.000000 0.600588
605 1 9.872304 0.000000 6.749093 0 1.000000 1.000000 1.000000 0.821739 0.000000 0.569865
606 1 -0.523979 -6.425256 10.072446 0 1.000000 1.000000 1.000000 -0.050161 -0.538863 0.840898
607 1 -1.548678 -6.108182 10.161247 0 1.000000 1.000000 1.000000 -0.134812 -0.511338 0.848740
608 1 -1.073410 -6.555021 9.942843 0 1.000000 1.000000 1.000000 -0.086106 -0.547371 0.832448
609 1 -1.166999 -7.107429 9.543679 0 1.000000 1.000000 1.000000 -0.102459 -0.596039 0.796392
610 1 -2.649027 -5.707188 10.164568 0 1.000000 1.000000 1.000000 -0.225565 -0.476910 0.849516
611 1 -2.150375 -6.208195 9.987897 0 1.000000 1.000000 1.000000 -0.177101 -0.519552 0.835883
612 1 -2.265466 -6.784734 9.577795 0 1.000000 1.000000 1.000000 -0.193441 -0.568207 0.799826
613 1 -1.757358 -7.237128 9.351981 0 1.000000 1.000000 1.000000 -0.144752 -0.604243 0.783541
614 1 -1.855678 -7.784203 8.880902 0 1.000000 1.000000 1.000000 -0.158426 -0.652682 0.740883
615 1 -3.798620 -5.217449 10.060457 0 1.000000 1.000000 1.000000 -0.320296 -0.435348 0.841358
616 1 -3.292807 -5.770797 9.936136 0 1.000000 1.000000 1.000000 -0.273726 -0.483981 0.831166
617 1 -3.432237 -6.364948 9.515820 0 1.000000 1.000000 1.000000 -0.289976 -0.532402 0.795275
618 1 -2.903548 -6.877879 9.334151 0 1.000000 1.000000 1.000000 -0.241321 -0.575225 0.781589
619 1 -3.018662 -7.447701 8.846642 0 1.000000 1.000000 1.000000 -0.255043 -0.623858 0.738752
620 1 -2.478900 -7.901632 8.619207 0 1.000000 1.000000 1.000000 -0.206595 -0.659732 0.722546
621 1 -2.573021 -8.426110 8.077395 0 1.000000 1.000000 1.000000 -0.216805 -0.706291 0.673906
622 1 -4.959870 -4.642099 9.832855 0 1.000000 1.000000 1.000000 -0.415996 -0.387080 0.822871
623 1 -4.467494 -5.240595 9.767707 0 1.000000 1.000000 1.000000 -0.373095 -0.440282 0.816671
624 1 -4.632389 -5.843484 9.337824 0 1.000000 1.000000 1.000000 -0.389231 -0.488399 0.781003
625 1 -4.102946 -6.414490 9.210258 0 1.000000 1.000000 1.000000 -0.342421 -0.537290 0.770758
626 1 -4.236066 -7.000261 8.708627 0 1.000000 1.000000 1.000000 -0.356132 -0.585913 0.727926
627 1 -3.680472 -7.520542 8.526680 0 1.000000 1.000000 1.000000 -0.307492 -0.628735 0.714242
628 1 -3.783877 -8.064917 7.964903 0 1.000000 1.000000 1.000000 -0.317751 -0.675536 0.665346
629 1 -3.216189 -8.516555 7.743053 0 1.000000 1.000000 1.000000 -0.269616 -0.711194 0.649239
630 1 -3.295149 -9.000394 7.139281 0 1.000000 1.000000 1.000000 -0.275807 -0.754100 0.596040
631 1 -6.088176 -3.994019 9.476593 0 1.000000 1.000000 1.000000 -0.509098 -0.333291 0.793559
632 1 -5.631253 -4.624891 9.471384 0 1.000000 1.000000 1.000000 -0.471446 -0.388906 0.791512
633 1 -5.820179 -5.226109 9.032698 0 1.000000 1.000000 1.000000 -0.487500 -0.436819 0.755998
634 1 -5.313690 -5.846206 8.964287 0 1.000000 1.000000 1.000000 -0.444447 -0.490205 0.749777
635 1 -5.464408 -6.438991 8.451597 0 1.000000 1.000000 1.000000 -0.458125 -0.538743 0.707020
636 1 -4.916227 -7.022040 8.323504 0 1.000000 1.000000 1.000000 -0.411251 -0.587705 0.696760
637 1 -5.028607 -7.579932 7.746457 0 1.000000 1.000000 1.000000 -0.421521 -0.634573 0.647794
638 1 -4.451851 -8.102528 7.569803 0 1.000000 1.000000 1.000000 -0.372974 -0.677324 0.634131
639 1 -4.530420 -8.602739 6.945826 0 1.000000 1.000000 1.000000 -0.379189 -0.720381 0.580747
640 1 -3.941406 -9.048967 6.737154 0 1.000000 1.000000 1.000000 -0.331270 -0.755891 0.564703
641 1 -3.994019 -9.476593 6.088176 0 1.000000 1.000000 1.000000 -0.333291 -0.793559 0.509098
642 1 -7.139281 -3.295149 9.000394 0 1.000000 1.000000 1.000000 -0.596040 -0.275807 0.754100
643 1 -6.737154 -3.941406 9.048967 0 1.000000 1.000000 1.000000 -0.564703 -0.331270 0.755891
644 1 -6.945826 -4.530420 8.602739 0 1.000000 1.000000 1.000000 -0.580747 -0.379189 0.720381
645 1 -6.485773 -5.184251 8.591680 0 1.000000 1.000000 1.000000 -0.543095 -0.434791 0.718335
646 1 -6.651636 -5.773947 8.071768 0 1.000000 1.000000 1.000000 -0.556751 -0.483286 0.675620
647 1 -6.136759 -6.408589 8.000097 0 1.000000 1.000000 1.000000 -0.513666 -0.536709 0.669396
648 1 -6.256843 -6.971937 7.413889 0 1.000000 1.000000 1.000000 -0.523931 -0.583573 0.620434
649 1 -5.696871 -7.560231 7.288343 0 1.000000 1.000000 1.000000 -0.477065 -0.632533 0.610173
650 1 -5.773947 -8.071768 6.651636 0 1.000000 1.000000 1.000000 -0.483286 -0.675620 0.556751
651 1 -5.184251 -8.591680 6.485773 0 1.000000 1.000000 1.000000 -0.434791 -0.718335 0.543095
652 1 -5.226109 -9.032698 5.820179 0 1.000000 1.000000 1.000000 -0.436819 -0.755998 0.487500
653 1 -4.624891 -9.471384 5.631253 0 1.000000 1.000000 1.000000 -0.388906 -0.791512 0.471446
654 1 -4.642099 -9.832855 4.959870 0 1.000000 1.000000 1.000000 -0.387080 -0.822871 0.415996
655 1 -8.077395 -2.573021 8.426110 0 1.000000 1.000000 1.000000 -0.673906 -0.216805 0.706291
656 1 -7.743053 -3.216189 8.516555 0 1.000000 1.000000 1.000000 -0.649239 -0.269616 0.711194
657 1 -7.964903 -3.783877 8.064917 0 1.000000 1.000000 1.000000 -0.665346 -0.317751 0.675536
658 1 -7.569803 -4.451851 8.102528 0 1.000000 1.000000 1.000000 -0.634131 -0.372974 0.677324
659 1 -7.746457 -5.028607 7.579932 0 1.000000 1.000000 1.000000 -0.647794 -0.421521 0.634573
660 1 -7.288343 -5.696871 7.560231 0 1.000000 1.000000 1.000000 -0.610173 -0.477065 0.632533
661 1 -7.413889 -6.256843 6.971937 0 1.000000 1.000000 1.000000 -0.620434 -0.523931 0.583573
662 1 -6.897266 -6.897266 6.897266 0 1.000000 1.000000 1.000000 -0.577350 -0.577350 0.577350
663 1 -6.971937 -7.413889 6.256843 0 1.000000 1.000000 1.000000 -0.583573 -0.620434 0.523931
664 1 -6.408589 -8.000097 6.136759 0 1.000000 1.000000 1.000000 -0.536709 -0.669396 0.513666
665 1 -6.438991 -8.451597 5.464408 0 1.000000 1.000000 1.000000 -0.538743 -0.707020 0.458125
666 1 -5.846206 -8.964287 5.313690 0 1.000000 1.000000 1.000000 -0.490205 -0.749777 0.444447
667 1 -5.843484 -9.337824 4.632389 0 1.000000 1.000000 1.000000 -0.488399 -0.781003 0.389231
668 1 -5.240595 -9.767707 4.467494 0 1.000000 1.000000 1.000000 -0.440282 -0.816671 0.373095
669 1 -5.217449 -10.060457 3.798620 0 1.000000 1.000000 1.000000 -0.435348 -0.841358 0.320296
670 1 -8.880902 -1.855678 7.784203 0 1.000000 1.000000 1.000000 -0.740883 -0.158426 0.652682
671 1 -8.619207 -2.478900 7.901632 0 1.000000 1.000000 1.000000 -0.722546 -0.206595 0.659732
672 1 -8.846642 -3.018662 7.447701 0 1.000000 1.000000 1.000000 -0.738752 -0.255043 0.623858
673 1 -8.526680 -3.680472 7.520542 0 1.000000 1.000000 1.000000 -0.714242 -0.307492 0.628735
674 1 -8.708627 -4.236066 7.000261 0 1.000000 1.000000 1.000000 -0.727926 -0.356132 0.585913
675 1 -8.323504 -4.916227 7.022040 0 1.000000 1.000000 1.000000 -0.696760 -0.411251 0.587705
676 1 -8.451597 -5.464408 6.438991 0 1.000000 1.000000 1.000000 -0.707020 -0.458125 0.538743
677 1 -8.000097 -6.136759 6.408589 0 1.000000 1.000000 1.000000 -0.669396 -0.513666 0.536709
678 1 -8.071768 -6.651636 5.773947 0 1.000000 1.000000 1.000000 -0.675620 -0.556751 0.483286
679 1 -7.560231 -7.288343 5.696871 0 1.000000 1.000000 1.000000 -0.632533 -0.610173 0.477065
680 1 -7.579932 -7.746457 5.028607 0 1.000000 1.000000 1.000000 -0.634573 -0.647794 0.421521
681 1 -7.022040 -8.323504 4.916227 0 1.000000 1.000000 1.000000 -0.587705 -0.696760 0.411251
682 1 -7.000261 -8.708627 4.236066 0 1.000000 1.000000 1.000000 -0.585913 -0.727926 0.356132
683 1 -6.414490 -9.210258 4.102946 0 1.000000 1.000000 1.000000 -0.537290 -0.770758 0.342421
684 1 -6.364948 -9.515820 3.432237 0 1.000000 1.000000 1.000000 -0.532402 -0.795275 0.289976
685 1 -5.770797 -9.936136 3.292807 0 1.000000 1.000000 1.000000 -0.483981 -0.831166 0.273726
686 1 -5.707188 -10.164568 2.649027 0 1.000000 1.000000 1.000000 -0.476910 -0.849516 0.225565
687 1 -9.543679 -1.166999 7.107429 0 1.000000 1.000000 1.000000 -0.796392 -0.102459 0.596039
688 1 -9.351981 -1.757358 7.237128 0 1.000000 1.000000 1.000000 -0.783541 -0.144752 0.604243
689 1 -9.577795 -2.265466 6.784734 0 1.000000 1.000000 1.000000 -0.799826 -0.193441 0.568207
690 1 -9.334151 -2.903548 6.877879 0 1.000000 1.000000 1.000000 -0.781589 -0.241321 0.575225
691 1 -9.515820 -3.432237 6.364948 0 1.000000 1.000000 1.000000 -0.795275 -0.289976 0.532402
692 1 -9.210258 -4.102946 6.414490 0 1.000000 1.000000 1.000000 -0.770758 -0.342421 0.537290
693 1 -9.337824 -4.632389 5.843484 0 1.000000 1.000000 1.000000 -0.781003 -0.389231 0.488399
694 1 -8.964287 -5.313690 5.846206 0 1.000000 1.000000 1.000000 -0.749777 -0.444447 0.490205
695 1 -9.032698 -5.820179 5.226109 0 1.000000 1.000000 1.000000 -0.755998 -0.487500 0.436819
696 1 -8.591680 -6.485773 5.184251 0 1.000000 1.000000 1.000000 -0.718335 -0.543095 0.434791
697 1 -8.602739 -6.945826 4.530420 0 1.000000 1.000000 1.000000 -0.720381 -0.580747 0.379189
698 1 -8.102528 -7.569803 4.451851 0 1.000000 1.000000 1.000000 -0.677324 -0.634131 0.372974
699 1 -8.064917 -7.964903 3.783877 0 1.000000 1.000000 1.000000 -0.675536 -0.665346 0.317751
700 1 -7.520542 -8.526680 3.680472 0 1.000000 1.000000 1.000000 -0.628735 -0.714242 0.307492
701 1 -7.447701 -8.846642 3.018662 0 1.000000 1.000000 1.000000 -0.623858 -0.738752 0.255043
702 1 -6.877879 -9.334151 2.903548 0 1.000000 1.000000 1.000000 -0.575225 -0.781589 0.241321
703 1 -6.784734 -9.577795 2.265466 0 1.000000 1.000000 1.000000 -0.568207 -0.799826 0.193441
704 1 -6.208195 -9.987897 2.150375 0 1.000000 1.000000 1.000000 -0.519552 -0.835883 0.177101
705 1 -6.108182 -10.161247 1.548678 0 1.000000 1.000000 1.000000 -0.511338 -0.848740 0.134812
706 1 -10.072446 -0.523979 6.425256 0 1.000000 1.000000 1.000000 -0.840898 -0.050161 0.538863
707 1 -9.942843 -1.073410 6.555021 0 1.000000 1.000000 1.000000 -0.832448 -0.086106 0.547371
708 1 -10.161247 -1.548678 6.108182 0 1.000000 1.000000 1.000000 -0.848740 -0.134812 0.511338
709 1 -9.987897 -2.150375 6.208195 0 1.000000 1.000000 1.000000 -0.835883 -0.177101 0.519552
710 1 -10.164568 -2.649027 5.707188 0 1.000000 1.000000 1.000000 -0.849516 -0.225565 0.476910
711 1 -9.936136 -3.292807 5.770797 0 1.000000 1.000000 1.000000 -0.831166 -0.273726 0.483981
712 1 -10.060457 -3.798620 5.217449 0 1.000000 1.000000 1.000000 -0.841358 -0.320296 0.435348
713 1 -9.767707 -4.467494 5.240595 0 1.000000 1.000000 1.000000 -0.816671 -0.373095 0.440282
714 1 -9.832855 -4.959870 4.642099 0 1.000000 1.000000 1.000000 -0.822871 -0.415996 0.387080
715 1 -9.471384 -5.631253 4.624891 0 1.000000 1.000000 1.000000 -0.791512 -0.471446 0.388906
716 1 -9.476593 -6.088176 3.994019 0 1.000000 1.000000 1.000000 -0.793559 -0.509098 0.333291
717 1 -9.048967 -6.737154 3.941406 0 1.000000 1.000000 1.000000 -0.755891 -0.564703 0.331270
718 1 -9.000394 -7.139281 3.295149 0 1.000000 1.000000 1.000000 -0.754100 -0.596040 0.275807
719 1 -8.516555 -7.743053 3.216189 0 1.000000 1.000000 1.000000 -0.711194 -0.649239 0.269616
720 1 -8.426110 -8.077395 2.573021 0 1.000000 1.000000 1.000000 -0.706291 -0.673906 0.216805
721 1 -7.901632 -8.619207 2.478900 0 1.000000 1.000000 1.000000 -0.659732 -0.722546 0.206595
722 1 -7.784203 -8.880902 1.855678 0 1.000000 1.000000 1.000000 -0.652682 -0.740883 0.158426
723 1 -7.237128 -9.351981 1.757358 0 1.000000 1.000000 1.000000 -0.604243 -0.783541 0.144752
724 1 -7.107429 -9.543679 1.166999 0 1.000000 1.000000 1.000000 -0.596039 -0.796392 0.102459
725 1 -6.555021 -9.942843 1.073410 0 1.000000 1.000000 1.000000 -0.547371 -0.832448 0.086106
726 1 -6.425256 -10.072446 0.523979 0 1.000000 1.000000 1.000000 -0.538863 -0.840898 0.050161
727 1 -10.396283 0.323837 5.901277 0 1.000000 1.000000 1.000000 -0.871899 0.031001 0.488703
728 1 -10.500814 1.338814 5.558751 0 1.000000 1.000000 1.000000 -0.879710 0.115671 0.461227
729 1 -10.606247 0.663404 5.481611 0 1.000000 1.000000 1.000000 -0.885665 0.053217 0.461265
730 1 -10.882492 0.339567 4.941182 0 1.000000 1.000000 1.000000 -0.912063 0.030970 0.408879
731 1 -10.518091 2.430538 5.135177 0 1.000000 1.000000 1.000000 -0.880290 0.206546 0.427117
732 1 -10.680986 1.722022 5.086753 0 1.000000 1.000000 1.000000 -0.892995 0.141803 0.427143
733 1 -10.977930 1.400135 4.519268 0 1.000000 1.000000 1.000000 -0.919379 0.119553 0.374767
734 1 -11.074003 0.693089 4.450837 0 1.000000 1.000000 1.000000 -0.925344 0.057112 0.374801
735 1 -11.311440 0.353523 3.851511 0 1.000000 1.000000 1.000000 -0.947429 0.030774 0.318484
736 1 -10.425072 3.573276 4.627490 0 1.000000 1.000000 1.000000 -0.871859 0.301445 0.385995
737 1 -10.654274 2.848973 4.608825 0 1.000000 1.000000 1.000000 -0.891718 0.236303 0.386006
738 1 -10.967881 2.534814 4.015464 0 1.000000 1.000000 1.000000 -0.917967 0.214148 0.333881
739 1 -11.128642 1.794491 3.974331 0 1.000000 1.000000 1.000000 -0.930733 0.149145 0.333904
740 1 -11.381456 1.452061 3.346286 0 1.000000 1.000000 1.000000 -0.952900 0.122693 0.277359
741 1 -11.468180 0.718138 3.291897 0 1.000000 1.000000 1.000000 -0.958848 0.060552 0.277386
742 1 -11.650671 0.364615 2.644429 0 1.000000 1.000000 1.000000 -0.975350 0.030501 0.218543
743 1 -10.204649 4.730088 4.040525 0 1.000000 1.000000 1.000000 -0.853140 0.397289 0.338104
744 1 -10.504116 4.012368 4.049061 0 1.000000 1.000000 1.000000 -0.879824 0.334064 0.338099
745 1 -10.827877 3.711486 3.432528 0 1.000000 1.000000 1.000000 -0.905904 0.312038 0.286305
746 1 -11.062440 2.958234 3.417596 0 1.000000 1.000000 1.000000 -0.925869 0.246557 0.286314
747 1 -11.326660 2.618033 2.764195 0 1.000000 1.000000 1.000000 -0.948027 0.220102 0.229781
748 1 -11.484915 1.852182 2.734018 0 1.000000 1.000000 1.000000 -0.960798 0.155112 0.229798
749 1 -11.676389 1.490053 2.059607 0 1.000000 1.000000 1.000000 -0.977384 0.124901 0.170648
750 1 -11.755421 0.736409 2.024407 0 1.000000 1.000000 1.000000 -0.983303 0.063153 0.170666
751 1 -11.869369 0.371794 1.346950 0 1.000000 1.000000 1.000000 -0.993329 0.030269 0.111273
752 1 -9.850876 5.856857 3.388417 0 1.000000 1.000000 1.000000 -0.823738 0.490447 0.284461
753 1 -10.217460 5.170153 3.417714 0 1.000000 1.000000 1.000000 -0.856072 0.431545 0.284445
754 1 -10.542894 4.886826 2.782561 0 1.000000 1.000000 1.000000 -0.882039 0.409603 0.232881
755 1 -10.853844 4.145880 2.788838 0 1.000000 1.000000 1.000000 -0.908815 0.346156 0.232877
756 1 -11.123646 3.812990 2.115525 0 1.000000 1.000000 1.000000 -0.930931 0.319741 0.176449
757 1 -11.361899 3.038395 2.105813 0 1.000000 1.000000 1.000000 -0.950927 0.254167 0.176454
758 1 -11.559447 2.672049 1.410384 0 1.000000 1.000000 1.000000 -0.967535 0.223910 0.117222
759 1 -11.715682 1.889557 1.394354 0 1.000000 1.000000 1.000000 -0.980288 0.159038 0.117231
760 1 -11.832652 1.510196 0.695688 0 1.000000 1.000000 1.000000 -0.990350 0.126041 0.057630
761 1 -11.907307 0.746076 0.683484 0 1.000000 1.000000 1.000000 -0.996248 0.064561 0.057636
762 1 -11.945033 0.374282 0.000000 0 1.000000 1.000000 1.000000 -0.999545 0.030178 0.000000
763 1 -9.372188 6.909500 2.693574 0 1.000000 1.000000 1.000000 -0.784369 0.577333 0.226831
764 1 -9.795044 6.276054 2.734230 0 1.000000 1.000000 1.000000 -0.820451 0.524802 0.226809
765 1 -10.112935 6.012473 2.086872 0 1.000000 1.000000 1.000000 -0.846422 0.502849 0.175251
766 1 -10.494201 5.309950 2.105907 0 1.000000 1.000000 1.000000 -0.878746 0.443955 0.175240
767 1 -10.762573 4.988627 1.420131 0 1.000000 1.000000 1.000000 -0.900842 0.417556 0.118869
768 1 -11.081069 4.232614 1.423472 0 1.000000 1.000000 1.000000 -0.927636 0.354065 0.118867
769 1 -11.280831 3.866942 0.715094 0 1.000000 1.000000 1.000000 -0.944241 0.323807 0.059642
770 1 -11.520957 3.080972 0.711718 0 1.000000 1.000000 1.000000 -0.964238 0.258241 0.059644
771 1 -11.640263 2.690806 0.000000 0 1.000000 1.000000 1.000000 -0.974307 0.225222 -0.000000
772 1 -11.795723 1.902521 0.000000 0 1.000000 1.000000 1.000000 -0.987050 0.160411 -0.000000
773 1 -11.832652 1.510196 -0.695688 0 1.000000 1.000000 1.000000 -0.990350 0.126041 -0.057630
774 1 -11.907307 0.746076 -0.683484 0 1.000000 1.000000 1.000000 -0.996248 0.064561 -0.057636
775 1 -11.869369 0.371794 -1.346950 0 1.000000 1.000000 1.000000 -0.993329 0.030269 -0.111273
776 1 -8.790725 7.852051 1.983061 0 1.000000 1.000000 1.000000 -0.736792 0.655055 0.167452
777 1 -9.252964 7.287927 2.024654 0 1.000000 1.000000 1.000000 -0.774346 0.610208 0.167433
778 1 -9.554970 7.044000 1.372921 0 1.000000 1.000000 1.000000 -0.800437 0.588153 0.115657
779 1 -9.992085 6.401992 1.394484 0 1.000000 1.000000 1.000000 -0.836362 0.535840 0.115646
780 1 -10.251981 6.095040 0.705141 0 1.000000 1.000000 1.000000 -0.858483 0.509410 0.059226
781 1 -10.641203 5.384197 0.711754 0 1.000000 1.000000 1.000000 -0.890774 0.450572 0.059223
782 1 -10.838878 5.023988 -0.000000 0 1.000000 1.000000 1.000000 -0.907380 0.420311 -0.000000
783 1 -11.160011 4.262745 0.000000 0 1.000000 1.000000 1.000000 -0.934172 0.356822 -0.000000
784 1 -11.280831 3.866942 -0.715094 0 1.000000 1.000000 1.000000 -0.944241 0.323807 -0.059642
785 1 -11.520957 3.080972 -0.711718 0 1.000000 1.000000 1.000000 -0.964238 0.258241 -0.059644
786 1 -11.559447 2.672049 -1.410384 0 1.000000 1.000000 1.000000 -0.967535 0.223910 -0.117222
787 1 -11.715682 1.889557 -1.394354 0 1.000000 1.000000 1.000000 -0.980288 0.159038 -0.117231
788 1 -11.676389 1.490053 -2.059607 0 1.000000 1.000000 1.000000 -0.977384 0.124901 -0.170648
789 1 -11.755421 0.736409 -2.024407 0 1.000000 1.000000 1.000000 -0.983303 0.063153 -0.170666
790 1 -11.650671 0.364615 -2.644429 0 1.000000 1.000000 1.000000 -0.975350 0.030501 -0.218543
791 1 -8.137726 8.662413 1.283666 0 1.000000 1.000000 1.000000 -0.683456 0.721864 0.108633
792 1 -8.619770 8.175374 1.316929 0 1.000000 1.000000 1.000000 -0.720284 0.685123 0.108620
793 1 -8.899762 7.949219 0.669178 0 1.000000 1.000000 1.000000 -0.746550 0.662924 0.056523
794 1 -9.372724 7.381969 0.683578 0 1.000000 1.000000 1.000000 -0.783847 0.618377 0.056516
795 1 -9.618293 7.090594 -0.000000 0 1.000000 1.000000 1.000000 -0.806015 0.591895 0.000000
796 1 -10.060435 6.445672 -0.000000 0 1.000000 1.000000 1.000000 -0.841873 0.539676 0.000000
797 1 -10.251981 6.095040 -0.705141 0 1.000000 1.000000 1.000000 -0.858483 0.509410 -0.059226
798 1 -10.641203 5.384197 -0.711754 0 1.000000 1.000000 1.000000 -0.890774 0.450572 -0.059223
799 1 -10.762573 4.988627 -1.420131 0 1.000000 1.000000 1.000000 -0.900842 0.417556 -0.118869
800 1 -11.081069 4.232614 -1.423472 0 1.000000 1.000000 1.000000 -0.927636 0.354065 -0.118867
801 1 -11.123646 3.812990 -2.115525 0 1.000000 1.000000 1.000000 -0.930931 0.319741 -0.176449
802 1 -11.361899 3.038395 -2.105813 0 1.000000 1.000000 1.000000 -0.950927 0.254167 -0.176454
803 1 -11.326660 2.618033 -2.764195 0 1.000000 1.000000 1.000000 -0.948027 0.220102 -0.229781
804 1 -11.484915 1.852182 -2.734018 0 1.000000 1.000000 1.000000 -0.960798 0.155112 -0.229798
805 1 -11.381456 1.452061 -3.346286 0 1.000000 1.000000 1.000000 -0.952900 0.122693 -0.277359
806 1 -11.468180 0.718138 -3.291897 0 1.000000 1.000000 1.000000 -0.958848 0.060552 -0.277386
807 1 -11.311440 0.353523 -3.851511 0 1.000000 1.000000 1.000000 -0.947429 0.030774 -0.318484
808 1 -7.446995 9.333815 0.617569 0 1.000000 1.000000 1.000000 -0.627009 0.777251 0.052348
809 1 -7.930217 8.923628 0.635915 0 1.000000 1.000000 1.000000 -0.661356 0.748244 0.052342
810 1 -8.184869 8.712464 -0.000000 0 1.000000 1.000000 1.000000 -0.687760 0.725938 0.000000
811 1 -8.672370 8.225094 -0.000000 0 1.000000 1.000000 1.000000 -0.724369 0.689412 0.000000
812 1 -8.899762 7.949219 -0.669178 0 1.000000 1.000000 1.000000 -0.746550 0.662924 -0.056523
813 1 -9.372724 7.381969 -0.683578 0 1.000000 1.000000 1.000000 -0.783847 0.618377 -0.056516
814 1 -9.554970 7.044000 -1.372921 0 1.000000 1.000000 1.000000 -0.800437 0.588153 -0.115657
815 1 -9.992085 6.401992 -1.394484 0 1.000000 1.000000 1.000000 -0.836362 0.535840 -0.115646
816 1 -10.112935 6.012473 -2.086872 0 1.000000 1.000000 1.000000 -0.846422 0.502849 -0.175251
817 1 -10.494201 5.309950 -2.105907 0 1.000000 1.000000 1.000000 -0.878746 0.443955 -0.175240
818 1 -10.542894 4.886826 -2.782561 0 1.000000 1.000000 1.000000 -0.882039 0.409603 -0.232881
819 1 -10.853844 4.145880 -2.788838 0 1.000000 1.000000 1.000000 -0.908815 0.346156 -0.232877
820 1 -10.827877 3.711486 -3.432528 0 1.000000 1.000000 1.000000 -0.905904 0.312038 -0.286305
821 1 -11.062440 2.958234 -3.417596 0 1.000000 1.000000 1.000000 -0.925869 0.246557 -0.286314
822 1 -10.967881 2.534814 -4.015464 0 1.000000 1.000000 1.000000 -0.917967 0.214148 -0.333881
823 1 -11.128642 1.794491 -3.974331 0 1.000000 1.000000 1.000000 -0.930733 0.149145 -0.333904
824 1 -10.977930 1.400135 -4.519268 0 1.000000 1.000000 1.000000 -0.919379 0.119553 -0.374767
825 1 -11.074003 0.693089 -4.450837 0 1.000000 1.000000 1.000000 -0.925344 0.057112 -0.374801
826 1 -10.882492 0.339567 -4.941182 0 1.000000 1.000000 1.000000 -0.912063 0.030970 -0.408879
827 1 -6.749093 9.872304 0.000000 0 1.000000 1.000000 1.000000 -0.569865 0.821739 0.000000
828 1 -7.218425 9.532837 0.000000 0 1.000000 1.000000 1.000000 -0.600588 0.799559 0.000000
829 1 -7.446995 9.333815 -0.617569 0 1.000000 1.000000 1.000000 -0.627009 0.777251 -0.052348
830 1 -7.930217 8.923628 -0.635915 0 1.000000 1.000000 1.000000 -0.661356 0.748244 -0.052342
831 1 -8.137726 8.662413 -1.283666 0 1.000000 1.000000 1.000000 -0.683456 0.721864 -0.108633
832 1 -8.619770 8.175374 -1.316929 0 1.000000 1.000000 1.000000 -0.720284 0.685123 -0.108620
833 1 -8.790725 7.852051 -1.983061 0 1.000000 1.000000 1.000000 -0.736792 0.655055 -0.167452
834 1 -9.252964 7.287927 -2.024654 0 1.000000 1.000000 1.000000 -0.774346 0.610208 -0.167433
835 1 -9.372188 6.909500 -2.693574 0 1.000000 1.000000 1.000000 -0.784369 0.577333 -0.226831
836 1 -9.795044 6.276054 -2.734230 0 1.000000 1.000000 1.000000 -0.820451 0.524802 -0.226809
837 1 -9.850876 5.856857 -3.388417 0 1.000000 1.000000 1.000000 -0.823738 0.490447 -0.284461
838 1 -10.217460 5.170153 -3.417714 0 1.000000 1.000000 1.000000 -0.856072 0.431545 -0.284445
839 1 -10.204649 4.730088 -4.040525 0 1.000000 1.000000 1.000000 -0.853140 0.397289 -0.338104
840 1 -10.504116 4.012368 -4.049061 0 1.000000 1.000000 1.000000 -0.879824 0.334064 -0.338099
841 1 -10.425072 3.573276 -4.627490 0 1.000000 1.000000 1.000000 -0.871859 0.301445 -0.385995
842 1 -10.654274 2.848973 -4.608825 0 1.000000 1.000000 1.000000 -0.891718 0.236303 -0.386006
843 1 -10.518091 2.430538 -5.135177 0 1.000000 1.000000 1.000000 -0.880290 0.206546 -0.427117
844 1 -10.680986 1.722022 -5.086753 0 1.000000 1.000000 1.000000 -0.892995 0.141803 -0.427143
845 1 -10.500814 1.338814 -5.558751 0 1.000000 1.000000 1.000000 -0.879710 0.115671 -0.461227
846 1 -10.606247 0.663404 -5.481611 0 1.000000 1.000000 1.000000 -0.885665 0.053217 -0.461265
847 1 -10.396283 0.323837 -5.901277 0 1.000000 1.000000 1.000000 -0.871899 0.031001 -0.488703
848 1 -5.901277 10.396283 -0.323837 0 1.000000 1.000000 1.000000 -0.488703 0.871899 -0.031001
849 1 -4.941182 10.882492 -0.339567 0 1.000000 1.000000 1.000000 -0.408879 0.912063 -0.030970
850 1 -5.481611 10.606247 -0.663404 0 1.000000 1.000000 1.000000 -0.461265 0.885665 -0.053217
851 1 -5.558751 10.500814 -1.338814 0 1.000000 1.000000 1.000000 -0.461227 0.879710 -0.115671
852 1 -3.851511 11.311440 -0.353523 0 1.000000 1.000000 1.000000 -0.318484 0.947429 -0.030774
853 1 -4.450837 11.074003 -0.693089 0 1.000000 1.000000 1.000000 -0.374801 0.925344 -0.057112
854 1 -4.519268 10.977930 -1.400135 0 1.000000 1.000000 1.000000 -0.374767 0.919379 -0.119553
855 1 -5.086753 10.680986 -1.722022 0 1.000000 1.000000 1.000000 -0.427143 0.892995 -0.141803
856 1 -5.135177 10.518091 -2.430538 0 1.000000 1.000000 1.000000 -0.427117 0.880290 -0.206546
857 1 -2.644429 11.650671 -0.364615 0 1.000000 1.000000 1.000000 -0.218543 0.975350 -0.030501
858 1 -3.291897 11.468180 -0.718138 0 1.000000 1.000000 1.000000 -0.277386 0.958848 -0.060552
859 1 -3.346286 11.381456 -1.452061 0 1.000000 1.000000 1.000000 -0.277359 0.952900 -0.122693
860 1 -3.974331 11.128642 -1.794491 0 1.000000 1.000000 1.000000 -0.333904 0.930733 -0.149145
861 1 -4.015464 10.967881 -2.534814 0 1.000000 1.000000 1.000000 -0.333881 0.917967 -0.214148
862 1 -4.608825 10.654274 -2.848973 0 1.000000 1.000000 1.000000 -0.386006 0.891718 -0.236303
863 1 -4.627490 10.425072 -3.573276 0 1.000000 1.000000 1.000000 -0.385995 0.871859 -0.301445
864 1 -1.346950 11.869369 -0.371794 0 1.000000 1.000000 1.000000 -0.111273 0.993329 -0.030269
865 1 -2.024407 11.755421 -0.736409 0 1.000000 1.000000 1.000000 -0.170666 0.983303 -0.063153
866 1 -2.059607 11.676389 -1.490053 0 1.000000 1.000000 1.000000 -0.170648 0.977384 -0.124901
867 1 -2.734018 11.484915 -1.852182 0 1.000000 1.000000 1.000000 -0.229798 0.960798 -0.155112
868 1 -2.764195 11.326660 -2.618033 0 1.000000 1.000000 1.000000 -0.229781 0.948027 -0.220102
869 1 -3.417596 11.062440 -2.958234 0 1.000000 1.000000 1.000000 -0.286314 0.925869 -0.246557
870 1 -3.432528 10.827877 -3.711486 0 1.000000 1.000000 1.000000 -0.286305 0.905904 -0.312038
871 1 -4.049061 10.504116 -4.012368 0 1.000000 1.000000 1.000000 -0.338099 0.879824 -0.334064
872 1 -4.040525 10.204649 -4.730088 0 1.000000 1.000000 1.000000 -0.338104 0.853140 -0.397289
873 1 -0.000000 11.945033 -0.374282 0 1.000000 1.000000 1.000000 0.000000 0.999545 -0.030178
874 1 -0.683484 11.907307 -0.746076 0 1.000000 1.000000 1.000000 -0.057636 0.996248 -0.064561
875 1 -0.695688 11.832652 -1.510196 0 1.000000 1.000000 1.000000 -0.057630 0.990350 -0.126041
876 1 -1.394354 11.715682 -1.889557 0 1.000000 1.000000 1.000000 -0.117231 0.980288 -0.159038
877 1 -1.410384 11.559447 -2.672049 0 1.000000 1.000000 1.000000 -0.117222 0.967535 -0.223910
878 1 -2.105813 11.361899 -3.038395 0 1.000000 1.000000 1.000000 -0.176454 0.950927 -0.254167
879 1 -2.115525 11.123646 -3.812990 0 1.000000 1.000000 1.000000 -0.176449 0.930931 -0.319741
880 1 -2.788838 10.853844 -4.145880 0 1.000000 1.000000 1.000000 -0.232877 0.908815 -0.346156
881 1 -2.782561 10.542894 -4.886826 0 1.000000 1.000000 1.000000 -0.232881 0.882039 -0.409603
882 1 -3.417714 10.217460 -5.170153 0 1.000000 1.000000 1.000000 -0.284445 0.856072 -0.431545
883 1 -3.388417 9.850876 -5.856857 0 1.000000 1.000000 1.000000 -0.284461 0.823738 -0.490447
884 1 1.346950 11.869369 -0.371794 0 1.000000 1.000000 1.000000 0.111273 0.993329 -0.030269
885 1 0.683484 11.907307 -0.746076 0 1.000000 1.000000 1.000000 0.057636 0.996248 -0.064561
886 1 0.695688 11.832652 -1.510196 0 1.000000 1.000000 1.000000 0.057630 0.990350 -0.126041
887 1 -0.000000 11.795723 -1.902521 0 1.000000 1.000000 1.000000 0.000000 0.987050 -0.160411
888 1 -0.000000 11.640263 -2.690806 0 1.000000 1.000000 1.000000 0.000000 0.974307 -0.225222
889 1 -0.711718 11.520957 -3.080972 0 1.000000 1.000000 1.000000 -0.059644 0.964238 -0.258241
890 1 -0.715094 11.280831 -3.866942 0 1.000000 1.000000 1.000000 -0.059642 0.944241 -0.323807
891 1 -1.423472 11.081069 -4.232614 0 1.000000 1.000000 1.000000 -0.118867 0.927636 -0.354065
892 1 -1.420131 10.762573 -4.988627 0 1.000000 1.000000 1.000000 -0.118869 0.900842 -0.417556
893 1 -2.105907 10.494201 -5.309950 0 1.000000 1.000000 1.000000 -0.175240 0.878746 -0.443955
894 1 -2.086872 10.112935 -6.012473 0 1.000000 1.000000 1.000000 -0.175251 0.846422 -0.502849
895 1 -2.734230 9.795044 -6.276054 0 1.000000 1.000000 1.000000 -0.226809 0.820451 -0.524802
896 1 -2.693574 9.372188 -6.909500 0 1.000000 1.000000 1.000000 -0.226831 0.784369 -0.577333
897 1 2.644429 11.650671 -0.364615 0 1.000000 1.000000 1.000000 0.218543 0.975350 -0.030501
898 1 2.024407 11.755421 -0.736409 0 1.000000 1.000000 1.000000 0.170666 0.983303 -0.063153
899 1 2.059607 11.676389 -1.490053 0 1.000000 1.000000 1.000000 0.170648 0.977384 -0.124901
900 1 1.394354 11.715682 -1.889557 0 1.000000 1.000000 1.000000 0.117231 0.980288 -0.159038
901 1 1.410384 11.559447 -2.672049 0 1.000000 1.000000 1.000000 0.117222 0.967535 -0.223910
902 1 0.711718 11.520957 -3.080972 0 1.000000 1.000000 1.000000 0.059644 0.964238 -0.258241
903 1 0.715094 11.280831 -3.866942 0 1.000000 1.000000 1.000000 0.059642 0.944241 -0.323807
904 1 -0.000000 11.160011 -4.262745 0 1.000000 1.000000 1.000000 0.000000 0.934172 -0.356822
905 1 0.000000 10.838878 -5.023988 0 1.000000 1.000000 1.000000 0.000000 0.907380 -0.420311
906 1 -0.711754 10.641203 -5.384197 0 1.000000 1.000000 1.000000 -0.059223 0.890774 -0.450572
907 1 -0.705141 10.251981 -6.095040 0 1.000000 1.000000 1.000000 -0.059226 0.858483 -0.509410
908 1 -1.394484 9.992085 -6.401992 0 1.000000 1.000000 1.000000 -0.115646 0.836362 -0.535840
909 1 -1.372921 9.554970 -7.044000 0 1.000000 1.000000 1.000000 -0.115657 0.800437 -0.588153
910 1 -2.024654 9.252964 -7.287927 0 1.000000 1.000000 1.000000 -0.167433 0.774346 -0.610208
911 1 -1.983061 8.790725 -7.852051 0 1.000000 1.000000 1.000000 -0.167452 0.736792 -0.655055
912 1 3.851511 11.311440 -0.353523 0 1.000000 1.000000 1.000000 0.318484 0.947429 -0.030774
913 1 3.291897 11.468180 -0.718138 0 1.000000 1.000000 1.000000 0.277386 0.958848 -0.060552
914 1 3.346286 11.381456 -1.452061 0 1.000000 1.000000 1.000000 0.277359 0.952900 -0.122693
915 1 2.734018 11.484915 -1.852182 0 1.000000 1.000000 1.000000 0.229798 0.960798 -0.155112
916 1 2.764195 11.326660 -2.618033 0 1.000000 1.000000 1.000000 0.229781 0.948027 -0.220102
917 1 2.105813 11.361899 -3.038395 0 1.000000 1.000000 1.000000 0.176454 0.950927 -0.254167
918 1 2.115525 11.123646 -3.812990 0 1.000000 1.000000 1.000000 0.176449 0.930931 -0.319741
919 1 1.423472 11.081069 -4.232614 0 1.000000 1.000000 1.000000 0.118867 0.927636 -0.354065
920 1 1.420131 10.762573 -4.988627 0 1.000000 1.000000 1.000000 0.118869 0.900842 -0.417556
921 1 0.711754 10.641203 -5.384197 0 1.000000 1.000000 1.000000 0.059223 0.890774 -0.450572
922 1 0.705141 10.251981 -6.095040 0 1.000000 1.000000 1.000000 0.059226 0.858483 -0.509410
923 1 0.000000 10.060435 -6.445672 0 1.000000 1.000000 1.000000 0.000000 0.841873 -0.539676
924 1 0.000000 9.618293 -7.090594 0 1.000000 1.000000 1.000000 0.000000 0.806015 -0.591895
925 1 -0.683578 9.372724 -7.381969 0 1.000000 1.000000 1.000000 -0.056516 0.783847 -0.618377
926 1 -0.669178 8.899762 -7.949219 0 1.000000 1.000000 1.000000 -0.056523 0.746550 -0.662924
927 1 -1.316929 8.619770 -8.175374 0 1.000000 1.000000 1.000000 -0.108620 0.720284 -0.685123
928 1 -1.283666 8.137726 -8.662413 0 1.000000 1.000000 1.000000 -0.108633 0.683456 -0.721864
929 1 4.941182 10.882492 -0.339567 0 1.000000 1.000000 1.000000 0.408879 0.912063 -0.030970
930 1 4.450837 11.074003 -0.693089 0 1.000000 1.000000 1.000000 0.374801 0.925344 -0.057112
931 1 4.519268 10.977930 -1.400135 0 1.000000 1.000000 1.000000 0.374767 0.919379 -0.119553
932 1 3.974331 11.128642 -1.794491 0 1.000000 1.000000 1.000000 0.333904 0.930733 -0.149145
933 1 4.015464 10.967881 -2.534814 0 1.000000 1.000000 1.000000 0.333881 0.917967 -0.214148
934 1 3.417596 11.062440 -2.958234 0 1.000000 1.000000 1.000000 0.286314 0.925869 -0.246557
935 1 3.432528 10.827877 -3.711486 0 1.000000 1.000000 1.000000 0.286305 0.905904 -0.312038
936 1 2.788838 10.853844 -4.145880 0 1.000000 1.000000 1.000000 0.232877 0.908815 -0.346156
937 1 2.782561 10.542894 -4.886826 0 1.000000 1.000000 1.000000 0.232881 0.882039 -0.409603
938 1 2.105907 10.494201 -5.309950 0 1.000000 1.000000 1.000000 0.175240 0.878746 -0.443955
939 1 2.086872 10.112935 -6.012473 0 1.000000 1.000000 1.000000 0.175251 0.846422 -0.502849
940 1 1.394484 9.992085 -6.401992 0 1.000000 1.000000 1.000000 0.115646 0.836362 -0.535840
941 1 1.372921 9.554970 -7.044000 0 1.000000 1.000000 1.000000 0.115657 0.800437 -0.588153
942 1 0.683578 9.372724 -7.381969 0 1.000000 1.000000 1.000000 0.056516 0.783847 -0.618377
943 1 0.669178 8.899762 -7.949219 0 1.000000 1.000000 1.000000 0.056523 0.746550 -0.662924
944 1 0.000000 8.672370 -8.225094 0 1.000000 1.000000 1.000000 0.000000 0.724369 -0.689412
945 1 0.000000 8.184869 -8.712464 0 1.000000 1.000000 1.000000 0.000000 0.687760 -0.725938
946 1 -0.635915 7.930217 -8.923628 0 1.000000 1.000000 1.000000 -0.052342 0.661356 -0.748244
947 1 -0.617569 7.446995 -9.333815 0 1.000000 1.000000 1.000000 -0.052348 0.627009 -0.777251
948 1 5.901277 10.396283 -0.323837 0 1.000000 1.000000 1.000000 0.488703 0.871899 -0.031001
949 1 5.481611 10.606247 -0.663404 0 1.000000 1.000000 1.000000 0.461265 0.885665 -0.053217
950 1 5.558751 10.500814 -1.338814 0 1.000000 1.000000 1.000000 0.461227 0.879710 -0.115671
951 1 5.086753 10.680986 -1.722022 0 1.000000 1.000000 1.000000 0.427143 0.892995 -0.141803
952 1 5.135177 10.518091 -2.430538 0 1.000000 1.000000 1.000000 0.427117 0.880290 -0.206546
953 1 4.608825 10.654274 -2.848973 0 1.000000 1.000000 1.000000 0.386006 0.891718 -0.236303
954 1 4.627490 10.425072 -3.573276 0 1.000000 1.000000 1.000000 0.385995 0.871859 -0.301445
955 1 4.049061 10.504116 -4.012368 0 1.000000 1.000000 1.000000 0.338099 0.879824 -0.334064
956 1 4.040525 10.204649 -4.730088 0 1.000000 1.000000 1.000000 0.338104 0.853140 -0.397289
957 1 3.417714 10.217460 -5.170153 0 1.000000 1.000000 1.000000 0.284445 0.856072 -0.431545
958 1 3.388417 9.850876 -5.856857 0 1.000000 1.000000 1.000000 0.284461 0.823738 -0.490447
959 1 2.734230 9.795044 -6.276054 0 1.000000 1.000000 1.000000 0.226809 0.820451 -0.524802
960 1 2.693574 9.372188 -6.909500 0 1.000000 1.000000 1.000000 0.226831 0.784369 -0.577333
961 1 2.024654 9.252964 -7.287927 0 1.000000 1.000000 1.000000 0.167433 0.774346 -0.610208
962 1 1.983061 8.790725 -7.852051 0 1.000000 1.000000 1.000000 0.167452 0.736792 -0.655055
963 1 1.316929 8.619770 -8.175374 0 1.000000 1.000000 1.000000 0.108620 0.720284 -0.685123
964 1 1.283666 8.137726 -8.662413 0 1.000000 1.000000 1.000000 0.108633 0.683456 -0.721864
965 1 0.635915 7.930217 -8.923628 0 1.000000 1.000000 1.000000 0.052342 0.661356 -0.748244
966 1 0.617569 7.446995 -9.333815 0 1.000000 1.000000 1.000000 0.052348 0.627009 -0.777251
967 1 0.000000 7.218425 -9.532837 0 1.000000 1.000000 1.000000 0.000000 0.600588 -0.799559
968 1 0.000000 6.749093 -9.872304 0 1.000000 1.000000 1.000000 0.000000 0.569865 -0.821739
969 1 6.749093 9.872304 0.000000 0 1.000000 1.000000 1.000000 0.569865 0.821739 0.000000
970 1 7.446995 9.333815 0.617569 0 1.000000 1.000000 1.000000 0.627009 0.777251 0.052348
971 1 7.218425 9.532837 0.000000 0 1.000000 1.000000 1.000000 0.600588 0.799559 0.000000
972 1 7.446995 9.333815 -0.617569 0 1.000000 1.000000 1.000000 0.627009 0.777251 -0.052348
973 1 8.137726 8.662413 1.283666 0 1.000000 1.000000 1.000000 0.683456 0.721864 0.108633
974 1 7.930217 8.923628 0.635915 0 1.000000 1.000000 1.000000 0.661356 0.748244 0.052342
975 1 8.184869 8.712464 0.000000 0 1.000000 1.000000 1.000000 0.687760 0.725938 0.000000
976 1 7.930217 8.923628 -0.635915 0 1.000000 1.000000 1.000000 0.661356 0.748244 -0.052342
977 1 8.137726 8.662413 -1.283666 0 1.000000 1.000000 1.000000 0.683456 0.721864 -0.108633
978 1 8.790725 7.852051 1.983061 0 1.000000 1.000000 1.000000 0.736792 0.655055 0.167452
979 1 8.619770 8.175374 1.316929 0 1.000000 1.000000 1.000000 0.720284 0.685123 0.108620
980 1 8.899762 7.949219 0.669178 0 1.000000 1.000000 1.000000 0.746550 0.662924 0.056523
981 1 8.672370 8.225094 0.000000 0 1.000000 1.000000 1.000000 0.724369 0.689412 0.000000
982 1 8.899762 7.949219 -0.669178 0 1.000000 1.000000 1.000000 0.746550 0.662924 -0.056523
983 1 8.619770 8.175374 -1.316929 0 1.000000 1.000000 1.000000 0.720284 0.685123 -0.108620
984 1 8.790725 7.852051 -1.983061 0 1.000000 1.000000 1.000000 0.736792 0.655055 -0.167452
985 1 9.372188 6.909500 2.693574 0 1.000000 1.000000 1.000000 0.784369 0.577333 0.226831
986 1 9.252964 7.287927 2.024654 0 1.000000 1.000000 1.000000 0.774346 0.610208 0.167433
987 1 9.554970 7.044000 1.372921 0 1.000000 1.000000 1.000000 0.800437 0.588153 0.115657
988 1 9.372724 7.381969 0.683578 0 1.000000 1.000000 1.000000 0.783847 0.618377 0.056516
989 1 9.618293 7.090594 0.000000 0 1.000000 1.000000 1.000000 0.806015 0.591895 0.000000
990 1 9.372724 7.381969 -0.683578 0 1.000000 1.000000 1.000000 0.783847 0.618377 -0.056516
991 1 9.554970 7.044000 -1.372921 0 1.000000 1.000000 1.000000 0.800437 0.588153 -0.115657
992 1 9.252964 7.287927 -2.024654 0 1.000000 1.000000 1.000000 0.774346 0.610208 -0.167433
993 1 9.372188 6.909500 -2.693574 0 1.000000 1.000000 1.000000 0.784369 0.577333 -0.226831
994 1 9.850876 5.856857 3.388417 0 1.000000 1.000000 1.000000 0.823738 0.490447 0.284461
995 1 9.795044 6.276054 2.734230 0 1.000000 1.000000 1.000000 0.820451 0.524802 0.226809
996 1 10.112935 6.012473 2.086872 0 1.000000 1.000000 1.000000 0.846422 0.502849 0.175251
997 1 9.992085 6.401992 1.394484 0 1.000000 1.000000 1.000000 0.836362 0.535840 0.115646
998 1 10.251981 6.095040 0.705141 0 1.000000 1.000000 1.000000 0.858483 0.509410 0.059226
999 1 10.060435 6.445672 0.000000 0 1.000000 1.000000 1.000000 0.841873 0.539676 0.000000
1000 1 10.251981 6.095040 -0.705141 0 1.000000 1.000000 1.000000 0.858483 0.509410 -0.059226
1001 1 9.992085 6.401992 -1.394484 0 1.000000 1.000000 1.000000 0.836362 0.535840 -0.115646
1002 1 10.112935 6.012473 -2.086872 0 1.000000 1.000000 1.000000 0.846422 0.502849 -0.175251
1003 1 9.795044 6.276054 -2.734230 0 1.000000 1.000000 1.000000 0.820451 0.524802 -0.226809
1004 1 9.850876 5.856857 -3.388417 0 1.000000 1.000000 1.000000 0.823738 0.490447 -0.284461
1005 1 10.204649 4.730088 4.040525 0 1.000000 1.000000 1.000000 0.853140 0.397289 0.338104
1006 1 10.217460 5.170153 3.417714 0 1.000000 1.000000 1.000000 0.856072 0.431545 0.284445
1007 1 10.542894 4.886826 2.782561 0 1.000000 1.000000 1.000000 0.882039 0.409603 0.232881
1008 1 10.494201 5.309950 2.105907 0 1.000000 1.000000 1.000000 0.878746 0.443955 0.175240
1009 1 10.762573 4.988627 1.420131 0 1.000000 1.000000 1.000000 0.900842 0.417556 0.118869
1010 1 10.641203 5.384197 0.711754 0 1.000000 1.000000 1.000000 0.890774 0.450572 0.059223
1011 1 10.838878 5.023988 0.000000 0 1.000000 1.000000 1.000000 0.907380 0.420311 0.000000
1012 1 10.641203 5.384197 -0.711754 0 1.000000 1.000000 1.000000 0.890774 0.450572 -0.059223
1013 1 10.762573 4.988627 -1.420131 0 1.000000 1.000000 1.000000 0.900842 0.417556 -0.118869
1014 1 10.494201 5.309950 -2.105907 0 1.000000 1.000000 1.000000 0.878746 0.443955 -0.175240
1015 1 10.542894 4.886826 -2.782561 0 1.000000 1.000000 1.000000 0.882039 0.409603 -0.232881
1016 1 10.217460 5.170153 -3.417714 0 1.000000 1.000000 1.000000 0.856072 0.431545 -0.284445
1017 1 10.204649 4.730088 -4.040525 0 1.000000 1.000000 1.000000 0.853140 0.397289 -0.338104
1018 1 10.425072 3.573276 4.627490 0 1.000000 1.000000 1.000000 0.871859 0.301445 0.385995
1019 1 10.504116 4.012368 4.049061 0 1.000000 1.000000 1.000000 0.879824 0.334064 0.338099
1020 1 10.827877 3.711486 3.432528 0 1.000000 1.000000 1.000000 0.905904 0.312038 0.286305
1021 1 10.853844 4.145880 2.788838 0 1.000000 1.000000 1.000000 0.908815 0.346156 0.232877
1022 1 11.123646 3.812990 2.115525 0 1.000000 1.000000 1.000000 0.930931 0.319741 0.176449
1023 1 11.081069 4.232614 1.423472 0 1.000000 1.000000 1.000000 0.927636 0.354065 0.118867
1024 1 11.280831 3.866942 0.715094 0 1.000000 1.000000 1.000000 0.944241 0.323807 0.059642
1025 1 11.160011 4.262745 0.000000 0 1.000000 1.000000 1.000000 0.934172 0.356822 0.000000
1026 1 11.280831 3.866942 -0.715094 0 1.000000 1.000000 1.000000 0.944241 0.323807 -0.059642
1027 1 11.081069 4.232614 -1.423472 0 1.000000 1.000000 1.000000 0.927636 0.354065 -0.118867
1028 1 11.123646 3.812990 -2.115525 0 1.000000 1.000000 1.000000 0.930931 0.319741 -0.176449
1029 1 10.853844 4.145880 -2.788838 0 1.000000 1.000000 1.000000 0.908815 0.346156 -0.232877
1030 1 10.827877 3.711486 -3.432528 0 1.000000 1.000000 1.000000 0.905904 0.312038 -0.286305
1031 1 10.504116 4.012368 -4.049061 0 1.000000 1.000000 1.000000 0.879824 0.334064 -0.338099
1032 1 10.425072 3.573276 -4.627490 0 1.000000 1.000000 1.000000 0.871859 0.301445 -0.385995
1033 1 10.518091 2.430538 5.135177 0 1.000000 1.000000 1.000000 0.880290 0.206546 0.427117
1034 1 10.654274 2.848973 4.608825 0 1.000000 1.000000 1.000000 0.891718 0.236303 0.386006
1035 1 10.967881 2.534814 4.015464 0 1.000000 1.000000 1.000000 0.917967 0.214148 0.333881
1036 1 11.062440 2.958234 3.417596 0 1.000000 1.000000 1.000000 0.925869 0.246557 0.286314
1037 1 11.326660 2.618033 2.764195 0 1.000000 1.000000 1.000000 0.948027 0.220102 0.229781
1038 1 11.361899 3.038395 2.105813 0 1.000000 1.000000 1.000000 0.950927 0.254167 0.176454
1039 1 11.559447 2.672049 1.410384 0 1.000000 1.000000 1.000000 0.967535 0.223910 0.117222
1040 1 11.520957 3.080972 0.711718 0 1.000000 1.000000 1.000000 0.964238 0.258241 0.059644
1041 1 11.640263 2.690806 0.000000 0 1.000000 1.000000 1.000000 0.974307 0.225222 0.000000
1042 1 11.520957 3.080972 -0.711718 0 1.000000 1.000000 1.000000 0.964238 0.258241 -0.059644
1043 1 11.559447 2.672049 -1.410384 0 1.000000 1.000000 1.000000 0.967535 0.223910 -0.117222
1044 1 11.361899 3.038395 -2.105813 0 1.000000 1.000000 1.000000 0.950927 0.254167 -0.176454
1045 1 11.326660 2.618033 -2.764195 0 1.000000 1.000000 1.000000 0.948027 0.220102 -0.229781
1046 1 11.062440 2.958234 -3.417596 0 1.000000 1.000000 1.000000 0.925869 0.246557 -0.286314
1047 1 10.967881 2.534814 -4.015464 0 1.000000 1.000000 1.000000 0.917967 0.214148 -0.333881
1048 1 10.654274 2.848973 -4.608825 0 1.000000 1.000000 1.000000 0.891718 0.236303 -0.386006
1049 1 10.518091 2.430538 -5.135177 0 1.000000 1.000000 1.000000 0.880290 0.206546 -0.427117
1050 1 10.500814 1.338814 5.558751 0 1.000000 1.000000 1.000000 0.879710 0.115671 0.461227
1051 1 10.680986 1.722022 5.086753 0 1.000000 1.000000 1.000000 0.892995 0.141803 0.427143
1052 1 10.977930 1.400135 4.519268 0 1.000000 1.000000 1.000000 0.919379 0.119553 0.374767
1053 1 11.128642 1.794491 3.974331 0 1.000000 1.000000 1.000000 0.930733 0.149145 0.333904
1054 1 11.381456 1.452061 3.346286 0 1.000000 1.000000 1.000000 0.952900 0.122693 0.277359
1055 1 11.484915 1.852182 2.734018 0 1.000000 1.000000 1.000000 0.960798 0.155112 0.229798
1056 1 11.676389 1.490053 2.059607 0 1.000000 1.000000 1.000000 0.977384 0.124901 0.170648
1057 1 11.715682 1.889557 1.394354 0 1.000000 1.000000 1.000000 0.980288 0.159038 0.117231
1058 1 11.832652 1.510196 0.695688 0 1.000000 1.000000 1.000000 0.990350 0.126041 0.057630
1059 1 11.795723 1.902521 0.000000 0 1.000000 1.000000 1.000000 0.987050 0.160411 0.000000
1060 1 11.832652 1.510196 -0.695688 0 1.000000 1.000000 1.000000 0.990350 0.126041 -0.057630
1061 1 11.715682 1.889557 -1.394354 0 1.000000 1.000000 1.000000 0.980288 0.159038 -0.117231
1062 1 11.676389 1.490053 -2.059607 0 1.000000 1.000000 1.000000 0.977384 0.124901 -0.170648
1063 1 11.484915 1.852182 -2.734018 0 1.000000 1.000000 1.000000 0.960798 0.155112 -0.229798
1064 1 11.381456 1.452061 -3.346286 0 1.000000 1.000000 1.000000 0.952900 0.122693 -0.277359
1065 1 11.128642 1.794491 -3.974331 0 1.000000 1.000000 1.000000 0.930733 0.149145 -0.333904
1066 1 10.977930 1.400135 -4.519268 0 1.000000 1.000000 1.000000 0.919379 0.119553 -0.374767
1067 1 10.680986 1.722022 -5.086753 0 1.000000 1.000000 1.000000 0.892995 0.141803 -0.427143
1068 1 10.500814 1.338814 -5.558751 0 1.000000 1.000000 1.000000 0.879710 0.115671 -0.461227
1069 1 10.396283 0.323837 5.901277 0 1.000000 1.000000 1.000000 0.871899 0.031001 0.488703
1070 1 10.606247 0.663404 5.481611 0 1.000000 1.000000 1.000000 0.885665 0.053217 0.461265
1071 1 10.882492 0.339567 4.941182 0 1.000000 1.000000 1.000000 0.912063 0.030970 0.408879
1072 1 11.074003 0.693089 4.450837 0 1.000000 1.000000 1.000000 0.925344 0.057112 0.374801
1073 1 11.311440 0.353523 3.851511 0 1.000000 1.000000 1.000000 0.947429 0.030774 0.318484
1074 1 11.468180 0.718138 3.291897 0 1.000000 1.000000 1.000000 0.958848 0.060552 0.277386
1075 1 11.650671 0.364615 2.644429 0 1.000000 1.000000 1.000000 0.975350 0.030501 0.218543
1076 1 11.755421 0.736409 2.024407 0 1.000000 1.000000 1.000000 0.983303 0.063153 0.170666
1077 1 11.869369 0.371794 1.346950 0 1.000000 1.000000 1.000000 0.993329 0.030269 0.111273
1078 1 11.907307 0.746076 0.683484 0 1.000000 1.000000 1.000000 0.996248 0.064561 0.057636
1079 1 11.945033 0.374282 0.000000 0 1.000000 1.000000 1.000000 0.999545 0.030178 0.000000
1080 1 11.907307 0.746076 -0.683484 0 1.000000 1.000000 1.000000 0.996248 0.064561 -0.057636
1081 1 11.869369 0.371794 -1.346950 0 1.000000 1.000000 1.000000 0.993329 0.030269 -0.111273
1082 1 11.755421 0.736409 -2.024407 0 1.000000 1.000000 1.000000 0.983303 0.063153 -0.170666
1083 1 11.650671 0.364615 -2.644429 0 1.000000 1.000000 1.000000 0.975350 0.030501 -0.218543
1084 1 11.468180 0.718138 -3.291897 0 1.000000 1.000000 1.000000 0.958848 0.060552 -0.277386
1085 1 11.311440 0.353523 -3.851511 0 1.000000 1.000000 1.000000 0.947429 0.030774 -0.318484
1086 1 11.074003 0.693089 -4.450837 0 1.000000 1.000000 1.000000 0.925344 0.057112 -0.374801
1087 1 10.882492 0.339567 -4.941182 0 1.000000 1.000000 1.000000 0.912063 0.030970 -0.408879
1088 1 10.606247 0.663404 -5.481611 0 1.000000 1.000000 1.000000 0.885665 0.053217 -0.461265
1089 1 10.396283 0.323837 -5.901277 0 1.000000 1.000000 1.000000 0.871899 0.031001 -0.488703
1090 1 10.072446 -0.523979 6.425256 0 1.000000 1.000000 1.000000 0.840898 -0.050161 0.538863
1091 1 9.543679 -1.166999 7.107429 0 1.000000 1.000000 1.000000 0.796392 -0.102459 0.596039
1092 1 9.942843 -1.073410 6.555021 0 1.000000 1.000000 1.000000 0.832448 -0.086106 0.547371
1093 1 10.161247 -1.548678 6.108182 0 1.000000 1.000000 1.000000 0.848740 -0.134812 0.511338
1094 1 8.880902 -1.855678 7.784203 0 1.000000 1.000000 1.000000 0.740883 -0.158426 0.652682
1095 1 9.351981 -1.757358 7.237128 0 1.000000 1.000000 1.000000 0.783541 -0.144752 0.604243
1096 1 9.577795 -2.265466 6.784734 0 1.000000 1.000000 1.000000 0.799826 -0.193441 0.568207
1097 1 9.987897 -2.150375 6.208195 0 1.000000 1.000000 1.000000 0.835883 -0.177101 0.519552
1098 1 10.164568 -2.649027 5.707188 0 1.000000 1.000000 1.000000 0.849516 -0.225565 0.476910
1099 1 8.077395 -2.573021 8.426110 0 1.000000 1.000000 1.000000 0.673906 -0.216805 0.706291
1100 1 8.619207 -2.478900 7.901632 0 1.000000 1.000000 1.000000 0.722546 -0.206595 0.659732
1101 1 8.846642 -3.018662 7.447701 0 1.000000 1.000000 1.000000 0.738752 -0.255043 0.623858
1102 1 9.334151 -2.903548 6.877879 0 1.000000 1.000000 1.000000 0.781589 -0.241321 0.575225
1103 1 9.515820 -3.432237 6.364948 0 1.000000 1.000000 1.000000 0.795275 -0.289976 0.532402
1104 1 9.936136 -3.292807 5.770797 0 1.000000 1.000000 1.000000 0.831166 -0.273726 0.483981
1105 1 10.060457 -3.798620 5.217449 0 1.000000 1.000000 1.000000 0.841358 -0.320296 0.435348
1106 1 7.139281 -3.295149 9.000394 0 1.000000 1.000000 1.000000 0.596040 -0.275807 0.754100
1107 1 7.743053 -3.216189 8.516555 0 1.000000 1.000000 1.000000 0.649239 -0.269616 0.711194
1108 1 7.964903 -3.783877 8.064917 0 1.000000 1.000000 1.000000 0.665346 -0.317751 0.675536
1109 1 8.526680 -3.680472 7.520542 0 1.000000 1.000000 1.000000 0.714242 -0.307492 0.628735
1110 1 8.708627 -4.236066 7.000261 0 1.000000 1.000000 1.000000 0.727926 -0.356132 0.585913
1111 1 9.210258 -4.102946 6.414490 0 1.000000 1.000000 1.000000 0.770758 -0.342421 0.537290
1112 1 9.337824 -4.632389 5.843484 0 1.000000 1.000000 1.000000 0.781003 -0.389231 0.488399
1113 1 9.767707 -4.467494 5.240595 0 1.000000 1.000000 1.000000 0.816671 -0.373095 0.440282
1114 1 9.832855 -4.959870 4.642099 0 1.000000 1.000000 1.000000 0.822871 -0.415996 0.387080
1115 1 6.088176 -3.994019 9.476593 0 1.000000 1.000000 1.000000 0.509098 -0.333291 0.793559
1116 1 6.737154 -3.941406 9.048967 0 1.000000 1.000000 1.000000 0.564703 -0.331270 0.755891
1117 1 6.945826 -4.530420 8.602739 0 1.000000 1.000000 1.000000 0.580747 -0.379189 0.720381
1118 1 7.569803 -4.451851 8.102528 0 1.000000 1.000000 1.000000 0.634131 -0.372974 0.677324
1119 1 7.746457 -5.028607 7.579932 0 1.000000 1.000000 1.000000 0.647794 -0.421521 0.634573
1120 1 8.323504 -4.916227 7.022040 0 1.000000 1.000000 1.000000 0.696760 -0.411251 0.587705
1121 1 8.451597 -5.464408 6.438991 0 1.000000 1.000000 1.000000 0.707020 -0.458125 0.538743
1122 1 8.964287 -5.313690 5.846206 0 1.000000 1.000000 1.000000 0.749777 -0.444447 0.490205
1123 1 9.032698 -5.820179 5.226109 0 1.000000 1.000000 1.000000 0.755998 -0.487500 0.436819
1124 1 9.471384 -5.631253 4.624891 0 1.000000 1.000000 1.000000 0.791512 -0.471446 0.388906
1125 1 9.476593 -6.088176 3.994019 0 1.000000 1.000000 1.000000 0.793559 -0.509098 0.333291
1126 1 4.959870 -4.642099 9.832855 0 1.000000 1.000000 1.000000 0.415996 -0.387080 0.822871
1127 1 5.631253 -4.624891 9.471384 0 1.000000 1.000000 1.000000 0.471446 -0.388906 0.791512
1128 1 5.820179 -5.226109 9.032698 0 1.000000 1.000000 1.000000 0.487500 -0.436819 0.755998
1129 1 6.485773 -5.184251 8.591680 0 1.000000 1.000000 1.000000 0.543095 -0.434791 0.718335
1130 1 6.651636 -5.773947 8.071768 0 1.000000 1.000000 1.000000 0.556751 -0.483286 0.675620
1131 1 7.288343 -5.696871 7.560231 0 1.000000 1.000000 1.000000 0.610173 -0.477065 0.632533
1132 1 7.413889 -6.256843 6.971937 0 1.000000 1.000000 1.000000 0.620434 -0.523931 0.583573
1133 1 8.000097 -6.136759 6.408589 0 1.000000 1.000000 1.000000 0.669396 -0.513666 0.536709
1134 1 8.071768 -6.651636 5.773947 0 1.000000 1.000000 1.000000 0.675620 -0.556751 0.483286
1135 1 8.591680 -6.485773 5.184251 0 1.000000 1.000000 1.000000 0.718335 -0.543095 0.434791
1136 1 8.602739 -6.945826 4.530420 0 1.000000 1.000000 1.000000 0.720381 -0.580747 0.379189
1137 1 9.048967 -6.737154 3.941406 0 1.000000 1.000000 1.000000 0.755891 -0.564703 0.331270
1138 1 9.000394 -7.139281 3.295149 0 1.000000 1.000000 1.000000 0.754100 -0.596040 0.275807
1139 1 3.798620 -5.217449 10.060457 0 1.000000 1.000000 1.000000 0.320296 -0.435348 0.841358
1140 1 4.467494 -5.240595 9.767707 0 1.000000 1.000000 1.000000 0.373095 -0.440282 0.816671
1141 1 4.632389 -5.843484 9.337824 0 1.000000 1.000000 1.000000 0.389231 -0.488399 0.781003
1142 1 5.313690 -5.846206 8.964287 0 1.000000 1.000000 1.000000 0.444447 -0.490205 0.749777
1143 1 5.464408 -6.438991 8.451597 0 1.000000 1.000000 1.000000 0.458125 -0.538743 0.707020
1144 1 6.136759 -6.408589 8.000097 0 1.000000 1.000000 1.000000 0.513666 -0.536709 0.669396
1145 1 6.256843 -6.971937 7.413889 0 1.000000 1.000000 1.000000 0.523931 -0.583573 0.620434
1146 1 6.897266 -6.897266 6.897266 0 1.000000 1.000000 1.000000 0.577350 -0.577350 0.577350
1147 1 6.971937 -7.413889 6.256843 0 1.000000 1.000000 1.000000 0.583573 -0.620434 0.523931
1148 1 7.560231 -7.288343 5.696871 0 1.000000 1.000000 1.000000 0.632533 -0.610173 0.477065
1149 1 7.579932 -7.746457 5.028607 0 1.000000 1.000000 1.000000 0.634573 -0.647794 0.421521
1150 1 8.102528 -7.569803 4.451851 0 1.000000 1.000000 1.000000 0.677324 -0.634131 0.372974
1151 1 8.064917 -7.964903 3.783877 0 1.000000 1.000000 1.000000 0.675536 -0.665346 0.317751
1152 1 8.516555 -7.743053 3.216189 0 1.000000 1.000000 1.000000 0.711194 -0.649239 0.269616
1153 1 8.426110 -8.077395 2.573021 0 1.000000 1.000000 1.000000 0.706291 -0.673906 0.216805
1154 1 2.649027 -5.707188 10.164568 0 1.000000 1.000000 1.000000 0.225565 -0.476910 0.849516
1155 1 3.292807 -5.770797 9.936136 0 1.000000 1.000000 1.000000 0.273726 -0.483981 0.831166
1156 1 3.432237 -6.364948 9.515820 0 1.000000 1.000000 1.000000 0.289976 -0.532402 0.795275
1157 1 4.102946 -6.414490 9.210258 0 1.000000 1.000000 1.000000 0.342421 -0.537290 0.770758
1158 1 4.236066 -7.000261 8.708627 0 1.000000 1.000000 1.000000 0.356132 -0.585913 0.727926
1159 1 4.916227 -7.022040 8.323504 0 1.000000 1.000000 1.000000 0.411251 -0.587705 0.696760
1160 1 5.028607 -7.579932 7.746457 0 1.000000 1.000000 1.000000 0.421521 -0.634573 0.647794
1161 1 5.696871 -7.560231 7.288343 0 1.000000 1.000000 1.000000 0.477065 -0.632533 0.610173
1162 1 5.773947 -8.071768 6.651636 0 1.000000 1.000000 1.000000 0.483286 -0.675620 0.556751
1163 1 6.408589 -8.000097 6.136759 0 1.000000 1.000000 1.000000 0.536709 -0.669396 0.513666
1164 1 6.438991 -8.451597 5.464408 0 1.000000 1.000000 1.000000 0.538743 -0.707020 0.458125
1165 1 7.022040 -8.323504 4.916227 0 1.000000 1.000000 1.000000 0.587705 -0.696760 0.411251
1166 1 7.000261 -8.708627 4.236066 0 1.000000 1.000000 1.000000 0.585913 -0.727926 0.356132
1167 1 7.520542 -8.526680 3.680472 0 1.000000 1.000000 1.000000 0.628735 -0.714242 0.307492
1168 1 7.447701 -8.846642 3.018662 0 1.000000 1.000000 1.000000 0.623858 -0.738752 0.255043
1169 1 7.901632 -8.619207 2.478900 0 1.000000 1.000000 1.000000 0.659732 -0.722546 0.206595
1170 1 7.784203 -8.880902 1.855678 0 1.000000 1.000000 1.000000 0.652682 -0.740883 0.158426
1171 1 1.548678 -6.108182 10.161247 0 1.000000 1.000000 1.000000 0.134812 -0.511338 0.848740
1172 1 2.150375 -6.208195 9.987897 0 1.000000 1.000000 1.000000 0.177101 -0.519552 0.835883
1173 1 2.265466 -6.784734 9.577795 0 1.000000 1.000000 1.000000 0.193441 -0.568207 0.799826
1174 1 2.903548 -6.877879 9.334151 0 1.000000 1.000000 1.000000 0.241321 -0.575225 0.781589
1175 1 3.018662 -7.447701 8.846642 0 1.000000 1.000000 1.000000 0.255043 -0.623858 0.738752
1176 1 3.680472 -7.520542 8.526680 0 1.000000 1.000000 1.000000 0.307492 -0.628735 0.714242
1177 1 3.783877 -8.064917 7.964903 0 1.000000 1.000000 1.000000 0.317751 -0.675536 0.665346
1178 1 4.451851 -8.102528 7.569803 0 1.000000 1.000000 1.000000 0.372974 -0.677324 0.634131
1179 1 4.530420 -8.602739 6.945826 0 1.000000 1.000000 1.000000 0.379189 -0.720381 0.580747
1180 1 5.184251 -8.591680 6.485773 0 1.000000 1.000000 1.000000 0.434791 -0.718335 0.543095
1181 1 5.226109 -9.032698 5.820179 0 1.000000 1.000000 1.000000 0.436819 -0.755998 0.487500
1182 1 5.846206 -8.964287 5.313690 0 1.000000 1.000000 1.000000 0.490205 -0.749777 0.444447
1183 1 5.843484 -9.337824 4.632389 0 1.000000 1.000000 1.000000 0.488399 -0.781003 0.389231
1184 1 6.414490 -9.210258 4.102946 0 1.000000 1.000000 1.000000 0.537290 -0.770758 0.342421
1185 1 6.364948 -9.515820 3.432237 0 1.000000 1.000000 1.000000 0.532402 -0.795275 0.289976
1186 1 6.877879 -9.334151 2.903548 0 1.000000 1.000000 1.000000 0.575225 -0.781589 0.241321
1187 1 6.784734 -9.577795 2.265466 0 1.000000 1.000000 1.000000 0.568207 -0.799826 0.193441
1188 1 7.237128 -9.351981 1.757358 0 1.000000 1.000000 1.000000 0.604243 -0.783541 0.144752
1189 1 7.107429 -9.543679 1.166999 0 1.000000 1.000000 1.000000 0.596039 -0.796392 0.102459
1190 1 0.523979 -6.425256 10.072446 0 1.000000 1.000000 1.000000 0.050161 -0.538863 0.840898
1191 1 1.073410 -6.555021 9.942843 0 1.000000 1.000000 1.000000 0.086106 -0.547371 0.832448
1192 1 1.166999 -7.107429 9.543679 0 1.000000 1.000000 1.000000 0.102459 -0.596039 0.796392
1193 1 1.757358 -7.237128 9.351981 0 1.000000 1.000000 1.000000 0.144752 -0.604243 0.783541
1194 1 1.855678 -7.784203 8.880902 0 1.000000 1.000000 1.000000 0.158426 -0.652682 0.740883
1195 1 2.478900 -7.901632 8.619207 0 1.000000 1.000000 1.000000 0.206595 -0.659732 0.722546
1196 1 2.573021 -8.426110 8.077395 0 1.000000 1.000000 1.000000 0.216805 -0.706291 0.673906
1197 1 3.216189 -8.516555 7.743053 0 1.000000 1.000000 1.000000 0.269616 -0.711194 0.649239
1198 1 3.295149 -9.000394 7.139281 0 1.000000 1.000000 1.000000 0.275807 -0.754100 0.596040
1199 1 3.941406 -9.048967 6.737154 0 1.000000 1.000000 1.000000 0.331270 -0.755891 0.564703
1200 1 3.994019 -9.476593 6.088176 0 1.000000 1.000000 1.000000 0.333291 -0.793559 0.509098
1201 1 4.624891 -9.471384 5.631253 0 1.000000 1.000000 1.000000 0.388906 -0.791512 0.471446
1202 1 4.642099 -9.832855 4.959870 0 1.000000 1.000000 1.000000 0.387080 -0.822871 0.415996
1203 1 5.240595 -9.767707 4.467494 0 1.000000 1.000000 1.000000 0.440282 -0.816671 0.373095
1204 1 5.217449 -10.060457 3.798620 0 1.000000 1.000000 1.000000 0.435348 -0.841358 0.320296
1205 1 5.770797 -9.936136 3.292807 0 1.000000 1.000000 1.000000 0.483981 -0.831166 0.273726
1206 1 5.707188 -10.164568 2.649027 0 1.000000 1.000000 1.000000 0.476910 -0.849516 0.225565
1207 1 6.208195 -9.987897 2.150375 0 1.000000 1.000000 1.000000 0.519552 -0.835883 0.177101
1208 1 6.108182 -10.161247 1.548678 0 1.000000 1.000000 1.000000 0.511338 -0.848740 0.134812
1209 1 6.555021 -9.942843 1.073410 0 1.000000 1.000000 1.000000 0.547371 -0.832448 0.086106
1210 1 6.425256 -10.072446 0.523979 0 1.000000 1.000000 1.000000 0.538863 -0.840898 0.050161
1211 1 0.323837 5.901277 -10.396283 0 1.000000 1.000000 1.000000 0.031001 0.488703 -0.871899
1212 1 1.338814 5.558751 -10.500814 0 1.000000 1.000000 1.000000 0.115671 0.461227 -0.879710
1213 1 0.663404 5.481611 -10.606247 0 1.000000 1.000000 1.000000 0.053217 0.461265 -0.885665
1214 1 0.339567 4.941182 -10.882492 0 1.000000 1.000000 1.000000 0.030970 0.408879 -0.912063
1215 1 2.430538 5.135177 -10.518091 0 1.000000 1.000000 1.000000 0.206546 0.427117 -0.880290
1216 1 1.722022 5.086753 -10.680986 0 1.000000 1.000000 1.000000 0.141803 0.427143 -0.892995
1217 1 1.400135 4.519268 -10.977930 0 1.000000 1.000000 1.000000 0.119553 0.374767 -0.919379
1218 1 0.693089 4.450837 -11.074003 0 1.000000 1.000000 1.000000 0.057112 0.374801 -0.925344
1219 1 0.353523 3.851511 -11.311440 0 1.000000 1.000000 1.000000 0.030774 0.318484 -0.947429
1220 1 3.573276 4.627490 -10.425072 0 1.000000 1.000000 1.000000 0.301445 0.385995 -0.871859
1221 1 2.848973 4.608825 -10.654274 0 1.000000 1.000000 1.000000 0.236303 0.386006 -0.891718
1222 1 2.534814 4.015464 -10.967881 0 1.000000 1.000000 1.000000 0.214148 0.333881 -0.917967
1223 1 1.794491 3.974331 -11.128642 0 1.000000 1.000000 1.000000 0.149145 0.333904 -0.930733
1224 1 1.452061 3.346286 -11.381456 0 1.000000 1.000000 1.000000 0.122693 0.277359 -0.952900
1225 1 0.718138 3.291897 -11.468180 0 1.000000 1.000000 1.000000 0.060552 0.277386 -0.958848
1226 1 0.364615 2.644429 -11.650671 0 1.000000 1.000000 1.000000 0.030501 0.218543 -0.975350
1227 1 4.730088 4.040525 -10.204649 0 1.000000 1.000000 1.000000 0.397289 0.338104 -0.853140
1228 1 4.012368 4.049061 -10.504116 0 1.000000 1.000000 1.000000 0.334064 0.338099 -0.879824
1229 1 3.711486 3.432528 -10.827877 0 1.000000 1.000000 1.000000 0.312038 0.286305 -0.905904
1230 1 2.958234 3.417596 -11.062440 0 1.000000 1.000000 1.000000 0.246557 0.286314 -0.925869
1231 1 2.618033 2.764195 -11.326660 0 1.000000 1.000000 1.000000 0.220102 0.229781 -0.948027
1232 1 1.852182 2.734018 -11.484915 0 1.000000 1.000000 1.000000 0.155112 0.229798 -0.960798
1233 1 1.490053 2.059607 -11.676389 0 1.000000 1.000000 1.000000 0.124901 0.170648 -0.977384
1234 1 0.736409 2.024407 -11.755421 0 1.000000 1.000000 1.000000 0.063153 0.170666 -0.983303
1235 1 0.371794 1.346950 -11.869369 0 1.000000 1.000000 1.000000 0.030269 0.111273 -0.993329
1236 1 5.856857 3.388417 -9.850876 0 1.000000 1.000000 1.000000 0.490447 0.284461 -0.823738
1237 1 5.170153 3.417714 -10.217460 0 1.000000 1.000000 1.000000 0.431545 0.284445 -0.856072
1238 1 4.886826 2.782561 -10.542894 0 1.000000 1.000000 1.000000 0.409603 0.232881 -0.882039
1239 1 4.145880 2.788838 -10.853844 0 1.000000 1.000000 1.000000 0.346156 0.232877 -0.908815
1240 1 3.812990 2.115525 -11.123646 0 1.000000 1.000000 1.000000 0.319741 0.176449 -0.930931
1241 1 3.038395 2.105813 -11.361899 0 1.000000 1.000000 1.000000 0.254167 0.176454 -0.950927
1242 1 2.672049 1.410384 -11.559447 0 1.000000 1.000000 1.000000 0.223910 0.117222 -0.967535
1243 1 1.889557 1.394354 -11.715682 0 1.000000 1.000000 1.000000 0.159038 0.117231 -0.980288
1244 1 1.510196 0.695688 -11.832652 0 1.000000 1.000000 1.000000 0.126041 0.057630 -0.990350
1245 1 0.746076 0.683484 -11.907307 0 1.000000 1.000000 1.000000 0.064561 0.057636 -0.996248
1246 1 0.374282 0.000000 -11.945033 0 1.000000 1.000000 1.000000 0.030178 0.000000 -0.999545
1247 1 6.909500 2.693574 -9.372188 0 1.000000 1.000000 1.000000 0.577333 0.226831 -0.784369
1248 1 6.276054 2.734230 -9.795044 0 1.000000 1.000000 1.000000 0.524802 0.226809 -0.820451
1249 1 6.012473 2.086872 -10.112935 0 1.000000 1.000000 1.000000 0.502849 0.175251 -0.846422
1250 1 5.309950 2.105907 -10.494201 0 1.000000 1.000000 1.000000 0.443955 0.175240 -0.878746
1251 1 4.988627 1.420131 -10.762573 0 1.000000 1.000000 1.000000 0.417556 0.118869 -0.900842
1252 1 4.232614 1.423472 -11.081069 0 1.000000 1.000000 1.000000 0.354065 0.118867 -0.927636
1253 1 3.866942 0.715094 -11.280831 0 1.000000 1.000000 1.000000 0.323807 0.059642 -0.944241
1254 1 3.080972 0.711718 -11.520957 0 1.000000 1.000000 1.000000 0.258241 0.059644 -0.964238
1255 1 2.690806 0.000000 -11.640263 0 1.000000 1.000000 1.000000 0.225222 -0.000000 -0.974307
1256 1 1.902521 0.000000 -11.795723 0 1.000000 1.000000 1.000000 0.160411 -0.000000 -0.987050
1257 1 1.510196 -0.695688 -11.832652 0 1.000000 1.000000 1.000000 0.126041 -0.057630 -0.990350
1258 1 0.746076 -0.683484 -11.907307 0 1.000000 1.000000 1.000000 0.064561 -0.057636 -0.996248
1259 1 0.371794 -1.346950 -11.869369 0 1.000000 1.000000 1.000000 0.030269 -0.111273 -0.993329
1260 1 7.852051 1.983061 -8.790725 0 1.000000 1.000000 1.000000 0.655055 0.167452 -0.736792
1261 1 7.287927 2.024654 -9.252964 0 1.000000 1.000000 1.000000 0.610208 0.167433 -0.774346
1262 1 7.044000 1.372921 -9.554970 0 1.000000 1.000000 1.000000 0.588153 0.115657 -0.800437
1263 1 6.401992 1.394484 -9.992085 0 1.000000 1.000000 1.000000 0.535840 0.115646 -0.836362
1264 1 6.095040 0.705141 -10.251981 0 1.000000 1.000000 1.000000 0.509410 0.059226 -0.858483
1265 1 5.384197 0.711754 -10.641203 0 1.000000 1.000000 1.000000 0.450572 0.059223 -0.890774
1266 1 5.023988 -0.000000 -10.838878 0 1.000000 1.000000 1.000000 0.420311 0.000000 -0.907380
1267 1 4.262745 -0.000000 -11.160011 0 1.000000 1.000000 1.000000 0.356822 0.000000 -0.934172
1268 1 3.866942 -0.715094 -11.280831 0 1.000000 1.000000 1.000000 0.323807 -0.059642 -0.944241
1269 1 3.080972 -0.711718 -11.520957 0 1.000000 1.000000 1.000000 0.258241 -0.059644 -0.964238
1270 1 2.672049 -1.410384 -11.559447 0 1.000000 1.000000 1.000000 0.223910 -0.117222 -0.967535
1271 1 1.889557 -1.394354 -11.715682 0 1.000000 1.000000 1.000000 0.159038 -0.117231 -0.980288
1272 1 1.490053 -2.059607 -11.676389 0 1.000000 1.000000 1.000000 0.124901 -0.170648 -0.977384
1273 1 0.736409 -2.024407 -11.755421 0 1.000000 1.000000 1.000000 0.063153 -0.170666 -0.983303
1274 1 0.364615 -2.644429 -11.650671 0 1.000000 1.000000 1.000000 0.030501 -0.218543 -0.975350
1275 1 8.662413 1.283666 -8.137726 0 1.000000 1.000000 1.000000 0.721864 0.108633 -0.683456
1276 1 8.175374 1.316929 -8.619770 0 1.000000 1.000000 1.000000 0.685123 0.108620 -0.720284
1277 1 7.949219 0.669178 -8.899762 0 1.000000 1.000000 1.000000 0.662924 0.056523 -0.746550
1278 1 7.381969 0.683578 -9.372724 0 1.000000 1.000000 1.000000 0.618377 0.056516 -0.783847
1279 1 7.090594 -0.000000 -9.618293 0 1.000000 1.000000 1.000000 0.591895 0.000000 -0.806015
1280 1 6.445672 -0.000000 -10.060435 0 1.000000 1.000000 1.000000 0.539676 0.000000 -0.841873
1281 1 6.095040 -0.705141 -10.251981 0 1.000000 1.000000 1.000000 0.509410 -0.059226 -0.858483
1282 1 5.384197 -0.711754 -10.641203 0 1.000000 1.000000 1.000000 0.450572 -0.059223 -0.890774
1283 1 4.988627 -1.420131 -10.762573 0 1.000000 1.000000 1.000000 0.417556 -0.118869 -0.900842
1284 1 4.232614 -1.423472 -11.081069 0 1.000000 1.000000 1.000000 0.354065 -0.118867 -0.927636
1285 1 3.812990 -2.115525 -11.123646 0 1.000000 1.000000 1.000000 0.319741 -0.176449 -0.930931
1286 1 3.038395 -2.105813 -11.361899 0 1.000000 1.000000 1.000000 0.254167 -0.176454 -0.950927
1287 1 2.618033 -2.764195 -11.326660 0 1.000000 1.000000 1.000000 0.220102 -0.229781 -0.948027
1288 1 1.852182 -2.734018 -11.484915 0 1.000000 1.000000 1.000000 0.155112 -0.229798 -0.960798
1289 1 1.452061 -3.346286 -11.381456 0 1.000000 1.000000 1.000000 0.122693 -0.277359 -0.952900
1290 1 0.718138 -3.291897 -11.468180 0 1.000000 1.000000 1.000000 0.060552 -0.277386 -0.958848
1291 1 0.353523 -3.851511 -11.311440 0 1.000000 1.000000 1.000000 0.030774 -0.318484 -0.947429
1292 1 9.333815 0.617569 -7.446995 0 1.000000 1.000000 1.000000 0.777251 0.052348 -0.627009
1293 1 8.923628 0.635915 -7.930217 0 1.000000 1.000000 1.000000 0.748244 0.052342 -0.661356
1294 1 8.712464 -0.000000 -8.184869 0 1.000000 1.000000 1.000000 0.725938 0.000000 -0.687760
1295 1 8.225094 -0.000000 -8.672370 0 1.000000 1.000000 1.000000 0.689412 0.000000 -0.724369
1296 1 7.949219 -0.669178 -8.899762 0 1.000000 1.000000 1.000000 0.662924 -0.056523 -0.746550
1297 1 7.381969 -0.683578 -9.372724 0 1.000000 1.000000 1.000000 0.618377 -0.056516 -0.783847
1298 1 7.044000 -1.372921 -9.554970 0 1.000000 1.000000 1.000000 0.588153 -0.115657 -0.800437
1299 1 6.401992 -1.394484 -9.992085 0 1.000000 1.000000 1.000000 0.535840 -0.115646 -0.836362
1300 1 6.012473 -2.086872 -10.112935 0 1.000000 1.000000 1.000000 0.502849 -0.175251 -0.846422
1301 1 5.309950 -2.105907 -10.494201 0 1.000000 1.000000 1.000000 0.443955 -0.175240 -0.878746
1302 1 4.886826 -2.782561 -10.542894 0 1.000000 1.000000 1.000000 0.409603 -0.232881 -0.882039
1303 1 4.145880 -2.788838 -10.853844 0 1.000000 1.000000 1.000000 0.346156 -0.232877 -0.908815
1304 1 3.711486 -3.432528 -10.827877 0 1.000000 1.000000 1.000000 0.312038 -0.286305 -0.905904
1305 1 2.958234 -3.417596 -11.062440 0 1.000000 1.000000 1.000000 0.246557 -0.286314 -0.925869
1306 1 2.534814 -4.015464 -10.967881 0 1.000000 1.000000 1.000000 0.214148 -0.333881 -0.917967
1307 1 1.794491 -3.974331 -11.128642 0 1.000000 1.000000 1.000000 0.149145 -0.333904 -0.930733
1308 1 1.400135 -4.519268 -10.977930 0 1.000000 1.000000 1.000000 0.119553 -0.374767 -0.919379
1309 1 0.693089 -4.450837 -11.074003 0 1.000000 1.000000 1.000000 0.057112 -0.374801 -0.925344
1310 1 0.339567 -4.941182 -10.882492 0 1.000000 1.000000 1.000000 0.030970 -0.408879 -0.912063
1311 1 9.872304 0.000000 -6.749093 0 1.000000 1.000000 1.000000 0.821739 0.000000 -0.569865
1312 1 9.532837 0.000000 -7.218425 0 1.000000 1.000000 1.000000 0.799559 0.000000 -0.600588
1313 1 9.333815 -0.617569 -7.446995 0 1.000000 1.000000 1.000000 0.777251 -0.052348 -0.627009
1314 1 8.923628 -0.635915 -7.930217 0 1.000000 1.000000 1.000000 0.748244 -0.052342 -0.661356
1315 1 8.662413 -1.283666 -8.137726 0 1.000000 1.000000 1.000000 0.721864 -0.108633 -0.683456
1316 1 8.175374 -1.316929 -8.619770 0 1.000000 1.000000 1.000000 0.685123 -0.108620 -0.720284
1317 1 7.852051 -1.983061 -8.790725 0 1.000000 1.000000 1.000000 0.655055 -0.167452 -0.736792
1318 1 7.287927 -2.024654 -9.252964 0 1.000000 1.000000 1.000000 0.610208 -0.167433 -0.774346
1319 1 6.909500 -2.693574 -9.372188 0 1.000000 1.000000 1.000000 0.577333 -0.226831 -0.784369
1320 1 6.276054 -2.734230 -9.795044 0 1.000000 1.000000 1.000000 0.524802 -0.226809 -0.820451
1321 1 5.856857 -3.388417 -9.850876 0 1.000000 1.000000 1.000000 0.490447 -0.284461 -0.823738
1322 1 5.170153 -3.417714 -10.217460 0 1.000000 1.000000 1.000000 0.431545 -0.284445 -0.856072
1323 1 4.730088 -4.040525 -10.204649 0 1.000000 1.000000 1.000000 0.397289 -0.338104 -0.853140
1324 1 4.012368 -4.049061 -10.504116 0 1.000000 1.000000 1.000000 0.334064 -0.338099 -0.879824
1325 1 3.573276 -4.627490 -10.425072 0 1.000000 1.000000 1.000000 0.301445 -0.385995 -0.871859
1326 1 2.848973 -4.608825 -10.654274 0 1.000000 1.000000 1.000000 0.236303 -0.386006 -0.891718
1327 1 2.430538 -5.135177 -10.518091 0 1.000000 1.000000 1.000000 0.206546 -0.427117 -0.880290
1328 1 1.722022 -5.086753 -10.680986 0 1.000000 1.000000 1.000000 0.141803 -0.427143 -0.892995
1329 1 1.338814 -5.558751 -10.500814 0 1.000000 1.000000 1.000000 0.115671 -0.461227 -0.879710
1330 1 0.663404 -5.481611 -10.606247 0 1.000000 1.000000 1.000000 0.053217 -0.461265 -0.885665
1331 1 0.323837 -5.901277 -10.396283 0 1.000000 1.000000 1.000000 0.031001 -0.488703 -0.871899
1332 1 10.072446 -0.523979 -6.425256 0 1.000000 1.000000 1.000000 0.840898 -0.050161 -0.538863
1333 1 10.161247 -1.548678 -6.108182 0 1.000000 1.000000 1.000000 0.848740 -0.134812 -0.511338
1334 1 9.942843 -1.073410 -6.555021 0 1.000000 1.000000 1.000000 0.832448 -0.086106 -0.547371
1335 1 9.543679 -1.166999 -7.107429 0 1.000000 1.000000 1.000000 0.796392 -0.102459 -0.596039
1336 1 10.164568 -2.649027 -5.707188 0 1.000000 1.000000 1.000000 0.849516 -0.225565 -0.476910
1337 1 9.987897 -2.150375 -6.208195 0 1.000000 1.000000 1.000000 0.835883 -0.177101 -0.519552
1338 1 9.577795 -2.265466 -6.784734 0 1.000000 1.000000 1.000000 0.799826 -0.193441 -0.568207
1339 1 9.351981 -1.757358 -7.237128 0 1.000000 1.000000 1.000000 0.783541 -0.144752 -0.604243
1340 1 8.880902 -1.855678 -7.784203 0 1.000000 1.000000 1.000000 0.740883 -0.158426 -0.652682
1341 1 10.060457 -3.798620 -5.217449 0 1.000000 1.000000 1.000000 0.841358 -0.320296 -0.435348
1342 1 9.936136 -3.292807 -5.770797 0 1.000000 1.000000 1.000000 0.831166 -0.273726 -0.483981
1343 1 9.515820 -3.432237 -6.364948 0 1.000000 1.000000 1.000000 0.795275 -0.289976 -0.532402
1344 1 9.334151 -2.903548 -6.877879 0 1.000000 1.000000 1.000000 0.781589 -0.241321 -0.575225
1345 1 8.846642 -3.018662 -7.447701 0 1.000000 1.000000 1.000000 0.738752 -0.255043 -0.623858
1346 1 8.619207 -2.478900 -7.901632 0 1.000000 1.000000 1.000000 0.722546 -0.206595 -0.659732
1347 1 8.077395 -2.573021 -8.426110 0 1.000000 1.000000 1.000000 0.673906 -0.216805 -0.706291
1348 1 9.832855 -4.959870 -4.642099 0 1.000000 1.000000 1.000000 0.822871 -0.415996 -0.387080
1349 1 9.767707 -4.467494 -5.240595 0 1.000000 1.000000 1.000000 0.816671 -0.373095 -0.440282
1350 1 9.337824 -4.632389 -5.843484 0 1.000000 1.000000 1.000000 0.781003 -0.389231 -0.488399
1351 1 9.210258 -4.102946 -6.414490 0 1.000000 1.000000 1.000000 0.770758 -0.342421 -0.537290
1352 1 8.708627 -4.236066 -7.000261 0 1.000000 1.000000 1.000000 0.727926 -0.356132 -0.585913
1353 1 8.526680 -3.680472 -7.520542 0 1.000000 1.000000 1.000000 0.714242 -0.307492 -0.628735
1354 1 7.964903 -3.783877 -8.064917 0 1.000000 1.000000 1.000000 0.665346 -0.317751 -0.675536
1355 1 7.743053 -3.216189 -8.516555 0 1.000000 1.000000 1.000000 0.649239 -0.269616 -0.711194
1356 1 7.139281 -3.295149 -9.000394 0 1.000000 1.000000 1.000000 0.596040 -0.275807 -0.754100
1357 1 9.476593 -6.088176 -3.994019 0 1.000000 1.000000 1.000000 0.793559 -0.509098 -0.333291
1358 1 9.471384 -5.631253 -4.624891 0 1.000000 1.000000 1.000000 0.791512 -0.471446 -0.388906
1359 1 9.032698 -5.820179 -5.226109 0 1.000000 1.000000 1.000000 0.755998 -0.487500 -0.436819
1360 1 8.964287 -5.313690 -5.846206 0 1.000000 1.000000 1.000000 0.749777 -0.444447 -0.490205
1361 1 8.451597 -5.464408 -6.438991 0 1.000000 1.000000 1.000000 0.707020 -0.458125 -0.538743
1362 1 8.323504 -4.916227 -7.022040 0 1.000000 1.000000 1.000000 0.696760 -0.411251 -0.587705
1363 1 7.746457 -5.028607 -7.579932 0 1.000000 1.000000 1.000000 0.647794 -0.421521 -0.634573
1364 1 7.569803 -4.451851 -8.102528 0 1.000000 1.000000 1.000000 0.634131 -0.372974 -0.677324
1365 1 6.945826 -4.530420 -8.602739 0 1.000000 1.000000 1.000000 0.580747 -0.379189 -0.720381
1366 1 6.737154 -3.941406 -9.048967 0 1.000000 1.000000 1.000000 0.564703 -0.331270 -0.755891
1367 1 6.088176 -3.994019 -9.476593 0 1.000000 1.000000 1.000000 0.509098 -0.333291 -0.793559
1368 1 9.000394 -7.139281 -3.295149 0 1.000000 1.000000 1.000000 0.754100 -0.596040 -0.275807
1369 1 9.048967 -6.737154 -3.941406 0 1.000000 1.000000 1.000000 0.755891 -0.564703 -0.331270
1370 1 8.602739 -6.945826 -4.530420 0 1.000000 1.000000 1.000000 0.720381 -0.580747 -0.379189
1371 1 8.591680 -6.485773 -5.184251 0 1.000000 1.000000 1.000000 0.718335 -0.543095 -0.434791
1372 1 8.071768 -6.651636 -5.773947 0 1.000000 1.000000 1.000000 0.675620 -0.556751 -0.483286
1373 1 8.000097 -6.136759 -6.408589 0 1.000000 1.000000 1.000000 0.669396 -0.513666 -0.536709
1374 1 7.413889 -6.256843 -6.971937 0 1.000000 1.000000 1.000000 0.620434 -0.523931 -0.583573
1375 1 7.288343 -5.696871 -7.560231 0 1.000000 1.000000 1.000000 0.610173 -0.477065 -0.632533
1376 1 6.651636 -5.773947 -8.071768 0 1.000000 1.000000 1.000000 0.556751 -0.483286 -0.675620
1377 1 6.485773 -5.184251 -8.591680 0 1.000000 1.000000 1.000000 0.543095 -0.434791 -0.718335
1378 1 5.820179 -5.226109 -9.032698 0 1.000000 1.000000 1.000000 0.487500 -0.436819 -0.755998
1379 1 5.631253 -4.624891 -9.471384 0 1.000000 1.000000 1.000000 0.471446 -0.388906 -0.791512
1380 1 4.959870 -4.642099 -9.832855 0 1.000000 1.000000 1.000000 0.415996 -0.387080 -0.822871
1381 1 8.426110 -8.077395 -2.573021 0 1.000000 1.000000 1.000000 0.706291 -0.673906 -0.216805
1382 1 8.516555 -7.743053 -3.216189 0 1.000000 1.000000 1.000000 0.711194 -0.649239 -0.269616
1383 1 8.064917 -7.964903 -3.783877 0 1.000000 1.000000 1.000000 0.675536 -0.665346 -0.317751
1384 1 8.102528 -7.569803 -4.451851 0 1.000000 1.000000 1.000000 0.677324 -0.634131 -0.372974
1385 1 7.579932 -7.746457 -5.028607 0 1.000000 1.000000 1.000000 0.634573 -0.647794 -0.421521
1386 1 7.560231 -7.288343 -5.696871 0 1.000000 1.000000 1.000000 0.632533 -0.610173 -0.477065
1387 1 6.971937 -7.413889 -6.256843 0 1.000000 1.000000 1.000000 0.583573 -0.620434 -0.523931
1388 1 6.897266 -6.897266 -6.897266 0 1.000000 1.000000 1.000000 0.577350 -0.577350 -0.577350
1389 1 6.256843 -6.971937 -7.413889 0 1.000000 1.000000 1.000000 0.523931 -0.583573 -0.620434
1390 1 6.136759 -6.408589 -8.000097 0 1.000000 1.000000 1.000000 0.513666 -0.536709 -0.669396
1391 1 5.464408 -6.438991 -8.451597 0 1.000000 1.000000 1.000000 0.458125 -0.538743 -0.707020
1392 1 5.313690 -5.846206 -8.964287 0 1.000000 1.000000 1.000000 0.444447 -0.490205 -0.749777
1393 1 4.632389 -5.843484 -9.337824 0 1.000000 1.000000 1.000000 0.389231 -0.488399 -0.781003
1394 1 4.467494 -5.240595 -9.767707 0 1.000000 1.000000 1.000000 0.373095 -0.440282 -0.816671
1395 1 3.798620 -5.217449 -10.060457 0 1.000000 1.000000 1.000000 0.320296 -0.435348 -0.841358
1396 1 7.784203 -8.880902 -1.855678 0 1.000000 1.000000 1.000000 0.652682 -0.740883 -0.158426
1397 1 7.901632 -8.619207 -2.478900 0 1.000000 1.000000 1.000000 0.659732 -0.722546 -0.206595
1398 1 7.447701 -8.846642 -3.018662 0 1.000000 1.000000 1.000000 0.623858 -0.738752 -0.255043
1399 1 7.520542 -8.526680 -3.680472 0 1.000000 1.000000 1.000000 0.628735 -0.714242 -0.307492
1400 1 7.000261 -8.708627 -4.236066 0 1.000000 1.000000 1.000000 0.585913 -0.727926 -0.356132
1401 1 7.022040 -8.323504 -4.916227 0 1.000000 1.000000 1.000000 0.587705 -0.696760 -0.411251
1402 1 6.438991 -8.451597 -5.464408 0 1.000000 1.000000 1.000000 0.538743 -0.707020 -0.458125
1403 1 6.408589 -8.000097 -6.136759 0 1.000000 1.000000 1.000000 0.536709 -0.669396 -0.513666
1404 1 5.773947 -8.071768 -6.651636 0 1.000000 1.000000 1.000000 0.483286 -0.675620 -0.556751
1405 1 5.696871 -7.560231 -7.288343 0 1.000000 1.000000 1.000000 0.477065 -0.632533 -0.610173
1406 1 5.028607 -7.579932 -7.746457 0 1.000000 1.000000 1.000000 0.421521 -0.634573 -0.647794
1407 1 4.916227 -7.022040 -8.323504 0 1.000000 1.000000 1.000000 0.411251 -0.587705 -0.696760
1408 1 4.236066 -7.000261 -8.708627 0 1.000000 1.000000 1.000000 0.356132 -0.585913 -0.727926
1409 1 4.102946 -6.414490 -9.210258 0 1.000000 1.000000 1.000000 0.342421 -0.537290 -0.770758
1410 1 3.432237 -6.364948 -9.515820 0 1.000000 1.000000 1.000000 0.289976 -0.532402 -0.795275
1411 1 3.292807 -5.770797 -9.936136 0 1.000000 1.000000 1.000000 0.273726 -0.483981 -0.831166
1412 1 2.649027 -5.707188 -10.164568 0 1.000000 1.000000 1.000000 0.225565 -0.476910 -0.849516
1413 1 7.107429 -9.543679 -1.166999 0 1.000000 1.000000 1.000000 0.596039 -0.796392 -0.102459
1414 1 7.237128 -9.351981 -1.757358 0 1.000000 1.000000 1.000000 0.604243 -0.783541 -0.144752
1415 1 6.784734 -9.577795 -2.265466 0 1.000000 1.000000 1.000000 0.568207 -0.799826 -0.193441
1416 1 6.877879 -9.334151 -2.903548 0 1.000000 1.000000 1.000000 0.575225 -0.781589 -0.241321
1417 1 6.364948 -9.515820 -3.432237 0 1.000000 1.000000 1.000000 0.532402 -0.795275 -0.289976
1418 1 6.414490 -9.210258 -4.102946 0 1.000000 1.000000 1.000000 0.537290 -0.770758 -0.342421
1419 1 5.843484 -9.337824 -4.632389 0 1.000000 1.000000 1.000000 0.488399 -0.781003 -0.389231
1420 1 5.846206 -8.964287 -5.313690 0 1.000000 1.000000 1.000000 0.490205 -0.749777 -0.444447
1421 1 5.226109 -9.032698 -5.820179 0 1.000000 1.000000 1.000000 0.436819 -0.755998 -0.487500
1422 1 5.184251 -8.591680 -6.485773 0 1.000000 1.000000 1.000000 0.434791 -0.718335 -0.543095
1423 1 4.530420 -8.602739 -6.945826 0 1.000000 1.000000 1.000000 0.379189 -0.720381 -0.580747
1424 1 4.451851 -8.102528 -7.569803 0 1.000000 1.000000 1.000000 0.372974 -0.677324 -0.634131
1425 1 3.783877 -8.064917 -7.964903 0 1.000000 1.000000 1.000000 0.317751 -0.675536 -0.665346
1426 1 3.680472 -7.520542 -8.526680 0 1.000000 1.000000 1.000000 0.307492 -0.628735 -0.714242
1427 1 3.018662 -7.447701 -8.846642 0 1.000000 1.000000 1.000000 0.255043 -0.623858 -0.738752
1428 1 2.903548 -6.877879 -9.334151 0 1.000000 1.000000 1.000000 0.241321 -0.575225 -0.781589
1429 1 2.265466 -6.784734 -9.577795 0 1.000000 1.000000 1.000000 0.193441 -0.568207 -0.799826
1430 1 2.150375 -6.208195 -9.987897 0 1.000000 1.000000 1.000000 0.177101 -0.519552 -0.835883
1431 1 1.548678 -6.108182 -10.161247 0 1.000000 1.000000 1.000000 0.134812 -0.511338 -0.848740
1432 1 6.425256 -10.072446 -0.523979 0 1.000000 1.000000 1.000000 0.538863 -0.840898 -0.050161
1433 1 6.555021 -9.942843 -1.073410 0 1.000000 1.000000 1.000000 0.547371 -0.832448 -0.086106
1434 1 6.108182 -10.161247 -1.548678 0 1.000000 1.000000 1.000000 0.511338 -0.848740 -0.134812
1435 1 6.208195 -9.987897 -2.150375 0 1.000000 1.000000 1.000000 0.519552 -0.835883 -0.177101
1436 1 5.707188 -10.164568 -2.649027 0 1.000000 1.000000 1.000000 0.476910 -0.849516 -0.225565
1437 1 5.770797 -9.936136 -3.292807 0 1.000000 1.000000 1.000000 0.483981 -0.831166 -0.273726
1438 1 5.217449 -10.060457 -3.798620 0 1.000000 1.000000 1.000000 0.435348 -0.841358 -0.320296
1439 1 5.240595 -9.767707 -4.467494 0 1.000000 1.000000 1.000000 0.440282 -0.816671 -0.373095
1440 1 4.642099 -9.832855 -4.959870 0 1.000000 1.000000 1.000000 0.387080 -0.822871 -0.415996
1441 1 4.624891 -9.471384 -5.631253 0 1.000000 1.000000 1.000000 0.388906 -0.791512 -0.471446
1442 1 3.994019 -9.476593 -6.088176 0 1.000000 1.000000 1.000000 0.333291 -0.793559 -0.509098
1443 1 3.941406 -9.048967 -6.737154 0 1.000000 1.000000 1.000000 0.331270 -0.755891 -0.564703
1444 1 3.295149 -9.000394 -7.139281 0 1.000000 1.000000 1.000000 0.275807 -0.754100 -0.596040
1445 1 3.216189 -8.516555 -7.743053 0 1.000000 1.000000 1.000000 0.269616 -0.711194 -0.649239
1446 1 2.573021 -8.426110 -8.077395 0 1.000000 1.000000 1.000000 0.216805 -0.706291 -0.673906
1447 1 2.478900 -7.901632 -8.619207 0 1.000000 1.000000 1.000000 0.206595 -0.659732 -0.722546
1448 1 1.855678 -7.784203 -8.880902 0 1.000000 1.000000 1.000000 0.158426 -0.652682 -0.740883
1449 1 1.757358 -7.237128 -9.351981 0 1.000000 1.000000 1.000000 0.144752 -0.604243 -0.783541
1450 1 1.166999 -7.107429 -9.543679 0 1.000000 1.000000 1.000000 0.102459 -0.596039 -0.796392
1451 1 1.073410 -6.555021 -9.942843 0 1.000000 1.000000 1.000000 0.086106 -0.547371 -0.832448
1452 1 0.523979 -6.425256 -10.072446 0 1.000000 1.000000 1.000000 0.050161 -0.538863 -0.840898
1453 1 5.901277 -10.396283 -0.323837 0 1.000000 1.000000 1.000000 0.488703 -0.871899 -0.031001
1454 1 4.941182 -10.882492 -0.339567 0 1.000000 1.000000 1.000000 0.408879 -0.912063 -0.030970
1455 1 5.481611 -10.606247 -0.663404 0 1.000000 1.000000 1.000000 0.461265 -0.885665 -0.053217
1456 1 5.558751 -10.500814 -1.338814 0 1.000000 1.000000 1.000000 0.461227 -0.879710 -0.115671
1457 1 3.851511 -11.311440 -0.353523 0 1.000000 1.000000 1.000000 0.318484 -0.947429 -0.030774
1458 1 4.450837 -11.074003 -0.693089 0 1.000000 1.000000 1.000000 0.374801 -0.925344 -0.057112
1459 1 4.519268 -10.977930 -1.400135 0 1.000000 1.000000 1.000000 0.374767 -0.919379 -0.119553
1460 1 5.086753 -10.680986 -1.722022 0 1.000000 1.000000 1.000000 0.427143 -0.892995 -0.141803
1461 1 5.135177 -10.518091 -2.430538 0 1.000000 1.000000 1.000000 0.427117 -0.880290 -0.206546
1462 1 2.644429 -11.650671 -0.364615 0 1.000000 1.000000 1.000000 0.218543 -0.975350 -0.030501
1463 1 3.291897 -11.468180 -0.718138 0 1.000000 1.000000 1.000000 0.277386 -0.958848 -0.060552
1464 1 3.346286 -11.381456 -1.452061 0 1.000000 1.000000 1.000000 0.277359 -0.952900 -0.122693
1465 1 3.974331 -11.128642 -1.794491 0 1.000000 1.000000 1.000000 0.333904 -0.930733 -0.149145
1466 1 4.015464 -10.967881 -2.534814 0 1.000000 1.000000 1.000000 0.333881 -0.917967 -0.214148
1467 1 4.608825 -10.654274 -2.848973 0 1.000000 1.000000 1.000000 0.386006 -0.891718 -0.236303
1468 1 4.627490 -10.425072 -3.573276 0 1.000000 1.000000 1.000000 0.385995 -0.871859 -0.301445
1469 1 1.346950 -11.869369 -0.371794 0 1.000000 1.000000 1.000000 0.111273 -0.993329 -0.030269
1470 1 2.024407 -11.755421 -0.736409 0 1.000000 1.000000 1.000000 0.170666 -0.983303 -0.063153
1471 1 2.059607 -11.676389 -1.490053 0 1.000000 1.000000 1.000000 0.170648 -0.977384 -0.124901
1472 1 2.734018 -11.484915 -1.852182 0 1.000000 1.000000 1.000000 0.229798 -0.960798 -0.155112
1473 1 2.764195 -11.326660 -2.618033 0 1.000000 1.000000 1.000000 0.229781 -0.948027 -0.220102
1474 1 3.417596 -11.062440 -2.958234 0 1.000000 1.000000 1.000000 0.286314 -0.925869 -0.246557
1475 1 3.432528 -10.827877 -3.711486 0 1.000000 1.000000 1.000000 0.286305 -0.905904 -0.312038
1476 1 4.049061 -10.504116 -4.012368 0 1.000000 1.000000 1.000000 0.338099 -0.879824 -0.334064
1477 1 4.040525 -10.204649 -4.730088 0 1.000000 1.000000 1.000000 0.338104 -0.853140 -0.397289
1478 1 0.000000 -11.945033 -0.374282 0 1.000000 1.000000 1.000000 -0.000000 -0.999545 -0.030178
1479 1 0.683484 -11.907307 -0.746076 0 1.000000 1.000000 1.000000 0.057636 -0.996248 -0.064561
1480 1 0.695688 -11.832652 -1.510196 0 1.000000 1.000000 1.000000 0.057630 -0.990350 -0.126041
1481 1 1.394354 -11.715682 -1.889557 0 1.000000 1.000000 1.000000 0.117231 -0.980288 -0.159038
1482 1 1.410384 -11.559447 -2.672049 0 1.000000 1.000000 1.000000 0.117222 -0.967535 -0.223910
1483 1 2.105813 -11.361899 -3.038395 0 1.000000 1.000000 1.000000 0.176454 -0.950927 -0.254167
1484 1 2.115525 -11.123646 -3.812990 0 1.000000 1.000000 1.000000 0.176449 -0.930931 -0.319741
1485 1 2.788838 -10.853844 -4.145880 0 1.000000 1.000000 1.000000 0.232877 -0.908815 -0.346156
1486 1 2.782561 -10.542894 -4.886826 0 1.000000 1.000000 1.000000 0.232881 -0.882039 -0.409603
1487 1 3.417714 -10.217460 -5.170153 0 1.000000 1.000000 1.000000 0.284445 -0.856072 -0.431545
1488 1 3.388417 -9.850876 -5.856857 0 1.000000 1.000000 1.000000 0.284461 -0.823738 -0.490447
1489 1 -1.346950 -11.869369 -0.371794 0 1.000000 1.000000 1.000000 -0.111273 -0.993329 -0.030269
1490 1 -0.683484 -11.907307 -0.746076 0 1.000000 1.000000 1.000000 -0.057636 -0.996248 -0.064561
1491 1 -0.695688 -11.832652 -1.510196 0 1.000000 1.000000 1.000000 -0.057630 -0.990350 -0.126041
1492 1 0.000000 -11.795723 -1.902521 0 1.000000 1.000000 1.000000 -0.000000 -0.987050 -0.160411
1493 1 0.000000 -11.640263 -2.690806 0 1.000000 1.000000 1.000000 -0.000000 -0.974307 -0.225222
1494 1 0.711718 -11.520957 -3.080972 0 1.000000 1.000000 1.000000 0.059644 -0.964238 -0.258241
1495 1 0.715094 -11.280831 -3.866942 0 1.000000 1.000000 1.000000 0.059642 -0.944241 -0.323807
1496 1 1.423472 -11.081069 -4.232614 0 1.000000 1.000000 1.000000 0.118867 -0.927636 -0.354065
1497 1 1.420131 -10.762573 -4.988627 0 1.000000 1.000000 1.000000 0.118869 -0.900842 -0.417556
1498 1 2.105907 -10.494201 -5.309950 0 1.000000 1.000000 1.000000 0.175240 -0.878746 -0.443955
1499 1 2.086872 -10.112935 -6.012473 0 1.000000 1.000000 1.000000 0.175251 -0.846422 -0.502849
1500 1 2.734230 -9.795044 -6.276054 0 1.000000 1.000000 1.000000 0.226809 -0.820451 -0.524802
1501 1 2.693574 -9.372188 -6.909500 0 1.000000 1.000000 1.000000 0.226831 -0.784369 -0.577333
1502 1 -2.644429 -11.650671 -0.364615 0 1.000000 1.000000 1.000000 -0.218543 -0.975350 -0.030501
1503 1 -2.024407 -11.755421 -0.736409 0 1.000000 1.000000 1.000000 -0.170666 -0.983303 -0.063153
1504 1 -2.059607 -11.676389 -1.490053 0 1.000000 1.000000 1.000000 -0.170648 -0.977384 -0.124901
1505 1 -1.394354 -11.715682 -1.889557 0 1.000000 1.000000 1.000000 -0.117231 -0.980288 -0.159038
1506 1 -1.410384 -11.559447 -2.672049 0 1.000000 1.000000 1.000000 -0.117222 -0.967535 -0.223910
1507 1 -0.711718 -11.520957 -3.080972 0 1.000000 1.000000 1.000000 -0.059644 -0.964238 -0.258241
1508 1 -0.715094 -11.280831 -3.866942 0 1.000000 1.000000 1.000000 -0.059642 -0.944241 -0.323807
1509 1 0.000000 -11.160011 -4.262745 0 1.000000 1.000000 1.000000 -0.000000 -0.934172 -0.356822
1510 1 -0.000000 -10.838878 -5.023988 0 1.000000 1.000000 1.000000 -0.000000 -0.907380 -0.420311
1511 1 0.711754 -10.641203 -5.384197 0 1.000000 1.000000 1.000000 0.059223 -0.890774 -0.450572
1512 1 0.705141 -10.251981 -6.095040 0 1.000000 1.000000 1.000000 0.059226 -0.858483 -0.509410
1513 1 1.394484 -9.992085 -6.401992 0 1.000000 1.000000 1.000000 0.115646 -0.836362 -0.535840
1514 1 1.372921 -9.554970 -7.044000 0 1.000000 1.000000 1.000000 0.115657 -0.800437 -0.588153
1515 1 2.024654 -9.252964 -7.287927 0 1.000000 1.000000 1.000000 0.167433 -0.774346 -0.610208
1516 1 1.983061 -8.790725 -7.852051 0 1.000000 1.000000 1.000000 0.167452 -0.736792 -0.655055
1517 1 -3.851511 -11.311440 -0.353523 0 1.000000 1.000000 1.000000 -0.318484 -0.947429 -0.030774
1518 1 -3.291897 -11.468180 -0.718138 0 1.000000 1.000000 1.000000 -0.277386 -0.958848 -0.060552
1519 1 -3.346286 -11.381456 -1.452061 0 1.000000 1.000000 1.000000 -0.277359 -0.952900 -0.122693
1520 1 -2.734018 -11.484915 -1.852182 0 1.000000 1.000000 1.000000 -0.229798 -0.960798 -0.155112
1521 1 -2.764195 -11.326660 -2.618033 0 1.000000 1.000000 1.000000 -0.229781 -0.948027 -0.220102
1522 1 -2.105813 -11.361899 -3.038395 0 1.000000 1.000000 1.000000 -0.176454 -0.950927 -0.254167
1523 1 -2.115525 -11.123646 -3.812990 0 1.000000 1.000000 1.000000 -0.176449 -0.930931 -0.319741
1524 1 -1.423472 -11.081069 -4.232614 0 1.000000 1.000000 1.000000 -0.118867 -0.927636 -0.354065
1525 1 -1.420131 -10.762573 -4.988627 0 1.000000 1.000000 1.000000 -0.118869 -0.900842 -0.417556
1526 1 -0.711754 -10.641203 -5.384197 0 1.000000 1.000000 1.000000 -0.059223 -0.890774 -0.450572
1527 1 -0.705141 -10.251981 -6.095040 0 1.000000 1.000000 1.000000 -0.059226 -0.858483 -0.509410
1528 1 -0.000000 -10.060435 -6.445672 0 1.000000 1.000000 1.000000 0.000000 -0.841873 -0.539676
1529 1 -0.000000 -9.618293 -7.090594 0 1.000000 1.000000 1.000000 -0.000000 -0.806015 -0.591895
1530 1 0.683578 -9.372724 -7.381969 0 1.000000 1.000000 1.000000 0.056516 -0.783847 -0.618377
1531 1 0.669178 -8.899762 -7.949219 0 1.000000 1.000000 1.000000 0.056523 -0.746550 -0.662924
1532 1 1.316929 -8.619770 -8.175374 0 1.000000 1.000000 1.000000 0.108620 -0.720284 -0.685123
1533 1 1.283666 -8.137726 -8.662413 0 1.000000 1.000000 1.000000 0.108633 -0.683456 -0.721864
1534 1 -4.941182 -10.882492 -0.339567 0 1.000000 1.000000 1.000000 -0.408879 -0.912063 -0.030970
1535 1 -4.450837 -11.074003 -0.693089 0 1.000000 1.000000 1.000000 -0.374801 -0.925344 -0.057112
1536 1 -4.519268 -10.977930 -1.400135 0 1.000000 1.000000 1.000000 -0.374767 -0.919379 -0.119553
1537 1 -3.974331 -11.128642 -1.794491 0 1.000000 1.000000 1.000000 -0.333904 -0.930733 -0.149145
1538 1 -4.015464 -10.967881 -2.534814 0 1.000000 1.000000 1.000000 -0.333881 -0.917967 -0.214148
1539 1 -3.417596 -11.062440 -2.958234 0 1.000000 1.000000 1.000000 -0.286314 -0.925869 -0.246557
1540 1 -3.432528 -10.827877 -3.711486 0 1.000000 1.000000 1.000000 -0.286305 -0.905904 -0.312038
1541 1 -2.788838 -10.853844 -4.145880 0 1.000000 1.000000 1.000000 -0.232877 -0.908815 -0.346156
1542 1 -2.782561 -10.542894 -4.886826 0 1.000000 1.000000 1.000000 -0.232881 -0.882039 -0.409603
1543 1 -2.105907 -10.494201 -5.309950 0 1.000000 1.000000 1.000000 -0.175240 -0.878746 -0.443955
1544 1 -2.086872 -10.112935 -6.012473 0 1.000000 1.000000 1.000000 -0.175251 -0.846422 -0.502849
1545 1 -1.394484 -9.992085 -6.401992 0 1.000000 1.000000 1.000000 -0.115646 -0.836362 -0.535840
1546 1 -1.372921 -9.554970 -7.044000 0 1.000000 1.000000 1.000000 -0.115657 -0.800437 -0.588153
1547 1 -0.683578 -9.372724 -7.381969 0 1.000000 1.000000 1.000000 -0.056516 -0.783847 -0.618377
1548 1 -0.669178 -8.899762 -7.949219 0 1.000000 1.000000 1.000000 -0.056523 -0.746550 -0.662924
1549 1 -0.000000 -8.672370 -8.225094 0 1.000000 1.000000 1.000000 0.000000 -0.724369 -0.689412
1550 1 -0.000000 -8.184869 -8.712464 0 1.000000 1.000000 1.000000 -0.000000 -0.687760 -0.725938
1551 1 0.635915 -7.930217 -8.923628 0 1.000000 1.000000 1.000000 0.052342 -0.661356 -0.748244
1552 1 0.617569 -7.446995 -9.333815 0 1.000000 1.000000 1.000000 0.052348 -0.627009 -0.777251
1553 1 -5.901277 -10.396283 -0.323837 0 1.000000 1.000000 1.000000 -0.488703 -0.871899 -0.031001
1554 1 -5.481611 -10.606247 -0.663404 0 1.000000 1.000000 1.000000 -0.461265 -0.885665 -0.053217
1555 1 -5.558751 -10.500814 -1.338814 0 1.000000 1.000000 1.000000 -0.461227 -0.879710 -0.115671
1556 1 -5.086753 -10.680986 -1.722022 0 1.000000 1.000000 1.000000 -0.427143 -0.892995 -0.141803
1557 1 -5.135177 -10.518091 -2.430538 0 1.000000 1.000000 1.000000 -0.427117 -0.880290 -0.206546
1558 1 -4.608825 -10.654274 -2.848973 0 1.000000 1.000000 1.000000 -0.386006 -0.891718 -0.236303
1559 1 -4.627490 -10.425072 -3.573276 0 1.000000 1.000000 1.000000 -0.385995 -0.871859 -0.301445
1560 1 -4.049061 -10.504116 -4.012368 0 1.000000 1.000000 1.000000 -0.338099 -0.879824 -0.334064
1561 1 -4.040525 -10.204649 -4.730088 0 1.000000 1.000000 1.000000 -0.338104 -0.853140 -0.397289
1562 1 -3.417714 -10.217460 -5.170153 0 1.000000 1.000000 1.000000 -0.284445 -0.856072 -0.431545
1563 1 -3.388417 -9.850876 -5.856857 0 1.000000 1.000000 1.000000 -0.284461 -0.823738 -0.490447
1564 1 -2.734230 -9.795044 -6.276054 0 1.000000 1.000000 1.000000 -0.226809 -0.820451 -0.524802
1565 1 -2.693574 -9.372188 -6.909500 0 1.000000 1.000000 1.000000 -0.226831 -0.784369 -0.577333
1566 1 -2.024654 -9.252964 -7.287927 0 1.000000 1.000000 1.000000 -0.167433 -0.774346 -0.610208
1567 1 -1.983061 -8.790725 -7.852051 0 1.000000 1.000000 1.000000 -0.167452 -0.736792 -0.655055
1568 1 -1.316929 -8.619770 -8.175374 0 1.000000 1.000000 1.000000 -0.108620 -0.720284 -0.685123
1569 1 -1.283666 -8.137726 -8.662413 0 1.000000 1.000000 1.000000 -0.108633 -0.683456 -0.721864
1570 1 -0.635915 -7.930217 -8.923628 0 1.000000 1.000000 1.000000 -0.052342 -0.661356 -0.748244
1571 1 -0.617569 -7.446995 -9.333815 0 1.000000 1.000000 1.000000 -0.052348 -0.627009 -0.777251
1572 1 0.000000 -7.218425 -9.532837 0 1.000000 1.000000 1.000000 0.000000 -0.600588 -0.799559
1573 1 0.000000 -6.749093 -9.872304 0 1.000000 1.000000 1.000000 -0.000000 -0.569865 -0.821739
1574 1 -6.425256 -10.072446 -0.523979 0 1.000000 1.000000 1.000000 -0.538863 -0.840898 -0.050161
1575 1 -7.107429 -9.543679 -1.166999 0 1.000000 1.000000 1.000000 -0.596039 -0.796392 -0.102459
1576 1 -6.555021 -9.942843 -1.073410 0 1.000000 1.000000 1.000000 -0.547371 -0.832448 -0.086106
1577 1 -6.108182 -10.161247 -1.548678 0 1.000000 1.000000 1.000000 -0.511338 -0.848740 -0.134812
1578 1 -7.784203 -8.880902 -1.855678 0 1.000000 1.000000 1.000000 -0.652682 -0.740883 -0.158426
1579 1 -7.237128 -9.351981 -1.757358 0 1.000000 1.000000 1.000000 -0.604243 -0.783541 -0.144752
1580 1 -6.784734 -9.577795 -2.265466 0 1.000000 1.000000 1.000000 -0.568207 -0.799826 -0.193441
1581 1 -6.208195 -9.987897 -2.150375 0 1.000000 1.000000 1.000000 -0.519552 -0.835883 -0.177101
1582 1 -5.707188 -10.164568 -2.649027 0 1.000000 1.000000 1.000000 -0.476910 -0.849516 -0.225565
1583 1 -8.426110 -8.077395 -2.573021 0 1.000000 1.000000 1.000000 -0.706291 -0.673906 -0.216805
1584 1 -7.901632 -8.619207 -2.478900 0 1.000000 1.000000 1.000000 -0.659732 -0.722546 -0.206595
1585 1 -7.447701 -8.846642 -3.018662 0 1.000000 1.000000 1.000000 -0.623858 -0.738752 -0.255043
1586 1 -6.877879 -9.334151 -2.903548 0 1.000000 1.000000 1.000000 -0.575225 -0.781589 -0.241321
1587 1 -6.364948 -9.515820 -3.432237 0 1.000000 1.000000 1.000000 -0.532402 -0.795275 -0.289976
1588 1 -5.770797 -9.936136 -3.292807 0 1.000000 1.000000 1.000000 -0.483981 -0.831166 -0.273726
1589 1 -5.217449 -10.060457 -3.798620 0 1.000000 1.000000 1.000000 -0.435348 -0.841358 -0.320296
1590 1 -9.000394 -7.139281 -3.295149 0 1.000000 1.000000 1.000000 -0.754100 -0.596040 -0.275807
1591 1 -8.516555 -7.743053 -3.216189 0 1.000000 1.000000 1.000000 -0.711194 -0.649239 -0.269616
1592 1 -8.064917 -7.964903 -3.783877 0 1.000000 1.000000 1.000000 -0.675536 -0.665346 -0.317751
1593 1 -7.520542 -8.526680 -3.680472 0 1.000000 1.000000 1.000000 -0.628735 -0.714242 -0.307492
1594 1 -7.000261 -8.708627 -4.236066 0 1.000000 1.000000 1.000000 -0.585913 -0.727926 -0.356132
1595 1 -6.414490 -9.210258 -4.102946 0 1.000000 1.000000 1.000000 -0.537290 -0.770758 -0.342421
1596 1 -5.843484 -9.337824 -4.632389 0 1.000000 1.000000 1.000000 -0.488399 -0.781003 -0.389231
1597 1 -5.240595 -9.767707 -4.467494 0 1.000000 1.000000 1.000000 -0.440282 -0.816671 -0.373095
1598 1 -4.642099 -9.832855 -4.959870 0 1.000000 1.000000 1.000000 -0.387080 -0.822871 -0.415996
1599 1 -9.476593 -6.088176 -3.994019 0 1.000000 1.000000 1.000000 -0.793559 -0.509098 -0.333291
1600 1 -9.048967 -6.737154 -3.941406 0 1.000000 1.000000 1.000000 -0.755891 -0.564703 -0.331270
1601 1 -8.602739 -6.945826 -4.530420 0 1.000000 1.000000 1.000000 -0.720381 -0.580747 -0.379189
1602 1 -8.102528 -7.569803 -4.451851 0 1.000000 1.000000 1.000000 -0.677324 -0.634131 -0.372974
1603 1 -7.579932 -7.746457 -5.028607 0 1.000000 1.000000 1.000000 -0.634573 -0.647794 -0.421521
1604 1 -7.022040 -8.323504 -4.916227 0 1.000000 1.000000 1.000000 -0.587705 -0.696760 -0.411251
1605 1 -6.438991 -8.451597 -5.464408 0 1.000000 1.000000 1.000000 -0.538743 -0.707020 -0.458125
1606 1 -5.846206 -8.964287 -5.313690 0 1.000000 1.000000 1.000000 -0.490205 -0.749777 -0.444447
1607 1 -5.226109 -9.032698 -5.820179 0 1.000000 1.000000 1.000000 -0.436819 -0.755998 -0.487500
1608 1 -4.624891 -9.471384 -5.631253 0 1.000000 1.000000 1.000000 -0.388906 -0.791512 -0.471446
1609 1 -3.994019 -9.476593 -6.088176 0 1.000000 1.000000 1.000000 -0.333291 -0.793559 -0.509098
1610 1 -9.832855 -4.959870 -4.642099 0 1.000000 1.000000 1.000000 -0.822871 -0.415996 -0.387080
1611 1 -9.471384 -5.631253 -4.624891 0 1.000000 1.000000 1.000000 -0.791512 -0.471446 -0.388906
1612 1 -9.032698 -5.820179 -5.226109 0 1.000000 1.000000 1.000000 -0.755998 -0.487500 -0.436819
1613 1 -8.591680 -6.485773 -5.184251 0 1.000000 1.000000 1.000000 -0.718335 -0.543095 -0.434791
1614 1 -8.071768 -6.651636 -5.773947 0 1.000000 1.000000 1.000000 -0.675620 -0.556751 -0.483286
1615 1 -7.560231 -7.288343 -5.696871 0 1.000000 1.000000 1.000000 -0.632533 -0.610173 -0.477065
1616 1 -6.971937 -7.413889 -6.256843 0 1.000000 1.000000 1.000000 -0.583573 -0.620434 -0.523931
1617 1 -6.408589 -8.000097 -6.136759 0 1.000000 1.000000 1.000000 -0.536709 -0.669396 -0.513666
1618 1 -5.773947 -8.071768 -6.651636 0 1.000000 1.000000 1.000000 -0.483286 -0.675620 -0.556751
1619 1 -5.184251 -8.591680 -6.485773 0 1.000000 1.000000 1.000000 -0.434791 -0.718335 -0.543095
1620 1 -4.530420 -8.602739 -6.945826 0 1.000000 1.000000 1.000000 -0.379189 -0.720381 -0.580747
1621 1 -3.941406 -9.048967 -6.737154 0 1.000000 1.000000 1.000000 -0.331270 -0.755891 -0.564703
1622 1 -3.295149 -9.000394 -7.139281 0 1.000000 1.000000 1.000000 -0.275807 -0.754100 -0.596040
1623 1 -10.060457 -3.798620 -5.217449 0 1.000000 1.000000 1.000000 -0.841358 -0.320296 -0.435348
1624 1 -9.767707 -4.467494 -5.240595 0 1.000000 1.000000 1.000000 -0.816671 -0.373095 -0.440282
1625 1 -9.337824 -4.632389 -5.843484 0 1.000000 1.000000 1.000000 -0.781003 -0.389231 -0.488399
1626 1 -8.964287 -5.313690 -5.846206 0 1.000000 1.000000 1.000000 -0.749777 -0.444447 -0.490205
1627 1 -8.451597 -5.464408 -6.438991 0 1.000000 1.000000 1.000000 -0.707020 -0.458125 -0.538743
1628 1 -8.000097 -6.136759 -6.408589 0 1.000000 1.000000 1.000000 -0.669396 -0.513666 -0.536709
1629 1 -7.413889 -6.256843 -6.971937 0 1.000000 1.000000 1.000000 -0.620434 -0.523931 -0.583573
1630 1 -6.897266 -6.897266 -6.897266 0 1.000000 1.000000 1.000000 -0.577350 -0.577350 -0.577350
1631 1 -6.256843 -6.971937 -7.413889 0 1.000000 1.000000 1.000000 -0.523931 -0.583573 -0.620434
1632 1 -5.696871 -7.560231 -7.288343 0 1.000000 1.000000 1.000000 -0.477065 -0.632533 -0.610173
1633 1 -5.028607 -7.579932 -7.746457 0 1.000000 1.000000 1.000000 -0.421521 -0.634573 -0.647794
1634 1 -4.451851 -8.102528 -7.569803 0 1.000000 1.000000 1.000000 -0.372974 -0.677324 -0.634131
1635 1 -3.783877 -8.064917 -7.964903 0 1.000000 1.000000 1.000000 -0.317751 -0.675536 -0.665346
1636 1 -3.216189 -8.516555 -7.743053 0 1.000000 1.000000 1.000000 -0.269616 -0.711194 -0.649239
1637 1 -2.573021 -8.426110 -8.077395 0 1.000000 1.000000 1.000000 -0.216805 -0.706291 -0.673906
1638 1 -10.164568 -2.649027 -5.707188 0 1.000000 1.000000 1.000000 -0.849516 -0.225565 -0.476910
1639 1 -9.936136 -3.292807 -5.770797 0 1.000000 1.000000 1.000000 -0.831166 -0.273726 -0.483981
1640 1 -9.515820 -3.432237 -6.364948 0 1.000000 1.000000 1.000000 -0.795275 -0.289976 -0.532402
1641 1 -9.210258 -4.102946 -6.414490 0 1.000000 1.000000 1.000000 -0.770758 -0.342421 -0.537290
1642 1 -8.708627 -4.236066 -7.000261 0 1.000000 1.000000 1.000000 -0.727926 -0.356132 -0.585913
1643 1 -8.323504 -4.916227 -7.022040 0 1.000000 1.000000 1.000000 -0.696760 -0.411251 -0.587705
1644 1 -7.746457 -5.028607 -7.579932 0 1.000000 1.000000 1.000000 -0.647794 -0.421521 -0.634573
1645 1 -7.288343 -5.696871 -7.560231 0 1.000000 1.000000 1.000000 -0.610173 -0.477065 -0.632533
1646 1 -6.651636 -5.773947 -8.071768 0 1.000000 1.000000 1.000000 -0.556751 -0.483286 -0.675620
1647 1 -6.136759 -6.408589 -8.000097 0 1.000000 1.000000 1.000000 -0.513666 -0.536709 -0.669396
1648 1 -5.464408 -6.438991 -8.451597 0 1.000000 1.000000 1.000000 -0.458125 -0.538743 -0.707020
1649 1 -4.916227 -7.022040 -8.323504 0 1.000000 1.000000 1.000000 -0.411251 -0.587705 -0.696760
1650 1 -4.236066 -7.000261 -8.708627 0 1.000000 1.000000 1.000000 -0.356132 -0.585913 -0.727926
1651 1 -3.680472 -7.520542 -8.526680 0 1.000000 1.000000 1.000000 -0.307492 -0.628735 -0.714242
1652 1 -3.018662 -7.447701 -8.846642 0 1.000000 1.000000 1.000000 -0.255043 -0.623858 -0.738752
1653 1 -2.478900 -7.901632 -8.619207 0 1.000000 1.000000 1.000000 -0.206595 -0.659732 -0.722546
1654 1 -1.855678 -7.784203 -8.880902 0 1.000000 1.000000 1.000000 -0.158426 -0.652682 -0.740883
1655 1 -10.161247 -1.548678 -6.108182 0 1.000000 1.000000 1.000000 -0.848740 -0.134812 -0.511338
1656 1 -9.987897 -2.150375 -6.208195 0 1.000000 1.000000 1.000000 -0.835883 -0.177101 -0.519552
1657 1 -9.577795 -2.265466 -6.784734 0 1.000000 1.000000 1.000000 -0.799826 -0.193441 -0.568207
1658 1 -9.334151 -2.903548 -6.877879 0 1.000000 1.000000 1.000000 -0.781589 -0.241321 -0.575225
1659 1 -8.846642 -3.018662 -7.447701 0 1.000000 1.000000 1.000000 -0.738752 -0.255043 -0.623858
1660 1 -8.526680 -3.680472 -7.520542 0 1.000000 1.000000 1.000000 -0.714242 -0.307492 -0.628735
1661 1 -7.964903 -3.783877 -8.064917 0 1.000000 1.000000 1.000000 -0.665346 -0.317751 -0.675536
1662 1 -7.569803 -4.451851 -8.102528 0 1.000000 1.000000 1.000000 -0.634131 -0.372974 -0.677324
1663 1 -6.945826 -4.530420 -8.602739 0 1.000000 1.000000 1.000000 -0.580747 -0.379189 -0.720381
1664 1 -6.485773 -5.184251 -8.591680 0 1.000000 1.000000 1.000000 -0.543095 -0.434791 -0.718335
1665 1 -5.820179 -5.226109 -9.032698 0 1.000000 1.000000 1.000000 -0.487500 -0.436819 -0.755998
1666 1 -5.313690 -5.846206 -8.964287 0 1.000000 1.000000 1.000000 -0.444447 -0.490205 -0.749777
1667 1 -4.632389 -5.843484 -9.337824 0 1.000000 1.000000 1.000000 -0.389231 -0.488399 -0.781003
1668 1 -4.102946 -6.414490 -9.210258 0 1.000000 1.000000 1.000000 -0.342421 -0.537290 -0.770758
1669 1 -3.432237 -6.364948 -9.515820 0 1.000000 1.000000 1.000000 -0.289976 -0.532402 -0.795275
1670 1 -2.903548 -6.877879 -9.334151 0 1.000000 1.000000 1.000000 -0.241321 -0.575225 -0.781589
1671 1 -2.265466 -6.784734 -9.577795 0 1.000000 1.000000 1.000000 -0.193441 -0.568207 -0.799826
1672 1 -1.757358 -7.237128 -9.351981 0 1.000000 1.000000 1.000000 -0.144752 -0.604243 -0.783541
1673 1 -1.166999 -7.107429 -9.543679 0 1.000000 1.000000 1.000000 -0.102459 -0.596039 -0.796392
1674 1 -10.072446 -0.523979 -6.425256 0 1.000000 1.000000 1.000000 -0.840898 -0.050161 -0.538863
1675 1 -9.942843 -1.073410 -6.555021 0 1.000000 1.000000 1.000000 -0.832448 -0.086106 -0.547371
1676 1 -9.543679 -1.166999 -7.107429 0 1.000000 1.000000 1.000000 -0.796392 -0.102459 -0.596039
1677 1 -9.351981 -1.757358 -7.237128 0 1.000000 1.000000 1.000000 -0.783541 -0.144752 -0.604243
1678 1 -8.880902 -1.855678 -7.784203 0 1.000000 1.000000 1.000000 -0.740883 -0.158426 -0.652682
1679 1 -8.619207 -2.478900 -7.901632 0 1.000000 1.000000 1.000000 -0.722546 -0.206595 -0.659732
1680 1 -8.077395 -2.573021 -8.426110 0 1.000000 1.000000 1.000000 -0.673906 -0.216805 -0.706291
1681 1 -7.743053 -3.216189 -8.516555 0 1.000000 1.000000 1.000000 -0.649239 -0.269616 -0.711194
1682 1 -7.139281 -3.295149 -9.000394 0 1.000000 1.000000 1.000000 -0.596040 -0.275807 -0.754100
1683 1 -6.737154 -3.941406 -9.048967 0 1.000000 1.000000 1.000000 -0.564703 -0.331270 -0.755891
1684 1 -6.088176 -3.994019 -9.476593 0 1.000000 1.000000 1.000000 -0.509098 -0.333291 -0.793559
1685 1 -5.631253 -4.624891 -9.471384 0 1.000000 1.000000 1.000000 -0.471446 -0.388906 -0.791512
1686 1 -4.959870 -4.642099 -9.832855 0 1.000000 1.000000 1.000000 -0.415996 -0.387080 -0.822871
1687 1 -4.467494 -5.240595 -9.767707 0 1.000000 1.000000 1.000000 -0.373095 -0.440282 -0.816671
1688 1 -3.798620 -5.217449 -10.060457 0 1.000000 1.000000 1.000000 -0.320296 -0.435348 -0.841358
1689 1 -3.292807 -5.770797 -9.936136 0 1.000000 1.000000 1.000000 -0.273726 -0.483981 -0.831166
1690 1 -2.649027 -5.707188 -10.164568 0 1.000000 1.000000 1.000000 -0.225565 -0.476910 -0.849516
1691 1 -2.150375 -6.208195 -9.987897 0 1.000000 1.000000 1.000000 -0.177101 -0.519552 -0.835883
1692 1 -1.548678 -6.108182 -10.161247 0 1.000000 1.000000 1.000000 -0.134812 -0.511338 -0.848740
1693 1 -1.073410 -6.555021 -9.942843 0 1.000000 1.000000 1.000000 -0.086106 -0.547371 -0.832448
1694 1 -0.523979 -6.425256 -10.072446 0 1.000000 1.000000 1.000000 -0.050161 -0.538863 -0.840898
1695 1 -9.872304 0.000000 -6.749093 0 1.000000 1.000000 1.000000 -0.821739 0.000000 -0.569865
1696 1 -9.333815 0.617569 -7.446995 0 1.000000 1.000000 1.000000 -0.777251 0.052348 -0.627009
1697 1 -9.532837 0.000000 -7.218425 0 1.000000 1.000000 1.000000 -0.799559 -0.000000 -0.600588
1698 1 -9.333815 -0.617569 -7.446995 0 1.000000 1.000000 1.000000 -0.777251 -0.052348 -0.627009
1699 1 -8.662413 1.283666 -8.137726 0 1.000000 1.000000 1.000000 -0.721864 0.108633 -0.683456
1700 1 -8.923628 0.635915 -7.930217 0 1.000000 1.000000 1.000000 -0.748244 0.052342 -0.661356
1701 1 -8.712464 0.000000 -8.184869 0 1.000000 1.000000 1.000000 -0.725938 0.000000 -0.687760
1702 1 -8.923628 -0.635915 -7.930217 0 1.000000 1.000000 1.000000 -0.748244 -0.052342 -0.661356
1703 1 -8.662413 -1.283666 -8.137726 0 1.000000 1.000000 1.000000 -0.721864 -0.108633 -0.683456
1704 1 -7.852051 1.983061 -8.790725 0 1.000000 1.000000 1.000000 -0.655055 0.167452 -0.736792
1705 1 -8.175374 1.316929 -8.619770 0 1.000000 1.000000 1.000000 -0.685123 0.108620 -0.720284
1706 1 -7.949219 0.669178 -8.899762 0 1.000000 1.000000 1.000000 -0.662924 0.056523 -0.746550
1707 1 -8.225094 0.000000 -8.672370 0 1.000000 1.000000 1.000000 -0.689412 -0.000000 -0.724369
1708 1 -7.949219 -0.669178 -8.899762 0 1.000000 1.000000 1.000000 -0.662924 -0.056523 -0.746550
1709 1 -8.175374 -1.316929 -8.619770 0 1.000000 1.000000 1.000000 -0.685123 -0.108620 -0.720284
1710 1 -7.852051 -1.983061 -8.790725 0 1.000000 1.000000 1.000000 -0.655055 -0.167452 -0.736792
1711 1 -6.909500 2.693574 -9.372188 0 1.000000 1.000000 1.000000 -0.577333 0.226831 -0.784369
1712 1 -7.287927 2.024654 -9.252964 0 1.000000 1.000000 1.000000 -0.610208 0.167433 -0.774346
1713 1 -7.044000 1.372921 -9.554970 0 1.000000 1.000000 1.000000 -0.588153 0.115657 -0.800437
1714 1 -7.381969 0.683578 -9.372724 0 1.000000 1.000000 1.000000 -0.618377 0.056516 -0.783847
1715 1 -7.090594 0.000000 -9.618293 0 1.000000 1.000000 1.000000 -0.591895 0.000000 -0.806015
1716 1 -7.381969 -0.683578 -9.372724 0 1.000000 1.000000 1.000000 -0.618377 -0.056516 -0.783847
1717 1 -7.044000 -1.372921 -9.554970 0 1.000000 1.000000 1.000000 -0.588153 -0.115657 -0.800437
1718 1 -7.287927 -2.024654 -9.252964 0 1.000000 1.000000 1.000000 -0.610208 -0.167433 -0.774346
1719 1 -6.909500 -2.693574 -9.372188 0 1.000000 1.000000 1.000000 -0.577333 -0.226831 -0.784369
1720 1 -5.856857 3.388417 -9.850876 0 1.000000 1.000000 1.000000 -0.490447 0.284461 -0.823738
1721 1 -6.276054 2.734230 -9.795044 0 1.000000 1.000000 1.000000 -0.524802 0.226809 -0.820451
1722 1 -6.012473 2.086872 -10.112935 0 1.000000 1.000000 1.000000 -0.502849 0.175251 -0.846422
1723 1 -6.401992 1.394484 -9.992085 0 1.000000 1.000000 1.000000 -0.535840 0.115646 -0.836362
1724 1 -6.095040 0.705141 -10.251981 0 1.000000 1.000000 1.000000 -0.509410 0.059226 -0.858483
1725 1 -6.445672 0.000000 -10.060435 0 1.000000 1.000000 1.000000 -0.539676 -0.000000 -0.841873
1726 1 -6.095040 -0.705141 -10.251981 0 1.000000 1.000000 1.000000 -0.509410 -0.059226 -0.858483
1727 1 -6.401992 -1.394484 -9.992085 0 1.000000 1.000000 1.000000 -0.535840 -0.115646 -0.836362
1728 1 -6.012473 -2.086872 -10.112935 0 1.000000 1.000000 1.000000 -0.502849 -0.175251 -0.846422
1729 1 -6.276054 -2.734230 -9.795044 0 1.000000 1.000000 1.000000 -0.524802 -0.226809 -0.820451
1730 1 -5.856857 -3.388417 -9.850876 0 1.000000 1.000000 1.000000 -0.490447 -0.284461 -0.823738
1731 1 -4.730088 4.040525 -10.204649 0 1.000000 1.000000 1.000000 -0.397289 0.338104 -0.853140
1732 1 -5.170153 3.417714 -10.217460 0 1.000000 1.000000 1.000000 -0.431545 0.284445 -0.856072
1733 1 -4.886826 2.782561 -10.542894 0 1.000000 1.000000 1.000000 -0.409603 0.232881 -0.882039
1734 1 -5.309950 2.105907 -10.494201 0 1.000000 1.000000 1.000000 -0.443955 0.175240 -0.878746
1735 1 -4.988627 1.420131 -10.762573 0 1.000000 1.000000 1.000000 -0.417556 0.118869 -0.900842
1736 1 -5.384197 0.711754 -10.641203 0 1.000000 1.000000 1.000000 -0.450572 0.059223 -0.890774
1737 1 -5.023988 0.000000 -10.838878 0 1.000000 1.000000 1.000000 -0.420311 0.000000 -0.907380
1738 1 -5.384197 -0.711754 -10.641203 0 1.000000 1.000000 1.000000 -0.450572 -0.059223 -0.890774
1739 1 -4.988627 -1.420131 -10.762573 0 1.000000 1.000000 1.000000 -0.417556 -0.118869 -0.900842
1740 1 -5.309950 -2.105907 -10.494201 0 1.000000 1.000000 1.000000 -0.443955 -0.175240 -0.878746
1741 1 -4.886826 -2.782561 -10.542894 0 1.000000 1.000000 1.000000 -0.409603 -0.232881 -0.882039
1742 1 -5.170153 -3.417714 -10.217460 0 1.000000 1.000000 1.000000 -0.431545 -0.284445 -0.856072
1743 1 -4.730088 -4.040525 -10.204649 0 1.000000 1.000000 1.000000 -0.397289 -0.338104 -0.853140
1744 1 -3.573276 4.627490 -10.425072 0 1.000000 1.000000 1.000000 -0.301445 0.385995 -0.871859
1745 1 -4.012368 4.049061 -10.504116 0 1.000000 1.000000 1.000000 -0.334064 0.338099 -0.879824
1746 1 -3.711486 3.432528 -10.827877 0 1.000000 1.000000 1.000000 -0.312038 0.286305 -0.905904
1747 1 -4.145880 2.788838 -10.853844 0 1.000000 1.000000 1.000000 -0.346156 0.232877 -0.908815
1748 1 -3.812990 2.115525 -11.123646 0 1.000000 1.000000 1.000000 -0.319741 0.176449 -0.930931
1749 1 -4.232614 1.423472 -11.081069 0 1.000000 1.000000 1.000000 -0.354065 0.118867 -0.927636
1750 1 -3.866942 0.715094 -11.280831 0 1.000000 1.000000 1.000000 -0.323807 0.059642 -0.944241
1751 1 -4.262745 0.000000 -11.160011 0 1.000000 1.000000 1.000000 -0.356822 -0.000000 -0.934172
1752 1 -3.866942 -0.715094 -11.280831 0 1.000000 1.000000 1.000000 -0.323807 -0.059642 -0.944241
1753 1 -4.232614 -1.423472 -11.081069 0 1.000000 1.000000 1.000000 -0.354065 -0.118867 -0.927636
1754 1 -3.812990 -2.115525 -11.123646 0 1.000000 1.000000 1.000000 -0.319741 -0.176449 -0.930931
1755 1 -4.145880 -2.788838 -10.853844 0 1.000000 1.000000 1.000000 -0.346156 -0.232877 -0.908815
1756 1 -3.711486 -3.432528 -10.827877 0 1.000000 1.000000 1.000000 -0.312038 -0.286305 -0.905904
1757 1 -4.012368 -4.049061 -10.504116 0 1.000000 1.000000 1.000000 -0.334064 -0.338099 -0.879824
1758 1 -3.573276 -4.627490 -10.425072 0 1.000000 1.000000 1.000000 -0.301445 -0.385995 -0.871859
1759 1 -2.430538 5.135177 -10.518091 0 1.000000 1.000000 1.000000 -0.206546 0.427117 -0.880290
1760 1 -2.848973 4.608825 -10.654274 0 1.000000 1.000000 1.000000 -0.236303 0.386006 -0.891718
1761 1 -2.534814 4.015464 -10.967881 0 1.000000 1.000000 1.000000 -0.214148 0.333881 -0.917967
1762 1 -2.958234 3.417596 -11.062440 0 1.000000 1.000000 1.000000 -0.246557 0.286314 -0.925869
1763 1 -2.618033 2.764195 -11.326660 0 1.000000 1.000000 1.000000 -0.220102 0.229781 -0.948027
1764 1 -3.038395 2.105813 -11.361899 0 1.000000 1.000000 1.000000 -0.254167 0.176454 -0.950927
1765 1 -2.672049 1.410384 -11.559447 0 1.000000 1.000000 1.000000 -0.223910 0.117222 -0.967535
1766 1 -3.080972 0.711718 -11.520957 0 1.000000 1.000000 1.000000 -0.258241 0.059644 -0.964238
1767 1 -2.690806 0.000000 -11.640263 0 1.000000 1.000000 1.000000 -0.225222 0.000000 -0.974307
1768 1 -3.080972 -0.711718 -11.520957 0 1.000000 1.000000 1.000000 -0.258241 -0.059644 -0.964238
1769 1 -2.672049 -1.410384 -11.559447 0 1.000000 1.000000 1.000000 -0.223910 -0.117222 -0.967535
1770 1 -3.038395 -2.105813 -11.361899 0 1.000000 1.000000 1.000000 -0.254167 -0.176454 -0.950927
1771 1 -2.618033 -2.764195 -11.326660 0 1.000000 1.000000 1.000000 -0.220102 -0.229781 -0.948027
1772 1 -2.958234 -3.417596 -11.062440 0 1.000000 1.000000 1.000000 -0.246557 -0.286314 -0.925869
1773 1 -2.534814 -4.015464 -10.967881 0 1.000000 1.000000 1.000000 -0.214148 -0.333881 -0.917967
1774 1 -2.848973 -4.608825 -10.654274 0 1.000000 1.000000 1.000000 -0.236303 -0.386006 -0.891718
1775 1 -2.430538 -5.135177 -10.518091 0 1.000000 1.000000 1.000000 -0.206546 -0.427117 -0.880290
1776 1 -1.338814 5.558751 -10.500814 0 1.000000 1.000000 1.000000 -0.115671 0.461227 -0.879710
1777 1 -1.722022 5.086753 -10.680986 0 1.000000 1.000000 1.000000 -0.141803 0.427143 -0.892995
1778 1 -1.400135 4.519268 -10.977930 0 1.000000 1.000000 1.000000 -0.119553 0.374767 -0.919379
1779 1 -1.794491 3.974331 -11.128642 0 1.000000 1.000000 1.000000 -0.149145 0.333904 -0.930733
1780 1 -1.452061 3.346286 -11.381456 0 1.000000 1.000000 1.000000 -0.122693 0.277359 -0.952900
1781 1 -1.852182 2.734018 -11.484915 0 1.000000 1.000000 1.000000 -0.155112 0.229798 -0.960798
1782 1 -1.490053 2.059607 -11.676389 0 1.000000 1.000000 1.000000 -0.124901 0.170648 -0.977384
1783 1 -1.889557 1.394354 -11.715682 0 1.000000 1.000000 1.000000 -0.159038 0.117231 -0.980288
1784 1 -1.510196 0.695688 -11.832652 0 1.000000 1.000000 1.000000 -0.126041 0.057630 -0.990350
1785 1 -1.902521 0.000000 -11.795723 0 1.000000 1.000000 1.000000 -0.160411 -0.000000 -0.987050
1786 1 -1.510196 -0.695688 -11.832652 0 1.000000 1.000000 1.000000 -0.126041 -0.057630 -0.990350
1787 1 -1.889557 -1.394354 -11.715682 0 1.000000 1.000000 1.000000 -0.159038 -0.117231 -0.980288
1788 1 -1.490053 -2.059607 -11.676389 0 1.000000 1.000000 1.000000 -0.124901 -0.170648 -0.977384
1789 1 -1.852182 -2.734018 -11.484915 0 1.000000 1.000000 1.000000 -0.155112 -0.229798 -0.960798
1790 1 -1.452061 -3.346286 -11.381456 0 1.000000 1.000000 1.000000 -0.122693 -0.277359 -0.952900
1791 1 -1.794491 -3.974331 -11.128642 0 1.000000 1.000000 1.000000 -0.149145 -0.333904 -0.930733
1792 1 -1.400135 -4.519268 -10.977930 0 1.000000 1.000000 1.000000 -0.119553 -0.374767 -0.919379
1793 1 -1.722022 -5.086753 -10.680986 0 1.000000 1.000000 1.000000 -0.141803 -0.427143 -0.892995
1794 1 -1.338814 -5.558751 -10.500814 0 1.000000 1.000000 1.000000 -0.115671 -0.461227 -0.879710
1795 1 -0.323837 5.901277 -10.396283 0 1.000000 1.000000 1.000000 -0.031001 0.488703 -0.871899
1796 1 -0.663404 5.481611 -10.606247 0 1.000000 1.000000 1.000000 -0.053217 0.461265 -0.885665
1797 1 -0.339567 4.941182 -10.882492 0 1.000000 1.000000 1.000000 -0.030970 0.408879 -0.912063
1798 1 -0.693089 4.450837 -11.074003 0 1.000000 1.000000 1.000000 -0.057112 0.374801 -0.925344
1799 1 -0.353523 3.851511 -11.311440 0 1.000000 1.000000 1.000000 -0.030774 0.318484 -0.947429
1800 1 -0.718138 3.291897 -11.468180 0 1.000000 1.000000 1.000000 -0.060552 0.277386 -0.958848
1801 1 -0.364615 2.644429 -11.650671 0 1.000000 1.000000 1.000000 -0.030501 0.218543 -0.975350
1802 1 -0.736409 2.024407 -11.755421 0 1.000000 1.000000 1.000000 -0.063153 0.170666 -0.983303
1803 1 -0.371794 1.346950 -11.869369 0 1.000000 1.000000 1.000000 -0.030269 0.111273 -0.993329
1804 1 -0.746076 0.683484 -11.907307 0 1.000000 1.000000 1.000000 -0.064561 0.057636 -0.996248
1805 1 -0.374282 0.000000 -11.945033 0 1.000000 1.000000 1.000000 -0.030178 0.000000 -0.999545
1806 1 -0.746076 -0.683484 -11.907307 0 1.000000 1.000000 1.000000 -0.064561 -0.057636 -0.996248
1807 1 -0.371794 -1.346950 -11.869369 0 1.000000 1.000000 1.000000 -0.030269 -0.111273 -0.993329
1808 1 -0.736409 -2.024407 -11.755421 0 1.000000 1.000000 1.000000 -0.063153 -0.170666 -0.983303
1809 1 -0.364615 -2.644429 -11.650671 0 1.000000 1.000000 1.000000 -0.030501 -0.218543 -0.975350
1810 1 -0.718138 -3.291897 -11.468180 0 1.000000 1.000000 1.000000 -0.060552 -0.277386 -0.958848
1811 1 -0.353523 -3.851511 -11.311440 0 1.000000 1.000000 1.000000 -0.030774 -0.318484 -0.947429
1812 1 -0.693089 -4.450837 -11.074003 0 1.000000 1.000000 1.000000 -0.057112 -0.374801 -0.925344
1813 1 -0.339567 -4.941182 -10.882492 0 1.000000 1.000000 1.000000 -0.030970 -0.408879 -0.912063
1814 1 -0.663404 -5.481611 -10.606247 0 1.000000 1.000000 1.000000 -0.053217 -0.461265 -0.885665
1815 1 -0.323837 -5.901277 -10.396283 0 1.000000 1.000000 1.000000 -0.031001 -0.488703 -0.871899
1816 1 6.425256 10.072446 -0.523979 0 1.000000 1.000000 1.000000 0.538863 0.840898 -0.050161
1817 1 7.107429 9.543679 -1.166999 0 1.000000 1.000000 1.000000 0.596039 0.796392 -0.102459
1818 1 6.555021 9.942843 -1.073410 0 1.000000 1.000000 1.000000 0.547371 0.832448 -0.086106
1819 1 6.108182 10.161247 -1.548678 0 1.000000 1.000000 1.000000 0.511338 0.848740 -0.134812
1820 1 7.784203 8.880902 -1.855678 0 1.000000 1.000000 1.000000 0.652682 0.740883 -0.158426
1821 1 7.237128 9.351981 -1.757358 0 1.000000 1.000000 1.000000 0.604243 0.783541 -0.144752
1822 1 6.784734 9.577795 -2.265466 0 1.000000 1.000000 1.000000 0.568207 0.799826 -0.193441
1823 1 6.208195 9.987897 -2.150375 0 1.000000 1.000000 1.000000 0.519552 0.835883 -0.177101
1824 1 5.707188 10.164568 -2.649027 0 1.000000 1.000000 1.000000 0.476910 0.849516 -0.225565
1825 1 8.426110 8.077395 -2.573021 0 1.000000 1.000000 1.000000 0.706291 0.673906 -0.216805
1826 1 7.901632 8.619207 -2.478900 0 1.000000 1.000000 1.000000 0.659732 0.722546 -0.206595
1827 1 7.447701 8.846642 -3.018662 0 1.000000 1.000000 1.000000 0.623858 0.738752 -0.255043
1828 1 6.877879 9.334151 -2.903548 0 1.000000 1.000000 1.000000 0.575225 0.781589 -0.241321
1829 1 6.364948 9.515820 -3.432237 0 1.000000 1.000000 1.000000 0.532402 0.795275 -0.289976
1830 1 5.770797 9.936136 -3.292807 0 1.000000 1.000000 1.000000 0.483981 0.831166 -0.273726
1831 1 5.217449 10.060457 -3.798620 0 1.000000 1.000000 1.000000 0.435348 0.841358 -0.320296
1832 1 9.000394 7.139281 -3.295149 0 1.000000 1.000000 1.000000 0.754100 0.596040 -0.275807
1833 1 8.516555 7.743053 -3.216189 0 1.000000 1.000000 1.000000 0.711194 0.649239 -0.269616
1834 1 8.064917 7.964903 -3.783877 0 1.000000 1.000000 1.000000 0.675536 0.665346 -0.317751
1835 1 7.520542 8.526680 -3.680472 0 1.000000 1.000000 1.000000 0.628735 0.714242 -0.307492
1836 1 7.000261 8.708627 -4.236066 0 1.000000 1.000000 1.000000 0.585913 0.727926 -0.356132
1837 1 6.414490 9.210258 -4.102946 0 1.000000 1.000000 1.000000 0.537290 0.770758 -0.342421
1838 1 5.843484 9.337824 -4.632389 0 1.000000 1.000000 1.000000 0.488399 0.781003 -0.389231
1839 1 5.240595 9.767707 -4.467494 0 1.000000 1.000000 1.000000 0.440282 0.816671 -0.373095
1840 1 4.642099 9.832855 -4.959870 0 1.000000 1.000000 1.000000 0.387080 0.822871 -0.415996
1841 1 9.476593 6.088176 -3.994019 0 1.000000 1.000000 1.000000 0.793559 0.509098 -0.333291
1842 1 9.048967 6.737154 -3.941406 0 1.000000 1.000000 1.000000 0.755891 0.564703 -0.331270
1843 1 8.602739 6.945826 -4.530420 0 1.000000 1.000000 1.000000 0.720381 0.580747 -0.379189
1844 1 8.102528 7.569803 -4.451851 0 1.000000 1.000000 1.000000 0.677324 0.634131 -0.372974
1845 1 7.579932 7.746457 -5.028607 0 1.000000 1.000000 1.000000 0.634573 0.647794 -0.421521
1846 1 7.022040 8.323504 -4.916227 0 1.000000 1.000000 1.000000 0.587705 0.696760 -0.411251
1847 1 6.438991 8.451597 -5.464408 0 1.000000 1.000000 1.000000 0.538743 0.707020 -0.458125
1848 1 5.846206 8.964287 -5.313690 0 1.000000 1.000000 1.000000 0.490205 0.749777 -0.444447
1849 1 5.226109 9.032698 -5.820179 0 1.000000 1.000000 1.000000 0.436819 0.755998 -0.487500
1850 1 4.624891 9.471384 -5.631253 0 1.000000 1.000000 1.000000 0.388906 0.791512 -0.471446
1851 1 3.994019 9.476593 -6.088176 0 1.000000 1.000000 1.000000 0.333291 0.793559 -0.509098
1852 1 9.832855 4.959870 -4.642099 0 1.000000 1.000000 1.000000 0.822871 0.415996 -0.387080
1853 1 9.471384 5.631253 -4.624891 0 1.000000 1.000000 1.000000 0.791512 0.471446 -0.388906
1854 1 9.032698 5.820179 -5.226109 0 1.000000 1.000000 1.000000 0.755998 0.487500 -0.436819
1855 1 8.591680 6.485773 -5.184251 0 1.000000 1.000000 1.000000 0.718335 0.543095 -0.434791
1856 1 8.071768 6.651636 -5.773947 0 1.000000 1.000000 1.000000 0.675620 0.556751 -0.483286
1857 1 7.560231 7.288343 -5.696871 0 1.000000 1.000000 1.000000 0.632533 0.610173 -0.477065
1858 1 6.971937 7.413889 -6.256843 0 1.000000 1.000000 1.000000 0.583573 0.620434 -0.523931
1859 1 6.408589 8.000097 -6.136759 0 1.000000 1.000000 1.000000 0.536709 0.669396 -0.513666
1860 1 5.773947 8.071768 -6.651636 0 1.000000 1.000000 1.000000 0.483286 0.675620 -0.556751
1861 1 5.184251 8.591680 -6.485773 0 1.000000 1.000000 1.000000 0.434791 0.718335 -0.543095
1862 1 4.530420 8.602739 -6.945826 0 1.000000 1.000000 1.000000 0.379189 0.720381 -0.580747
1863 1 3.941406 9.048967 -6.737154 0 1.000000 1.000000 1.000000 0.331270 0.755891 -0.564703
1864 1 3.295149 9.000394 -7.139281 0 1.000000 1.000000 1.000000 0.275807 0.754100 -0.596040
1865 1 10.060457 3.798620 -5.217449 0 1.000000 1.000000 1.000000 0.841358 0.320296 -0.435348
1866 1 9.767707 4.467494 -5.240595 0 1.000000 1.000000 1.000000 0.816671 0.373095 -0.440282
1867 1 9.337824 4.632389 -5.843484 0 1.000000 1.000000 1.000000 0.781003 0.389231 -0.488399
1868 1 8.964287 5.313690 -5.846206 0 1.000000 1.000000 1.000000 0.749777 0.444447 -0.490205
1869 1 8.451597 5.464408 -6.438991 0 1.000000 1.000000 1.000000 0.707020 0.458125 -0.538743
1870 1 8.000097 6.136759 -6.408589 0 1.000000 1.000000 1.000000 0.669396 0.513666 -0.536709
1871 1 7.413889 6.256843 -6.971937 0 1.000000 1.000000 1.000000 0.620434 0.523931 -0.583573
1872 1 6.897266 6.897266 -6.897266 0 1.000000 1.000000 1.000000 0.577350 0.577350 -0.577350
1873 1 6.256843 6.971937 -7.413889 0 1.000000 1.000000 1.000000 0.523931 0.583573 -0.620434
1874 1 5.696871 7.560231 -7.288343 0 1.000000 1.000000 1.000000 0.477065 0.632533 -0.610173
1875 1 5.028607 7.579932 -7.746457 0 1.000000 1.000000 1.000000 0.421521 0.634573 -0.647794
1876 1 4.451851 8.102528 -7.569803 0 1.000000 1.000000 1.000000 0.372974 0.677324 -0.634131
1877 1 3.783877 8.064917 -7.964903 0 1.000000 1.000000 1.000000 0.317751 0.675536 -0.665346
1878 1 3.216189 8.516555 -7.743053 0 1.000000 1.000000 1.000000 0.269616 0.711194 -0.649239
1879 1 2.573021 8.426110 -8.077395 0 1.000000 1.000000 1.000000 0.216805 0.706291 -0.673906
1880 1 10.164568 2.649027 -5.707188 0 1.000000 1.000000 1.000000 0.849516 0.225565 -0.476910
1881 1 9.936136 3.292807 -5.770797 0 1.000000 1.000000 1.000000 0.831166 0.273726 -0.483981
1882 1 9.515820 3.432237 -6.364948 0 1.000000 1.000000 1.000000 0.795275 0.289976 -0.532402
1883 1 9.210258 4.102946 -6.414490 0 1.000000 1.000000 1.000000 0.770758 0.342421 -0.537290
1884 1 8.708627 4.236066 -7.000261 0 1.000000 1.000000 1.000000 0.727926 0.356132 -0.585913
1885 1 8.323504 4.916227 -7.022040 0 1.000000 1.000000 1.000000 0.696760 0.411251 -0.587705
1886 1 7.746457 5.028607 -7.579932 0 1.000000 1.000000 1.000000 0.647794 0.421521 -0.634573
1887 1 7.288343 5.696871 -7.560231 0 1.000000 1.000000 1.000000 0.610173 0.477065 -0.632533
1888 1 6.651636 5.773947 -8.071768 0 1.000000 1.000000 1.000000 0.556751 0.483286 -0.675620
1889 1 6.136759 6.408589 -8.000097 0 1.000000 1.000000 1.000000 0.513666 0.536709 -0.669396
1890 1 5.464408 6.438991 -8.451597 0 1.000000 1.000000 1.000000 0.458125 0.538743 -0.707020
1891 1 4.916227 7.022040 -8.323504 0 1.000000 1.000000 1.000000 0.411251 0.587705 -0.696760
1892 1 4.236066 7.000261 -8.708627 0 1.000000 1.000000 1.000000 0.356132 0.585913 -0.727926
1893 1 3.680472 7.520542 -8.526680 0 1.000000 1.000000 1.000000 0.307492 0.628735 -0.714242
1894 1 3.018662 7.447701 -8.846642 0 1.000000 1.000000 1.000000 0.255043 0.623858 -0.738752
1895 1 2.478900 7.901632 -8.619207 0 1.000000 1.000000 1.000000 0.206595 0.659732 -0.722546
1896 1 1.855678 7.784203 -8.880902 0 1.000000 1.000000 1.000000 0.158426 0.652682 -0.740883
1897 1 10.161247 1.548678 -6.108182 0 1.000000 1.000000 1.000000 0.848740 0.134812 -0.511338
1898 1 9.987897 2.150375 -6.208195 0 1.000000 1.000000 1.000000 0.835883 0.177101 -0.519552
1899 1 9.577795 2.265466 -6.784734 0 1.000000 1.000000 1.000000 0.799826 0.193441 -0.568207
1900 1 9.334151 2.903548 -6.877879 0 1.000000 1.000000 1.000000 0.781589 0.241321 -0.575225
1901 1 8.846642 3.018662 -7.447701 0 1.000000 1.000000 1.000000 0.738752 0.255043 -0.623858
1902 1 8.526680 3.680472 -7.520542 0 1.000000 1.000000 1.000000 0.714242 0.307492 -0.628735
1903 1 7.964903 3.783877 -8.064917 0 1.000000 1.000000 1.000000 0.665346 0.317751 -0.675536
1904 1 7.569803 4.451851 -8.102528 0 1.000000 1.000000 1.000000 0.634131 0.372974 -0.677324
1905 1 6.945826 4.530420 -8.602739 0 1.000000 1.000000 1.000000 0.580747 0.379189 -0.720381
1906 1 6.485773 5.184251 -8.591680 0 1.000000 1.000000 1.000000 0.543095 0.434791 -0.718335
1907 1 5.820179 5.226109 -9.032698 0 1.000000 1.000000 1.000000 0.487500 0.436819 -0.755998
1908 1 5.313690 5.846206 -8.964287 0 1.000000 1.000000 1.000000 0.444447 0.490205 -0.749777
1909 1 4.632389 5.843484 -9.337824 0 1.000000 1.000000 1.000000 0.389231 0.488399 -0.781003
1910 1 4.102946 6.414490 -9.210258 0 1.000000 1.000000 1.000000 0.342421 0.537290 -0.770758
1911 1 3.432237 6.364948 -9.515820 0 1.000000 1.000000 1.000000 0.289976 0.532402 -0.795275
1912 1 2.903548 6.877879 -9.334151 0 1.000000 1.000000 1.000000 0.241321 0.575225 -0.781589
1913 1 2.265466 6.784734 -9.577795 0 1.000000 1.000000 1.000000 0.193441 0.568207 -0.799826
1914 1 1.757358 7.237128 -9.351981 0 1.000000 1.000000 1.000000 0.144752 0.604243 -0.783541
1915 1 1.166999 7.107429 -9.543679 0 1.000000 1.000000 1.000000 0.102459 0.596039 -0.796392
1916 1 10.072446 0.523979 -6.425256 0 1.000000 1.000000 1.000000 0.840898 0.050161 -0.538863
1917 1 9.942843 1.073410 -6.555021 0 1.000000 1.000000 1.000000 0.832448 0.086106 -0.547371
1918 1 9.543679 1.166999 -7.107429 0 1.000000 1.000000 1.000000 0.796392 0.102459 -0.596039
1919 1 9.351981 1.757358 -7.237128 0 1.000000 1.000000 1.000000 0.783541 0.144752 -0.604243
1920 1 8.880902 1.855678 -7.784203 0 1.000000 1.000000 1.000000 0.740883 0.158426 -0.652682
1921 1 8.619207 2.478900 -7.901632 0 1.000000 1.000000 1.000000 0.722546 0.206595 -0.659732
1922 1 8.077395 2.573021 -8.426110 0 1.000000 1.000000 1.000000 0.673906 0.216805 -0.706291
1923 1 7.743053 3.216189 -8.516555 0 1.000000 1.000000 1.000000 0.649239 0.269616 -0.711194
1924 1 7.139281 3.295149 -9.000394 0 1.000000 1.000000 1.000000 0.596040 0.275807 -0.754100
1925 1 6.737154 3.941406 -9.048967 0 1.000000 1.000000 1.000000 0.564703 0.331270 -0.755891
1926 1 6.088176 3.994019 -9.476593 0 1.000000 1.000000 1.000000 0.509098 0.333291 -0.793559
1927 1 5.631253 4.624891 -9.471384 0 1.000000 1.000000 1.000000 0.471446 0.388906 -0.791512
1928 1 4.959870 4.642099 -9.832855 0 1.000000 1.000000 1.000000 0.415996 0.387080 -0.822871
1929 1 4.467494 5.240595 -9.767707 0 1.000000 1.000000 1.000000 0.373095 0.440282 -0.816671
1930 1 3.798620 5.217449 -10.060457 0 1.000000 1.000000 1.000000 0.320296 0.435348 -0.841358
1931 1 3.292807 5.770797 -9.936136 0 1.000000 1.000000 1.000000 0.273726 0.483981 -0.831166
1932 1 2.649027 5.707188 -10.164568 0 1.000000 1.000000 1.000000 0.225565 0.476910 -0.849516
1933 1 2.150375 6.208195 -9.987897 0 1.000000 1.000000 1.000000 0.177101 0.519552 -0.835883
1934 1 1.548678 6.108182 -10.161247 0 1.000000 1.000000 1.000000 0.134812 0.511338 -0.848740
1935 1 1.073410 6.555021 -9.942843 0 1.000000 1.000000 1.000000 0.086106 0.547371 -0.832448
1936 1 0.523979 6.425256 -10.072446 0 1.000000 1.000000 1.000000 0.050161 0.538863 -0.840898
1937 1 10.396283 -0.323837 5.901277 0 1.000000 1.000000 1.000000 0.871899 -0.031001 0.488703
1938 1 10.500814 -1.338814 5.558751 0 1.000000 1.000000 1.000000 0.879710 -0.115671 0.461227
1939 1 10.606247 -0.663404 5.481611 0 1.000000 1.000000 1.000000 0.885665 -0.053217 0.461265
1940 1 10.882492 -0.339567 4.941182 0 1.000000 1.000000 1.000000 0.912063 -0.030970 0.408879
1941 1 10.518091 -2.430538 5.135177 0 1.000000 1.000000 1.000000 0.880290 -0.206546 0.427117
1942 1 10.680986 -1.722022 5.086753 0 1.000000 1.000000 1.000000 0.892995 -0.141803 0.427143
1943 1 10.977930 -1.400135 4.519268 0 1.000000 1.000000 1.000000 0.919379 -0.119553 0.374767
1944 1 11.074003 -0.693089 4.450837 0 1.000000 1.000000 1.000000 0.925344 -0.057112 0.374801
1945 1 11.311440 -0.353523 3.851511 0 1.000000 1.000000 1.000000 0.947429 -0.030774 0.318484
1946 1 10.425072 -3.573276 4.627490 0 1.000000 1.000000 1.000000 0.871859 -0.301445 0.385995
1947 1 10.654274 -2.848973 4.608825 0 1.000000 1.000000 1.000000 0.891718 -0.236303 0.386006
1948 1 10.967881 -2.534814 4.015464 0 1.000000 1.000000 1.000000 0.917967 -0.214148 0.333881
1949 1 11.128642 -1.794491 3.974331 0 1.000000 1.000000 1.000000 0.930733 -0.149145 0.333904
1950 1 11.381456 -1.452061 3.346286 0 1.000000 1.000000 1.000000 0.952900 -0.122693 0.277359
1951 1 11.468180 -0.718138 3.291897 0 1.000000 1.000000 1.000000 0.958848 -0.060552 0.277386
1952 1 11.650671 -0.364615 2.644429 0 1.000000 1.000000 1.000000 0.975350 -0.030501 0.218543
1953 1 10.204649 -4.730088 4.040525 0 1.000000 1.000000 1.000000 0.853140 -0.397289 0.338104
1954 1 10.504116 -4.012368 4.049061 0 1.000000 1.000000 1.000000 0.879824 -0.334064 0.338099
1955 1 10.827877 -3.711486 3.432528 0 1.000000 1.000000 1.000000 0.905904 -0.312038 0.286305
1956 1 11.062440 -2.958234 3.417596 0 1.000000 1.000000 1.000000 0.925869 -0.246557 0.286314
1957 1 11.326660 -2.618033 2.764195 0 1.000000 1.000000 1.000000 0.948027 -0.220102 0.229781
1958 1 11.484915 -1.852182 2.734018 0 1.000000 1.000000 1.000000 0.960798 -0.155112 0.229798
1959 1 11.676389 -1.490053 2.059607 0 1.000000 1.000000 1.000000 0.977384 -0.124901 0.170648
1960 1 11.755421 -0.736409 2.024407 0 1.000000 1.000000 1.000000 0.983303 -0.063153 0.170666
1961 1 11.869369 -0.371794 1.346950 0 1.000000 1.000000 1.000000 0.993329 -0.030269 0.111273
1962 1 9.850876 -5.856857 3.388417 0 1.000000 1.000000 1.000000 0.823738 -0.490447 0.284461
1963 1 10.217460 -5.170153 3.417714 0 1.000000 1.000000 1.000000 0.856072 -0.431545 0.284445
1964 1 10.542894 -4.886826 2.782561 0 1.000000 1.000000 1.000000 0.882039 -0.409603 0.232881
1965 1 10.853844 -4.145880 2.788838 0 1.000000 1.000000 1.000000 0.908815 -0.346156 0.232877
1966 1 11.123646 -3.812990 2.115525 0 1.000000 1.000000 1.000000 0.930931 -0.319741 0.176449
1967 1 11.361899 -3.038395 2.105813 0 1.000000 1.000000 1.000000 0.950927 -0.254167 0.176454
1968 1 11.559447 -2.672049 1.410384 0 1.000000 1.000000 1.000000 0.967535 -0.223910 0.117222
1969 1 11.715682 -1.889557 1.394354 0 1.000000 1.000000 1.000000 0.980288 -0.159038 0.117231
1970 1 11.832652 -1.510196 0.695688 0 1.000000 1.000000 1.000000 0.990350 -0.126041 0.057630
1971 1 11.907307 -0.746076 0.683484 0 1.000000 1.000000 1.000000 0.996248 -0.064561 0.057636
1972 1 11.945033 -0.374282 0.000000 0 1.000000 1.000000 1.000000 0.999545 -0.030178 0.000000
1973 1 9.372188 -6.909500 2.693574 0 1.000000 1.000000 1.000000 0.784369 -0.577333 0.226831
1974 1 9.795044 -6.276054 2.734230 0 1.000000 1.000000 1.000000 0.820451 -0.524802 0.226809
1975 1 10.112935 -6.012473 2.086872 0 1.000000 1.000000 1.000000 0.846422 -0.502849 0.175251
1976 1 10.494201 -5.309950 2.105907 0 1.000000 1.000000 1.000000 0.878746 -0.443955 0.175240
1977 1 10.762573 -4.988627 1.420131 0 1.000000 1.000000 1.000000 0.900842 -0.417556 0.118869
1978 1 11.081069 -4.232614 1.423472 0 1.000000 1.000000 1.000000 0.927636 -0.354065 0.118867
1979 1 11.280831 -3.866942 0.715094 0 1.000000 1.000000 1.000000 0.944241 -0.323807 0.059642
1980 1 11.520957 -3.080972 0.711718 0 1.000000 1.000000 1.000000 0.964238 -0.258241 0.059644
1981 1 11.640263 -2.690806 0.000000 0 1.000000 1.000000 1.000000 0.974307 -0.225222 -0.000000
1982 1 11.795723 -1.902521 0.000000 0 1.000000 1.000000 1.000000 0.987050 -0.160411 -0.000000
1983 1 11.832652 -1.510196 -0.695688 0 1.000000 1.000000 1.000000 0.990350 -0.126041 -0.057630
1984 1 11.907307 -0.746076 -0.683484 0 1.000000 1.000000 1.000000 0.996248 -0.064561 -0.057636
1985 1 11.869369 -0.371794 -1.346950 0 1.000000 1.000000 1.000000 0.993329 -0.030269 -0.111273
1986 1 8.790725 -7.852051 1.983061 0 1.000000 1.000000 1.000000 0.736792 -0.655055 0.167452
1987 1 9.252964 -7.287927 2.024654 0 1.000000 1.000000 1.000000 0.774346 -0.610208 0.167433
1988 1 9.554970 -7.044000 1.372921 0 1.000000 1.000000 1.000000 0.800437 -0.588153 0.115657
1989 1 9.992085 -6.401992 1.394484 0 1.000000 1.000000 1.000000 0.836362 -0.535840 0.115646
1990 1 10.251981 -6.095040 0.705141 0 1.000000 1.000000 1.000000 0.858483 -0.509410 0.059226
1991 1 10.641203 -5.384197 0.711754 0 1.000000 1.000000 1.000000 0.890774 -0.450572 0.059223
1992 1 10.838878 -5.023988 -0.000000 0 1.000000 1.000000 1.000000 0.907380 -0.420311 -0.000000
1993 1 11.160011 -4.262745 0.000000 0 1.000000 1.000000 1.000000 0.934172 -0.356822 -0.000000
1994 1 11.280831 -3.866942 -0.715094 0 1.000000 1.000000 1.000000 0.944241 -0.323807 -0.059642
1995 1 11.520957 -3.080972 -0.711718 0 1.000000 1.000000 1.000000 0.964238 -0.258241 -0.059644
1996 1 11.559447 -2.672049 -1.410384 0 1.000000 1.000000 1.000000 0.967535 -0.223910 -0.117222
1997 1 11.715682 -1.889557 -1.394354 0 1.000000 1.000000 1.000000 0.980288 -0.159038 -0.117231
1998 1 11.676389 -1.490053 -2.059607 0 1.000000 1.000000 1.000000 0.977384 -0.124901 -0.170648
1999 1 11.755421 -0.736409 -2.024407 0 1.000000 1.000000 1.000000 0.983303 -0.063153 -0.170666
2000 1 11.650671 -0.364615 -2.644429 0 1.000000 1.000000 1.000000 0.975350 -0.030501 -0.218543
2001 1 8.137726 -8.662413 1.283666 0 1.000000 1.000000 1.000000 0.683456 -0.721864 0.108633
2002 1 8.619770 -8.175374 1.316929 0 1.000000 1.000000 1.000000 0.720284 -0.685123 0.108620
2003 1 8.899762 -7.949219 0.669178 0 1.000000 1.000000 1.000000 0.746550 -0.662924 0.056523
2004 1 9.372724 -7.381969 0.683578 0 1.000000 1.000000 1.000000 0.783847 -0.618377 0.056516
2005 1 9.618293 -7.090594 -0.000000 0 1.000000 1.000000 1.000000 0.806015 -0.591895 0.000000
2006 1 10.060435 -6.445672 -0.000000 0 1.000000 1.000000 1.000000 0.841873 -0.539676 0.000000
2007 1 10.251981 -6.095040 -0.705141 0 1.000000 1.000000 1.000000 0.858483 -0.509410 -0.059226
2008 1 10.641203 -5.384197 -0.711754 0 1.000000 1.000000 1.000000 0.890774 -0.450572 -0.059223
2009 1 10.762573 -4.988627 -1.420131 0 1.000000 1.000000 1.000000 0.900842 -0.417556 -0.118869
2010 1 11.081069 -4.232614 -1.423472 0 1.000000 1.000000 1.000000 0.927636 -0.354065 -0.118867
2011 1 11.123646 -3.812990 -2.115525 0 1.000000 1.000000 1.000000 0.930931 -0.319741 -0.176449
2012 1 11.361899 -3.038395 -2.105813 0 1.000000 1.000000 1.000000 0.950927 -0.254167 -0.176454
2013 1 11.326660 -2.618033 -2.764195 0 1.000000 1.000000 1.000000 0.948027 -0.220102 -0.229781
2014 1 11.484915 -1.852182 -2.734018 0 1.000000 1.000000 1.000000 0.960798 -0.155112 -0.229798
2015 1 11.381456 -1.452061 -3.346286 0 1.000000 1.000000 1.000000 0.952900 -0.122693 -0.277359
2016 1 11.468180 -0.718138 -3.291897 0 1.000000 1.000000 1.000000 0.958848 -0.060552 -0.277386
2017 1 11.311440 -0.353523 -3.851511 0 1.000000 1.000000 1.000000 0.947429 -0.030774 -0.318484
2018 1 7.446995 -9.333815 0.617569 0 1.000000 1.000000 1.000000 0.627009 -0.777251 0.052348
2019 1 7.930217 -8.923628 0.635915 0 1.000000 1.000000 1.000000 0.661356 -0.748244 0.052342
2020 1 8.184869 -8.712464 -0.000000 0 1.000000 1.000000 1.000000 0.687760 -0.725938 0.000000
2021 1 8.672370 -8.225094 -0.000000 0 1.000000 1.000000 1.000000 0.724369 -0.689412 0.000000
2022 1 8.899762 -7.949219 -0.669178 0 1.000000 1.000000 1.000000 0.746550 -0.662924 -0.056523
2023 1 9.372724 -7.381969 -0.683578 0 1.000000 1.000000 1.000000 0.783847 -0.618377 -0.056516
2024 1 9.554970 -7.044000 -1.372921 0 1.000000 1.000000 1.000000 0.800437 -0.588153 -0.115657
2025 1 9.992085 -6.401992 -1.394484 0 1.000000 1.000000 1.000000 0.836362 -0.535840 -0.115646
2026 1 10.112935 -6.012473 -2.086872 0 1.000000 1.000000 1.000000 0.846422 -0.502849 -0.175251
2027 1 10.494201 -5.309950 -2.105907 0 1.000000 1.000000 1.000000 0.878746 -0.443955 -0.175240
2028 1 10.542894 -4.886826 -2.782561 0 1.000000 1.000000 1.000000 0.882039 -0.409603 -0.232881
2029 1 10.853844 -4.145880 -2.788838 0 1.000000 1.000000 1.000000 0.908815 -0.346156 -0.232877
2030 1 10.827877 -3.711486 -3.432528 0 1.000000 1.000000 1.000000 0.905904 -0.312038 -0.286305
2031 1 11.062440 -2.958234 -3.417596 0 1.000000 1.000000 1.000000 0.925869 -0.246557 -0.286314
2032 1 10.967881 -2.534814 -4.015464 0 1.000000 1.000000 1.000000 0.917967 -0.214148 -0.333881
2033 1 11.128642 -1.794491 -3.974331 0 1.000000 1.000000 1.000000 0.930733 -0.149145 -0.333904
2034 1 10.977930 -1.400135 -4.519268 0 1.000000 1.000000 1.000000 0.919379 -0.119553 -0.374767
2035 1 11.074003 -0.693089 -4.450837 0 1.000000 1.000000 1.000000 0.925344 -0.057112 -0.374801
2036 1 10.882492 -0.339567 -4.941182 0 1.000000 1.000000 1.000000 0.912063 -0.030970 -0.408879
2037 1 6.749093 -9.872304 0.000000 0 1.000000 1.000000 1.000000 0.569865 -0.821739 0.000000
2038 1 7.218425 -9.532837 0.000000 0 1.000000 1.000000 1.000000 0.600588 -0.799559 0.000000
2039 1 7.446995 -9.333815 -0.617569 0 1.000000 1.000000 1.000000 0.627009 -0.777251 -0.052348
2040 1 7.930217 -8.923628 -0.635915 0 1.000000 1.000000 1.000000 0.661356 -0.748244 -0.052342
2041 1 8.137726 -8.662413 -1.283666 0 1.000000 1.000000 1.000000 0.683456 -0.721864 -0.108633
2042 1 8.619770 -8.175374 -1.316929 0 1.000000 1.000000 1.000000 0.720284 -0.685123 -0.108620
2043 1 8.790725 -7.852051 -1.983061 0 1.000000 1.000000 1.000000 0.736792 -0.655055 -0.167452
2044 1 9.252964 -7.287927 -2.024654 0 1.000000 1.000000 1.000000 0.774346 -0.610208 -0.167433
2045 1 9.372188 -6.909500 -2.693574 0 1.000000 1.000000 1.000000 0.784369 -0.577333 -0.226831
2046 1 9.795044 -6.276054 -2.734230 0 1.000000 1.000000 1.000000 0.820451 -0.524802 -0.226809
2047 1 9.850876 -5.856857 -3.388417 0 1.000000 1.000000 1.000000 0.823738 -0.490447 -0.284461
2048 1 10.217460 -5.170153 -3.417714 0 1.000000 1.000000 1.000000 0.856072 -0.431545 -0.284445
2049 1 10.204649 -4.730088 -4.040525 0 1.000000 1.000000 1.000000 0.853140 -0.397289 -0.338104
2050 1 10.504116 -4.012368 -4.049061 0 1.000000 1.000000 1.000000 0.879824 -0.334064 -0.338099
2051 1 10.425072 -3.573276 -4.627490 0 1.000000 1.000000 1.000000 0.871859 -0.301445 -0.385995
2052 1 10.654274 -2.848973 -4.608825 0 1.000000 1.000000 1.000000 0.891718 -0.236303 -0.386006
2053 1 10.518091 -2.430538 -5.135177 0 1.000000 1.000000 1.000000 0.880290 -0.206546 -0.427117
2054 1 10.680986 -1.722022 -5.086753 0 1.000000 1.000000 1.000000 0.892995 -0.141803 -0.427143
2055 1 10.500814 -1.338814 -5.558751 0 1.000000 1.000000 1.000000 0.879710 -0.115671 -0.461227
2056 1 10.606247 -0.663404 -5.481611 0 1.000000 1.000000 1.000000 0.885665 -0.053217 -0.461265
2057 1 10.396283 -0.323837 -5.901277 0 1.000000 1.000000 1.000000 0.871899 -0.031001 -0.488703
2058 1 0.000000 -6.749093 9.872304 0 1.000000 1.000000 1.000000 0.000000 -0.569865 0.821739
2059 1 -0.617569 -7.446995 9.333815 0 1.000000 1.000000 1.000000 -0.052348 -0.627009 0.777251
2060 1 0.000000 -7.218425 9.532837 0 1.000000 1.000000 1.000000 0.000000 -0.600588 0.799559
2061 1 0.617569 -7.446995 9.333815 0 1.000000 1.000000 1.000000 0.052348 -0.627009 0.777251
2062 1 -1.283666 -8.137726 8.662413 0 1.000000 1.000000 1.000000 -0.108633 -0.683456 0.721864
2063 1 -0.635915 -7.930217 8.923628 0 1.000000 1.000000 1.000000 -0.052342 -0.661356 0.748244
2064 1 0.000000 -8.184869 8.712464 0 1.000000 1.000000 1.000000 0.000000 -0.687760 0.725938
2065 1 0.635915 -7.930217 8.923628 0 1.000000 1.000000 1.000000 0.052342 -0.661356 0.748244
2066 1 1.283666 -8.137726 8.662413 0 1.000000 1.000000 1.000000 0.108633 -0.683456 0.721864
2067 1 -1.983061 -8.790725 7.852051 0 1.000000 1.000000 1.000000 -0.167452 -0.736792 0.655055
2068 1 -1.316929 -8.619770 8.175374 0 1.000000 1.000000 1.000000 -0.108620 -0.720284 0.685123
2069 1 -0.669178 -8.899762 7.949219 0 1.000000 1.000000 1.000000 -0.056523 -0.746550 0.662924
2070 1 0.000000 -8.672370 8.225094 0 1.000000 1.000000 1.000000 0.000000 -0.724369 0.689412
2071 1 0.669178 -8.899762 7.949219 0 1.000000 1.000000 1.000000 0.056523 -0.746550 0.662924
2072 1 1.316929 -8.619770 8.175374 0 1.000000 1.000000 1.000000 0.108620 -0.720284 0.685123
2073 1 1.983061 -8.790725 7.852051 0 1.000000 1.000000 1.000000 0.167452 -0.736792 0.655055
2074 1 -2.693574 -9.372188 6.909500 0 1.000000 1.000000 1.000000 -0.226831 -0.784369 0.577333
2075 1 -2.024654 -9.252964 7.287927 0 1.000000 1.000000 1.000000 -0.167433 -0.774346 0.610208
2076 1 -1.372921 -9.554970 7.044000 0 1.000000 1.000000 1.000000 -0.115657 -0.800437 0.588153
2077 1 -0.683578 -9.372724 7.381969 0 1.000000 1.000000 1.000000 -0.056516 -0.783847 0.618377
2078 1 0.000000 -9.618293 7.090594 0 1.000000 1.000000 1.000000 0.000000 -0.806015 0.591895
2079 1 0.683578 -9.372724 7.381969 0 1.000000 1.000000 1.000000 0.056516 -0.783847 0.618377
2080 1 1.372921 -9.554970 7.044000 0 1.000000 1.000000 1.000000 0.115657 -0.800437 0.588153
2081 1 2.024654 -9.252964 7.287927 0 1.000000 1.000000 1.000000 0.167433 -0.774346 0.610208
2082 1 2.693574 -9.372188 6.909500 0 1.000000 1.000000 1.000000 0.226831 -0.784369 0.577333
2083 1 -3.388417 -9.850876 5.856857 0 1.000000 1.000000 1.000000 -0.284461 -0.823738 0.490447
2084 1 -2.734230 -9.795044 6.276054 0 1.000000 1.000000 1.000000 -0.226809 -0.820451 0.524802
2085 1 -2.086872 -10.112935 6.012473 0 1.000000 1.000000 1.000000 -0.175251 -0.846422 0.502849
2086 1 -1.394484 -9.992085 6.401992 0 1.000000 1.000000 1.000000 -0.115646 -0.836362 0.535840
2087 1 -0.705141 -10.251981 6.095040 0 1.000000 1.000000 1.000000 -0.059226 -0.858483 0.509410
2088 1 0.000000 -10.060435 6.445672 0 1.000000 1.000000 1.000000 0.000000 -0.841873 0.539676
2089 1 0.705141 -10.251981 6.095040 0 1.000000 1.000000 1.000000 0.059226 -0.858483 0.509410
2090 1 1.394484 -9.992085 6.401992 0 1.000000 1.000000 1.000000 0.115646 -0.836362 0.535840
2091 1 2.086872 -10.112935 6.012473 0 1.000000 1.000000 1.000000 0.175251 -0.846422 0.502849
2092 1 2.734230 -9.795044 6.276054 0 1.000000 1.000000 1.000000 0.226809 -0.820451 0.524802
2093 1 3.388417 -9.850876 5.856857 0 1.000000 1.000000 1.000000 0.284461 -0.823738 0.490447
2094 1 -4.040525 -10.204649 4.730088 0 1.000000 1.000000 1.000000 -0.338104 -0.853140 0.397289
2095 1 -3.417714 -10.217460 5.170153 0 1.000000 1.000000 1.000000 -0.284445 -0.856072 0.431545
2096 1 -2.782561 -10.542894 4.886826 0 1.000000 1.000000 1.000000 -0.232881 -0.882039 0.409603
2097 1 -2.105907 -10.494201 5.309950 0 1.000000 1.000000 1.000000 -0.175240 -0.878746 0.443955
2098 1 -1.420131 -10.762573 4.988627 0 1.000000 1.000000 1.000000 -0.118869 -0.900842 0.417556
2099 1 -0.711754 -10.641203 5.384197 0 1.000000 1.000000 1.000000 -0.059223 -0.890774 0.450572
2100 1 0.000000 -10.838878 5.023988 0 1.000000 1.000000 1.000000 0.000000 -0.907380 0.420311
2101 1 0.711754 -10.641203 5.384197 0 1.000000 1.000000 1.000000 0.059223 -0.890774 0.450572
2102 1 1.420131 -10.762573 4.988627 0 1.000000 1.000000 1.000000 0.118869 -0.900842 0.417556
2103 1 2.105907 -10.494201 5.309950 0 1.000000 1.000000 1.000000 0.175240 -0.878746 0.443955
2104 1 2.782561 -10.542894 4.886826 0 1.000000 1.000000 1.000000 0.232881 -0.882039 0.409603
2105 1 3.417714 -10.217460 5.170153 0 1.000000 1.000000 1.000000 0.284445 -0.856072 0.431545
2106 1 4.040525 -10.204649 4.730088 0 1.000000 1.000000 1.000000 0.338104 -0.853140 0.397289
2107 1 -4.627490 -10.425072 3.573276 0 1.000000 1.000000 1.000000 -0.385995 -0.871859 0.301445
2108 1 -4.049061 -10.504116 4.012368 0 1.000000 1.000000 1.000000 -0.338099 -0.879824 0.334064
2109 1 -3.432528 -10.827877 3.711486 0 1.000000 1.000000 1.000000 -0.286305 -0.905904 0.312038
2110 1 -2.788838 -10.853844 4.145880 0 1.000000 1.000000 1.000000 -0.232877 -0.908815 0.346156
2111 1 -2.115525 -11.123646 3.812990 0 1.000000 1.000000 1.000000 -0.176449 -0.930931 0.319741
2112 1 -1.423472 -11.081069 4.232614 0 1.000000 1.000000 1.000000 -0.118867 -0.927636 0.354065
2113 1 -0.715094 -11.280831 3.866942 0 1.000000 1.000000 1.000000 -0.059642 -0.944241 0.323807
2114 1 0.000000 -11.160011 4.262745 0 1.000000 1.000000 1.000000 0.000000 -0.934172 0.356822
2115 1 0.715094 -11.280831 3.866942 0 1.000000 1.000000 1.000000 0.059642 -0.944241 0.323807
2116 1 1.423472 -11.081069 4.232614 0 1.000000 1.000000 1.000000 0.118867 -0.927636 0.354065
2117 1 2.115525 -11.123646 3.812990 0 1.000000 1.000000 1.000000 0.176449 -0.930931 0.319741
2118 1 2.788838 -10.853844 4.145880 0 1.000000 1.000000 1.000000 0.232877 -0.908815 0.346156
2119 1 3.432528 -10.827877 3.711486 0 1.000000 1.000000 1.000000 0.286305 -0.905904 0.312038
2120 1 4.049061 -10.504116 4.012368 0 1.000000 1.000000 1.000000 0.338099 -0.879824 0.334064
2121 1 4.627490 -10.425072 3.573276 0 1.000000 1.000000 1.000000 0.385995 -0.871859 0.301445
2122 1 -5.135177 -10.518091 2.430538 0 1.000000 1.000000 1.000000 -0.427117 -0.880290 0.206546
2123 1 -4.608825 -10.654274 2.848973 0 1.000000 1.000000 1.000000 -0.386006 -0.891718 0.236303
2124 1 -4.015464 -10.967881 2.534814 0 1.000000 1.000000 1.000000 -0.333881 -0.917967 0.214148
2125 1 -3.417596 -11.062440 2.958234 0 1.000000 1.000000 1.000000 -0.286314 -0.925869 0.246557
2126 1 -2.764195 -11.326660 2.618033 0 1.000000 1.000000 1.000000 -0.229781 -0.948027 0.220102
2127 1 -2.105813 -11.361899 3.038395 0 1.000000 1.000000 1.000000 -0.176454 -0.950927 0.254167
2128 1 -1.410384 -11.559447 2.672049 0 1.000000 1.000000 1.000000 -0.117222 -0.967535 0.223910
2129 1 -0.711718 -11.520957 3.080972 0 1.000000 1.000000 1.000000 -0.059644 -0.964238 0.258241
2130 1 0.000000 -11.640263 2.690806 0 1.000000 1.000000 1.000000 0.000000 -0.974307 0.225222
2131 1 0.711718 -11.520957 3.080972 0 1.000000 1.000000 1.000000 0.059644 -0.964238 0.258241
2132 1 1.410384 -11.559447 2.672049 0 1.000000 1.000000 1.000000 0.117222 -0.967535 0.223910
2133 1 2.105813 -11.361899 3.038395 0 1.000000 1.000000 1.000000 0.176454 -0.950927 0.254167
2134 1 2.764195 -11.326660 2.618033 0 1.000000 1.000000 1.000000 0.229781 -0.948027 0.220102
2135 1 3.417596 -11.062440 2.958234 0 1.000000 1.000000 1.000000 0.286314 -0.925869 0.246557
2136 1 4.015464 -10.967881 2.534814 0 1.000000 1.000000 1.000000 0.333881 -0.917967 0.214148
2137 1 4.608825 -10.654274 2.848973 0 1.000000 1.000000 1.000000 0.386006 -0.891718 0.236303
2138 1 5.135177 -10.518091 2.430538 0 1.000000 1.000000 1.000000 0.427117 -0.880290 0.206546
2139 1 -5.558751 -10.500814 1.338814 0 1.000000 1.000000 1.000000 -0.461227 -0.879710 0.115671
2140 1 -5.086753 -10.680986 1.722022 0 1.000000 1.000000 1.000000 -0.427143 -0.892995 0.141803
2141 1 -4.519268 -10.977930 1.400135 0 1.000000 1.000000 1.000000 -0.374767 -0.919379 0.119553
2142 1 -3.974331 -11.128642 1.794491 0 1.000000 1.000000 1.000000 -0.333904 -0.930733 0.149145
2143 1 -3.346286 -11.381456 1.452061 0 1.000000 1.000000 1.000000 -0.277359 -0.952900 0.122693
2144 1 -2.734018 -11.484915 1.852182 0 1.000000 1.000000 1.000000 -0.229798 -0.960798 0.155112
2145 1 -2.059607 -11.676389 1.490053 0 1.000000 1.000000 1.000000 -0.170648 -0.977384 0.124901
2146 1 -1.394354 -11.715682 1.889557 0 1.000000 1.000000 1.000000 -0.117231 -0.980288 0.159038
2147 1 -0.695688 -11.832652 1.510196 0 1.000000 1.000000 1.000000 -0.057630 -0.990350 0.126041
2148 1 0.000000 -11.795723 1.902521 0 1.000000 1.000000 1.000000 0.000000 -0.987050 0.160411
2149 1 0.695688 -11.832652 1.510196 0 1.000000 1.000000 1.000000 0.057630 -0.990350 0.126041
2150 1 1.394354 -11.715682 1.889557 0 1.000000 1.000000 1.000000 0.117231 -0.980288 0.159038
2151 1 2.059607 -11.676389 1.490053 0 1.000000 1.000000 1.000000 0.170648 -0.977384 0.124901
2152 1 2.734018 -11.484915 1.852182 0 1.000000 1.000000 1.000000 0.229798 -0.960798 0.155112
2153 1 3.346286 -11.381456 1.452061 0 1.000000 1.000000 1.000000 0.277359 -0.952900 0.122693
2154 1 3.974331 -11.128642 1.794491 0 1.000000 1.000000 1.000000 0.333904 -0.930733 0.149145
2155 1 4.519268 -10.977930 1.400135 0 1.000000 1.000000 1.000000 0.374767 -0.919379 0.119553
2156 1 5.086753 -10.680986 1.722022 0 1.000000 1.000000 1.000000 0.427143 -0.892995 0.141803
2157 1 5.558751 -10.500814 1.338814 0 1.000000 1.000000 1.000000 0.461227 -0.879710 0.115671
2158 1 -5.901277 -10.396283 0.323837 0 1.000000 1.000000 1.000000 -0.488703 -0.871899 0.031001
2159 1 -5.481611 -10.606247 0.663404 0 1.000000 1.000000 1.000000 -0.461265 -0.885665 0.053217
2160 1 -4.941182 -10.882492 0.339567 0 1.000000 1.000000 1.000000 -0.408879 -0.912063 0.030970
2161 1 -4.450837 -11.074003 0.693089 0 1.000000 1.000000 1.000000 -0.374801 -0.925344 0.057112
2162 1 -3.851511 -11.311440 0.353523 0 1.000000 1.000000 1.000000 -0.318484 -0.947429 0.030774
2163 1 -3.291897 -11.468180 0.718138 0 1.000000 1.000000 1.000000 -0.277386 -0.958848 0.060552
2164 1 -2.644429 -11.650671 0.364615 0 1.000000 1.000000 1.000000 -0.218543 -0.975350 0.030501
2165 1 -2.024407 -11.755421 0.736409 0 1.000000 1.000000 1.000000 -0.170666 -0.983303 0.063153
2166 1 -1.346950 -11.869369 0.371794 0 1.000000 1.000000 1.000000 -0.111273 -0.993329 0.030269
2167 1 -0.683484 -11.907307 0.746076 0 1.000000 1.000000 1.000000 -0.057636 -0.996248 0.064561
2168 1 0.000000 -11.945033 0.374282 0 1.000000 1.000000 1.000000 0.000000 -0.999545 0.030178
2169 1 0.683484 -11.907307 0.746076 0 1.000000 1.000000 1.000000 0.057636 -0.996248 0.064561
2170 1 1.346950 -11.869369 0.371794 0 1.000000 1.000000 1.000000 0.111273 -0.993329 0.030269
2171 1 2.024407 -11.755421 0.736409 0 1.000000 1.000000 1.000000 0.170666 -0.983303 0.063153
2172 1 2.644429 -11.650671 0.364615 0 1.000000 1.000000 1.000000 0.218543 -0.975350 0.030501
2173 1 3.291897 -11.468180 0.718138 0 1.000000 1.000000 1.000000 0.277386 -0.958848 0.060552
2174 1 3.851511 -11.311440 0.353523 0 1.000000 1.000000 1.000000 0.318484 -0.947429 0.030774
2175 1 4.450837 -11.074003 0.693089 0 1.000000 1.000000 1.000000 0.374801 -0.925344 0.057112
2176 1 4.941182 -10.882492 0.339567 0 1.000000 1.000000 1.000000 0.408879 -0.912063 0.030970
2177 1 5.481611 -10.606247 0.663404 0 1.000000 1.000000 1.000000 0.461265 -0.885665 0.053217
2178 1 5.901277 -10.396283 0.323837 0 1.000000 1.000000 1.000000 0.488703 -0.871899 0.031001
2179 1 -10.396283 -0.323837 5.901277 0 1.000000 1.000000 1.000000 -0.871899 -0.031001 0.488703
2180 1 -10.882492 -0.339567 4.941182 0 1.000000 1.000000 1.000000 -0.912063 -0.030970 0.408879
2181 1 -10.606247 -0.663404 5.481611 0 1.000000 1.000000 1.000000 -0.885665 -0.053217 0.461265
2182 1 -10.500814 -1.338814 5.558751 0 1.000000 1.000000 1.000000 -0.879710 -0.115671 0.461227
2183 1 -11.311440 -0.353523 3.851511 0 1.000000 1.000000 1.000000 -0.947429 -0.030774 0.318484
2184 1 -11.074003 -0.693089 4.450837 0 1.000000 1.000000 1.000000 -0.925344 -0.057112 0.374801
2185 1 -10.977930 -1.400135 4.519268 0 1.000000 1.000000 1.000000 -0.919379 -0.119553 0.374767
2186 1 -10.680986 -1.722022 5.086753 0 1.000000 1.000000 1.000000 -0.892995 -0.141803 0.427143
2187 1 -10.518091 -2.430538 5.135177 0 1.000000 1.000000 1.000000 -0.880290 -0.206546 0.427117
2188 1 -11.650671 -0.364615 2.644429 0 1.000000 1.000000 1.000000 -0.975350 -0.030501 0.218543
2189 1 -11.468180 -0.718138 3.291897 0 1.000000 1.000000 1.000000 -0.958848 -0.060552 0.277386
2190 1 -11.381456 -1.452061 3.346286 0 1.000000 1.000000 1.000000 -0.952900 -0.122693 0.277359
2191 1 -11.128642 -1.794491 3.974331 0 1.000000 1.000000 1.000000 -0.930733 -0.149145 0.333904
2192 1 -10.967881 -2.534814 4.015464 0 1.000000 1.000000 1.000000 -0.917967 -0.214148 0.333881
2193 1 -10.654274 -2.848973 4.608825 0 1.000000 1.000000 1.000000 -0.891718 -0.236303 0.386006
2194 1 -10.425072 -3.573276 4.627490 0 1.000000 1.000000 1.000000 -0.871859 -0.301445 0.385995
2195 1 -11.869369 -0.371794 1.346950 0 1.000000 1.000000 1.000000 -0.993329 -0.030269 0.111273
2196 1 -11.755421 -0.736409 2.024407 0 1.000000 1.000000 1.000000 -0.983303 -0.063153 0.170666
2197 1 -11.676389 -1.490053 2.059607 0 1.000000 1.000000 1.000000 -0.977384 -0.124901 0.170648
2198 1 -11.484915 -1.852182 2.734018 0 1.000000 1.000000 1.000000 -0.960798 -0.155112 0.229798
2199 1 -11.326660 -2.618033 2.764195 0 1.000000 1.000000 1.000000 -0.948027 -0.220102 0.229781
2200 1 -11.062440 -2.958234 3.417596 0 1.000000 1.000000 1.000000 -0.925869 -0.246557 0.286314
2201 1 -10.827877 -3.711486 3.432528 0 1.000000 1.000000 1.000000 -0.905904 -0.312038 0.286305
2202 1 -10.504116 -4.012368 4.049061 0 1.000000 1.000000 1.000000 -0.879824 -0.334064 0.338099
2203 1 -10.204649 -4.730088 4.040525 0 1.000000 1.000000 1.000000 -0.853140 -0.397289 0.338104
2204 1 -11.945033 -0.374282 0.000000 0 1.000000 1.000000 1.000000 -0.999545 -0.030178 -0.000000
2205 1 -11.907307 -0.746076 0.683484 0 1.000000 1.000000 1.000000 -0.996248 -0.064561 0.057636
2206 1 -11.832652 -1.510196 0.695688 0 1.000000 1.000000 1.000000 -0.990350 -0.126041 0.057630
2207 1 -11.715682 -1.889557 1.394354 0 1.000000 1.000000 1.000000 -0.980288 -0.159038 0.117231
2208 1 -11.559447 -2.672049 1.410384 0 1.000000 1.000000 1.000000 -0.967535 -0.223910 0.117222
2209 1 -11.361899 -3.038395 2.105813 0 1.000000 1.000000 1.000000 -0.950927 -0.254167 0.176454
2210 1 -11.123646 -3.812990 2.115525 0 1.000000 1.000000 1.000000 -0.930931 -0.319741 0.176449
2211 1 -10.853844 -4.145880 2.788838 0 1.000000 1.000000 1.000000 -0.908815 -0.346156 0.232877
2212 1 -10.542894 -4.886826 2.782561 0 1.000000 1.000000 1.000000 -0.882039 -0.409603 0.232881
2213 1 -10.217460 -5.170153 3.417714 0 1.000000 1.000000 1.000000 -0.856072 -0.431545 0.284445
2214 1 -9.850876 -5.856857 3.388417 0 1.000000 1.000000 1.000000 -0.823738 -0.490447 0.284461
2215 1 -11.869369 -0.371794 -1.346950 0 1.000000 1.000000 1.000000 -0.993329 -0.030269 -0.111273
2216 1 -11.907307 -0.746076 -0.683484 0 1.000000 1.000000 1.000000 -0.996248 -0.064561 -0.057636
2217 1 -11.832652 -1.510196 -0.695688 0 1.000000 1.000000 1.000000 -0.990350 -0.126041 -0.057630
2218 1 -11.795723 -1.902521 0.000000 0 1.000000 1.000000 1.000000 -0.987050 -0.160411 -0.000000
2219 1 -11.640263 -2.690806 0.000000 0 1.000000 1.000000 1.000000 -0.974307 -0.225222 -0.000000
2220 1 -11.520957 -3.080972 0.711718 0 1.000000 1.000000 1.000000 -0.964238 -0.258241 0.059644
2221 1 -11.280831 -3.866942 0.715094 0 1.000000 1.000000 1.000000 -0.944241 -0.323807 0.059642
2222 1 -11.081069 -4.232614 1.423472 0 1.000000 1.000000 1.000000 -0.927636 -0.354065 0.118867
2223 1 -10.762573 -4.988627 1.420131 0 1.000000 1.000000 1.000000 -0.900842 -0.417556 0.118869
2224 1 -10.494201 -5.309950 2.105907 0 1.000000 1.000000 1.000000 -0.878746 -0.443955 0.175240
2225 1 -10.112935 -6.012473 2.086872 0 1.000000 1.000000 1.000000 -0.846422 -0.502849 0.175251
2226 1 -9.795044 -6.276054 2.734230 0 1.000000 1.000000 1.000000 -0.820451 -0.524802 0.226809
2227 1 -9.372188 -6.909500 2.693574 0 1.000000 1.000000 1.000000 -0.784369 -0.577333 0.226831
2228 1 -11.650671 -0.364615 -2.644429 0 1.000000 1.000000 1.000000 -0.975350 -0.030501 -0.218543
2229 1 -11.755421 -0.736409 -2.024407 0 1.000000 1.000000 1.000000 -0.983303 -0.063153 -0.170666
2230 1 -11.676389 -1.490053 -2.059607 0 1.000000 1.000000 1.000000 -0.977384 -0.124901 -0.170648
2231 1 -11.715682 -1.889557 -1.394354 0 1.000000 1.000000 1.000000 -0.980288 -0.159038 -0.117231
2232 1 -11.559447 -2.672049 -1.410384 0 1.000000 1.000000 1.000000 -0.967535 -0.223910 -0.117222
2233 1 -11.520957 -3.080972 -0.711718 0 1.000000 1.000000 1.000000 -0.964238 -0.258241 -0.059644
2234 1 -11.280831 -3.866942 -0.715094 0 1.000000 1.000000 1.000000 -0.944241 -0.323807 -0.059642
2235 1 -11.160011 -4.262745 0.000000 0 1.000000 1.000000 1.000000 -0.934172 -0.356822 -0.000000
2236 1 -10.838878 -5.023988 -0.000000 0 1.000000 1.000000 1.000000 -0.907380 -0.420311 -0.000000
2237 1 -10.641203 -5.384197 0.711754 0 1.000000 1.000000 1.000000 -0.890774 -0.450572 0.059223
2238 1 -10.251981 -6.095040 0.705141 0 1.000000 1.000000 1.000000 -0.858483 -0.509410 0.059226
2239 1 -9.992085 -6.401992 1.394484 0 1.000000 1.000000 1.000000 -0.836362 -0.535840 0.115646
2240 1 -9.554970 -7.044000 1.372921 0 1.000000 1.000000 1.000000 -0.800437 -0.588153 0.115657
2241 1 -9.252964 -7.287927 2.024654 0 1.000000 1.000000 1.000000 -0.774346 -0.610208 0.167433
2242 1 -8.790725 -7.852051 1.983061 0 1.000000 1.000000 1.000000 -0.736792 -0.655055 0.167452
2243 1 -11.311440 -0.353523 -3.851511 0 1.000000 1.000000 1.000000 -0.947429 -0.030774 -0.318484
2244 1 -11.468180 -0.718138 -3.291897 0 1.000000 1.000000 1.000000 -0.958848 -0.060552 -0.277386
2245 1 -11.381456 -1.452061 -3.346286 0 1.000000 1.000000 1.000000 -0.952900 -0.122693 -0.277359
2246 1 -11.484915 -1.852182 -2.734018 0 1.000000 1.000000 1.000000 -0.960798 -0.155112 -0.229798
2247 1 -11.326660 -2.618033 -2.764195 0 1.000000 1.000000 1.000000 -0.948027 -0.220102 -0.229781
2248 1 -11.361899 -3.038395 -2.105813 0 1.000000 1.000000 1.000000 -0.950927 -0.254167 -0.176454
2249 1 -11.123646 -3.812990 -2.115525 0 1.000000 1.000000 1.000000 -0.930931 -0.319741 -0.176449
2250 1 -11.081069 -4.232614 -1.423472 0 1.000000 1.000000 1.000000 -0.927636 -0.354065 -0.118867
2251 1 -10.762573 -4.988627 -1.420131 0 1.000000 1.000000 1.000000 -0.900842 -0.417556 -0.118869
2252 1 -10.641203 -5.384197 -0.711754 0 1.000000 1.000000 1.000000 -0.890774 -0.450572 -0.059223
2253 1 -10.251981 -6.095040 -0.705141 0 1.000000 1.000000 1.000000 -0.858483 -0.509410 -0.059226
2254 1 -10.060435 -6.445672 -0.000000 0 1.000000 1.000000 1.000000 -0.841873 -0.539676 0.000000
2255 1 -9.618293 -7.090594 -0.000000 0 1.000000 1.000000 1.000000 -0.806015 -0.591895 -0.000000
2256 1 -9.372724 -7.381969 0.683578 0 1.000000 1.000000 1.000000 -0.783847 -0.618377 0.056516
2257 1 -8.899762 -7.949219 0.669178 0 1.000000 1.000000 1.000000 -0.746550 -0.662924 0.056523
2258 1 -8.619770 -8.175374 1.316929 0 1.000000 1.000000 1.000000 -0.720284 -0.685123 0.108620
2259 1 -8.137726 -8.662413 1.283666 0 1.000000 1.000000 1.000000 -0.683456 -0.721864 0.108633
2260 1 -10.882492 -0.339567 -4.941182 0 1.000000 1.000000 1.000000 -0.912063 -0.030970 -0.408879
2261 1 -11.074003 -0.693089 -4.450837 0 1.000000 1.000000 1.000000 -0.925344 -0.057112 -0.374801
2262 1 -10.977930 -1.400135 -4.519268 0 1.000000 1.000000 1.000000 -0.919379 -0.119553 -0.374767
2263 1 -11.128642 -1.794491 -3.974331 0 1.000000 1.000000 1.000000 -0.930733 -0.149145 -0.333904
2264 1 -10.967881 -2.534814 -4.015464 0 1.000000 1.000000 1.000000 -0.917967 -0.214148 -0.333881
2265 1 -11.062440 -2.958234 -3.417596 0 1.000000 1.000000 1.000000 -0.925869 -0.246557 -0.286314
2266 1 -10.827877 -3.711486 -3.432528 0 1.000000 1.000000 1.000000 -0.905904 -0.312038 -0.286305
2267 1 -10.853844 -4.145880 -2.788838 0 1.000000 1.000000 1.000000 -0.908815 -0.346156 -0.232877
2268 1 -10.542894 -4.886826 -2.782561 0 1.000000 1.000000 1.000000 -0.882039 -0.409603 -0.232881
2269 1 -10.494201 -5.309950 -2.105907 0 1.000000 1.000000 1.000000 -0.878746 -0.443955 -0.175240
2270 1 -10.112935 -6.012473 -2.086872 0 1.000000 1.000000 1.000000 -0.846422 -0.502849 -0.175251
2271 1 -9.992085 -6.401992 -1.394484 0 1.000000 1.000000 1.000000 -0.836362 -0.535840 -0.115646
2272 1 -9.554970 -7.044000 -1.372921 0 1.000000 1.000000 1.000000 -0.800437 -0.588153 -0.115657
2273 1 -9.372724 -7.381969 -0.683578 0 1.000000 1.000000 1.000000 -0.783847 -0.618377 -0.056516
2274 1 -8.899762 -7.949219 -0.669178 0 1.000000 1.000000 1.000000 -0.746550 -0.662924 -0.056523
2275 1 -8.672370 -8.225094 -0.000000 0 1.000000 1.000000 1.000000 -0.724369 -0.689412 0.000000
2276 1 -8.184869 -8.712464 -0.000000 0 1.000000 1.000000 1.000000 -0.687760 -0.725938 -0.000000
2277 1 -7.930217 -8.923628 0.635915 0 1.000000 1.000000 1.000000 -0.661356 -0.748244 0.052342
2278 1 -7.446995 -9.333815 0.617569 0 1.000000 1.000000 1.000000 -0.627009 -0.777251 0.052348
2279 1 -10.396283 -0.323837 -5.901277 0 1.000000 1.000000 1.000000 -0.871899 -0.031001 -0.488703
2280 1 -10.606247 -0.663404 -5.481611 0 1.000000 1.000000 1.000000 -0.885665 -0.053217 -0.461265
2281 1 -10.500814 -1.338814 -5.558751 0 1.000000 1.000000 1.000000 -0.879710 -0.115671 -0.461227
2282 1 -10.680986 -1.722022 -5.086753 0 1.000000 1.000000 1.000000 -0.892995 -0.141803 -0.427143
2283 1 -10.518091 -2.430538 -5.135177 0 1.000000 1.000000 1.000000 -0.880290 -0.206546 -0.427117
2284 1 -10.654274 -2.848973 -4.608825 0 1.000000 1.000000 1.000000 -0.891718 -0.236303 -0.386006
2285 1 -10.425072 -3.573276 -4.627490 0 1.000000 1.000000 1.000000 -0.871859 -0.301445 -0.385995
2286 1 -10.504116 -4.012368 -4.049061 0 1.000000 1.000000 1.000000 -0.879824 -0.334064 -0.338099
2287 1 -10.204649 -4.730088 -4.040525 0 1.000000 1.000000 1.000000 -0.853140 -0.397289 -0.338104
2288 1 -10.217460 -5.170153 -3.417714 0 1.000000 1.000000 1.000000 -0.856072 -0.431545 -0.284445
2289 1 -9.850876 -5.856857 -3.388417 0 1.000000 1.000000 1.000000 -0.823738 -0.490447 -0.284461
2290 1 -9.795044 -6.276054 -2.734230 0 1.000000 1.000000 1.000000 -0.820451 -0.524802 -0.226809
2291 1 -9.372188 -6.909500 -2.693574 0 1.000000 1.000000 1.000000 -0.784369 -0.577333 -0.226831
2292 1 -9.252964 -7.287927 -2.024654 0 1.000000 1.000000 1.000000 -0.774346 -0.610208 -0.167433
2293 1 -8.790725 -7.852051 -1.983061 0 1.000000 1.000000 1.000000 -0.736792 -0.655055 -0.167452
2294 1 -8.619770 -8.175374 -1.316929 0 1.000000 1.000000 1.000000 -0.720284 -0.685123 -0.108620
2295 1 -8.137726 -8.662413 -1.283666 0 1.000000 1.000000 1.000000 -0.683456 -0.721864 -0.108633
2296 1 -7.930217 -8.923628 -0.635915 0 1.000000 1.000000 1.000000 -0.661356 -0.748244 -0.052342
2297 1 -7.446995 -9.333815 -0.617569 0 1.000000 1.000000 1.000000 -0.627009 -0.777251 -0.052348
2298 1 -7.218425 -9.532837 0.000000 0 1.000000 1.000000 1.000000 -0.600588 -0.799559 0.000000
2299 1 -6.749093 -9.872304 0.000000 0 1.000000 1.000000 1.000000 -0.569865 -0.821739 -0.000000
2300 1 -6.425256 10.072446 -0.523979 0 1.000000 1.000000 1.000000 -0.538863 0.840898 -0.050161
2301 1 -6.108182 10.161247 -1.548678 0 1.000000 1.000000 1.000000 -0.511338 0.848740 -0.134812
2302 1 -6.555021 9.942843 -1.073410 0 1.000000 1.000000 1.000000 -0.547371 0.832448 -0.086106
2303 1 -7.107429 9.543679 -1.166999 0 1.000000 1.000000 1.000000 -0.596039 0.796392 -0.102459
2304 1 -5.707188 10.164568 -2.649027 0 1.000000 1.000000 1.000000 -0.476910 0.849516 -0.225565
2305 1 -6.208195 9.987897 -2.150375 0 1.000000 1.000000 1.000000 -0.519552 0.835883 -0.177101
2306 1 -6.784734 9.577795 -2.265466 0 1.000000 1.000000 1.000000 -0.568207 0.799826 -0.193441
2307 1 -7.237128 9.351981 -1.757358 0 1.000000 1.000000 1.000000 -0.604243 0.783541 -0.144752
2308 1 -7.784203 8.880902 -1.855678 0 1.000000 1.000000 1.000000 -0.652682 0.740883 -0.158426
2309 1 -5.217449 10.060457 -3.798620 0 1.000000 1.000000 1.000000 -0.435348 0.841358 -0.320296
2310 1 -5.770797 9.936136 -3.292807 0 1.000000 1.000000 1.000000 -0.483981 0.831166 -0.273726
2311 1 -6.364948 9.515820 -3.432237 0 1.000000 1.000000 1.000000 -0.532402 0.795275 -0.289976
2312 1 -6.877879 9.334151 -2.903548 0 1.000000 1.000000 1.000000 -0.575225 0.781589 -0.241321
2313 1 -7.447701 8.846642 -3.018662 0 1.000000 1.000000 1.000000 -0.623858 0.738752 -0.255043
2314 1 -7.901632 8.619207 -2.478900 0 1.000000 1.000000 1.000000 -0.659732 0.722546 -0.206595
2315 1 -8.426110 8.077395 -2.573021 0 1.000000 1.000000 1.000000 -0.706291 0.673906 -0.216805
2316 1 -4.642099 9.832855 -4.959870 0 1.000000 1.000000 1.000000 -0.387080 0.822871 -0.415996
2317 1 -5.240595 9.767707 -4.467494 0 1.000000 1.000000 1.000000 -0.440282 0.816671 -0.373095
2318 1 -5.843484 9.337824 -4.632389 0 1.000000 1.000000 1.000000 -0.488399 0.781003 -0.389231
2319 1 -6.414490 9.210258 -4.102946 0 1.000000 1.000000 1.000000 -0.537290 0.770758 -0.342421
2320 1 -7.000261 8.708627 -4.236066 0 1.000000 1.000000 1.000000 -0.585913 0.727926 -0.356132
2321 1 -7.520542 8.526680 -3.680472 0 1.000000 1.000000 1.000000 -0.628735 0.714242 -0.307492
2322 1 -8.064917 7.964903 -3.783877 0 1.000000 1.000000 1.000000 -0.675536 0.665346 -0.317751
2323 1 -8.516555 7.743053 -3.216189 0 1.000000 1.000000 1.000000 -0.711194 0.649239 -0.269616
2324 1 -9.000394 7.139281 -3.295149 0 1.000000 1.000000 1.000000 -0.754100 0.596040 -0.275807
2325 1 -3.994019 9.476593 -6.088176 0 1.000000 1.000000 1.000000 -0.333291 0.793559 -0.509098
2326 1 -4.624891 9.471384 -5.631253 0 1.000000 1.000000 1.000000 -0.388906 0.791512 -0.471446
2327 1 -5.226109 9.032698 -5.820179 0 1.000000 1.000000 1.000000 -0.436819 0.755998 -0.487500
2328 1 -5.846206 8.964287 -5.313690 0 1.000000 1.000000 1.000000 -0.490205 0.749777 -0.444447
2329 1 -6.438991 8.451597 -5.464408 0 1.000000 1.000000 1.000000 -0.538743 0.707020 -0.458125
2330 1 -7.022040 8.323504 -4.916227 0 1.000000 1.000000 1.000000 -0.587705 0.696760 -0.411251
2331 1 -7.579932 7.746457 -5.028607 0 1.000000 1.000000 1.000000 -0.634573 0.647794 -0.421521
2332 1 -8.102528 7.569803 -4.451851 0 1.000000 1.000000 1.000000 -0.677324 0.634131 -0.372974
2333 1 -8.602739 6.945826 -4.530420 0 1.000000 1.000000 1.000000 -0.720381 0.580747 -0.379189
2334 1 -9.048967 6.737154 -3.941406 0 1.000000 1.000000 1.000000 -0.755891 0.564703 -0.331270
2335 1 -9.476593 6.088176 -3.994019 0 1.000000 1.000000 1.000000 -0.793559 0.509098 -0.333291
2336 1 -3.295149 9.000394 -7.139281 0 1.000000 1.000000 1.000000 -0.275807 0.754100 -0.596040
2337 1 -3.941406 9.048967 -6.737154 0 1.000000 1.000000 1.000000 -0.331270 0.755891 -0.564703
2338 1 -4.530420 8.602739 -6.945826 0 1.000000 1.000000 1.000000 -0.379189 0.720381 -0.580747
2339 1 -5.184251 8.591680 -6.485773 0 1.000000 1.000000 1.000000 -0.434791 0.718335 -0.543095
2340 1 -5.773947 8.071768 -6.651636 0 1.000000 1.000000 1.000000 -0.483286 0.675620 -0.556751
2341 1 -6.408589 8.000097 -6.136759 0 1.000000 1.000000 1.000000 -0.536709 0.669396 -0.513666
2342 1 -6.971937 7.413889 -6.256843 0 1.000000 1.000000 1.000000 -0.583573 0.620434 -0.523931
2343 1 -7.560231 7.288343 -5.696871 0 1.000000 1.000000 1.000000 -0.632533 0.610173 -0.477065
2344 1 -8.071768 6.651636 -5.773947 0 1.000000 1.000000 1.000000 -0.675620 0.556751 -0.483286
2345 1 -8.591680 6.485773 -5.184251 0 1.000000 1.000000 1.000000 -0.718335 0.543095 -0.434791
2346 1 -9.032698 5.820179 -5.226109 0 1.000000 1.000000 1.000000 -0.755998 0.487500 -0.436819
2347 1 -9.471384 5.631253 -4.624891 0 1.000000 1.000000 1.000000 -0.791512 0.471446 -0.388906
2348 1 -9.832855 4.959870 -4.642099 0 1.000000 1.000000 1.000000 -0.822871 0.415996 -0.387080
2349 1 -2.573021 8.426110 -8.077395 0 1.000000 1.000000 1.000000 -0.216805 0.706291 -0.673906
2350 1 -3.216189 8.516555 -7.743053 0 1.000000 1.000000 1.000000 -0.269616 0.711194 -0.649239
2351 1 -3.783877 8.064917 -7.964903 0 1.000000 1.000000 1.000000 -0.317751 0.675536 -0.665346
2352 1 -4.451851 8.102528 -7.569803 0 1.000000 1.000000 1.000000 -0.372974 0.677324 -0.634131
2353 1 -5.028607 7.579932 -7.746457 0 1.000000 1.000000 1.000000 -0.421521 0.634573 -0.647794
2354 1 -5.696871 7.560231 -7.288343 0 1.000000 1.000000 1.000000 -0.477065 0.632533 -0.610173
2355 1 -6.256843 6.971937 -7.413889 0 1.000000 1.000000 1.000000 -0.523931 0.583573 -0.620434
2356 1 -6.897266 6.897266 -6.897266 0 1.000000 1.000000 1.000000 -0.577350 0.577350 -0.577350
2357 1 -7.413889 6.256843 -6.971937 0 1.000000 1.000000 1.000000 -0.620434 0.523931 -0.583573
2358 1 -8.000097 6.136759 -6.408589 0 1.000000 1.000000 1.000000 -0.669396 0.513666 -0.536709
2359 1 -8.451597 5.464408 -6.438991 0 1.000000 1.000000 1.000000 -0.707020 0.458125 -0.538743
2360 1 -8.964287 5.313690 -5.846206 0 1.000000 1.000000 1.000000 -0.749777 0.444447 -0.490205
2361 1 -9.337824 4.632389 -5.843484 0 1.000000 1.000000 1.000000 -0.781003 0.389231 -0.488399
2362 1 -9.767707 4.467494 -5.240595 0 1.000000 1.000000 1.000000 -0.816671 0.373095 -0.440282
2363 1 -10.060457 3.798620 -5.217449 0 1.000000 1.000000 1.000000 -0.841358 0.320296 -0.435348
2364 1 -1.855678 7.784203 -8.880902 0 1.000000 1.000000 1.000000 -0.158426 0.652682 -0.740883
2365 1 -2.478900 7.901632 -8.619207 0 1.000000 1.000000 1.000000 -0.206595 0.659732 -0.722546
2366 1 -3.018662 7.447701 -8.846642 0 1.000000 1.000000 1.000000 -0.255043 0.623858 -0.738752
2367 1 -3.680472 7.520542 -8.526680 0 1.000000 1.000000 1.000000 -0.307492 0.628735 -0.714242
2368 1 -4.236066 7.000261 -8.708627 0 1.000000 1.000000 1.000000 -0.356132 0.585913 -0.727926
2369 1 -4.916227 7.022040 -8.323504 0 1.000000 1.000000 1.000000 -0.411251 0.587705 -0.696760
2370 1 -5.464408 6.438991 -8.451597 0 1.000000 1.000000 1.000000 -0.458125 0.538743 -0.707020
2371 1 -6.136759 6.408589 -8.000097 0 1.000000 1.000000 1.000000 -0.513666 0.536709 -0.669396
2372 1 -6.651636 5.773947 -8.071768 0 1.000000 1.000000 1.000000 -0.556751 0.483286 -0.675620
2373 1 -7.288343 5.696871 -7.560231 0 1.000000 1.000000 1.000000 -0.610173 0.477065 -0.632533
2374 1 -7.746457 5.028607 -7.579932 0 1.000000 1.000000 1.000000 -0.647794 0.421521 -0.634573
2375 1 -8.323504 4.916227 -7.022040 0 1.000000 1.000000 1.000000 -0.696760 0.411251 -0.587705
2376 1 -8.708627 4.236066 -7.000261 0 1.000000 1.000000 1.000000 -0.727926 0.356132 -0.585913
2377 1 -9.210258 4.102946 -6.414490 0 1.000000 1.000000 1.000000 -0.770758 0.342421 -0.537290
2378 1 -9.515820 3.432237 -6.364948 0 1.000000 1.000000 1.000000 -0.795275 0.289976 -0.532402
2379 1 -9.936136 3.292807 -5.770797 0 1.000000 1.000000 1.000000 -0.831166 0.273726 -0.483981
2380 1 -10.164568 2.649027 -5.707188 0 1.000000 1.000000 1.000000 -0.849516 0.225565 -0.476910
2381 1 -1.166999 7.107429 -9.543679 0 1.000000 1.000000 1.000000 -0.102459 0.596039 -0.796392
2382 1 -1.757358 7.237128 -9.351981 0 1.000000 1.000000 1.000000 -0.144752 0.604243 -0.783541
2383 1 -2.265466 6.784734 -9.577795 0 1.000000 1.000000 1.000000 -0.193441 0.568207 -0.799826
2384 1 -2.903548 6.877879 -9.334151 0 1.000000 1.000000 1.000000 -0.241321 0.575225 -0.781589
2385 1 -3.432237 6.364948 -9.515820 0 1.000000 1.000000 1.000000 -0.289976 0.532402 -0.795275
2386 1 -4.102946 6.414490 -9.210258 0 1.000000 1.000000 1.000000 -0.342421 0.537290 -0.770758
2387 1 -4.632389 5.843484 -9.337824 0 1.000000 1.000000 1.000000 -0.389231 0.488399 -0.781003
2388 1 -5.313690 5.846206 -8.964287 0 1.000000 1.000000 1.000000 -0.444447 0.490205 -0.749777
2389 1 -5.820179 5.226109 -9.032698 0 1.000000 1.000000 1.000000 -0.487500 0.436819 -0.755998
2390 1 -6.485773 5.184251 -8.591680 0 1.000000 1.000000 1.000000 -0.543095 0.434791 -0.718335
2391 1 -6.945826 4.530420 -8.602739 0 1.000000 1.000000 1.000000 -0.580747 0.379189 -0.720381
2392 1 -7.569803 4.451851 -8.102528 0 1.000000 1.000000 1.000000 -0.634131 0.372974 -0.677324
2393 1 -7.964903 3.783877 -8.064917 0 1.000000 1.000000 1.000000 -0.665346 0.317751 -0.675536
2394 1 -8.526680 3.680472 -7.520542 0 1.000000 1.000000 1.000000 -0.714242 0.307492 -0.628735
2395 1 -8.846642 3.018662 -7.447701 0 1.000000 1.000000 1.000000 -0.738752 0.255043 -0.623858
2396 1 -9.334151 2.903548 -6.877879 0 1.000000 1.000000 1.000000 -0.781589 0.241321 -0.575225
2397 1 -9.577795 2.265466 -6.784734 0 1.000000 1.000000 1.000000 -0.799826 0.193441 -0.568207
2398 1 -9.987897 2.150375 -6.208195 0 1.000000 1.000000 1.000000 -0.835883 0.177101 -0.519552
2399 1 -10.161247 1.548678 -6.108182 0 1.000000 1.000000 1.000000 -0.848740 0.134812 -0.511338
2400 1 -0.523979 6.425256 -10.072446 0 1.000000 1.000000 1.000000 -0.050161 0.538863 -0.840898
2401 1 -1.073410 6.555021 -9.942843 0 1.000000 1.000000 1.000000 -0.086106 0.547371 -0.832448
2402 1 -1.548678 6.108182 -10.161247 0 1.000000 1.000000 1.000000 -0.134812 0.511338 -0.848740
2403 1 -2.150375 6.208195 -9.987897 0 1.000000 1.000000 1.000000 -0.177101 0.519552 -0.835883
2404 1 -2.649027 5.707188 -10.164568 0 1.000000 1.000000 1.000000 -0.225565 0.476910 -0.849516
2405 1 -3.292807 5.770797 -9.936136 0 1.000000 1.000000 1.000000 -0.273726 0.483981 -0.831166
2406 1 -3.798620 5.217449 -10.060457 0 1.000000 1.000000 1.000000 -0.320296 0.435348 -0.841358
2407 1 -4.467494 5.240595 -9.767707 0 1.000000 1.000000 1.000000 -0.373095 0.440282 -0.816671
2408 1 -4.959870 4.642099 -9.832855 0 1.000000 1.000000 1.000000 -0.415996 0.387080 -0.822871
2409 1 -5.631253 4.624891 -9.471384 0 1.000000 1.000000 1.000000 -0.471446 0.388906 -0.791512
2410 1 -6.088176 3.994019 -9.476593 0 1.000000 1.000000 1.000000 -0.509098 0.333291 -0.793559
2411 1 -6.737154 3.941406 -9.048967 0 1.000000 1.000000 1.000000 -0.564703 0.331270 -0.755891
2412 1 -7.139281 3.295149 -9.000394 0 1.000000 1.000000 1.000000 -0.596040 0.275807 -0.754100
2413 1 -7.743053 3.216189 -8.516555 0 1.000000 1.000000 1.000000 -0.649239 0.269616 -0.711194
2414 1 -8.077395 2.573021 -8.426110 0 1.000000 1.000000 1.000000 -0.673906 0.216805 -0.706291
2415 1 -8.619207 2.478900 -7.901632 0 1.000000 1.000000 1.000000 -0.722546 0.206595 -0.659732
2416 1 -8.880902 1.855678 -7.784203 0 1.000000 1.000000 1.000000 -0.740883 0.158426 -0.652682
2417 1 -9.351981 1.757358 -7.237128 0 1.000000 1.000000 1.000000 -0.783541 0.144752 -0.604243
2418 1 -9.543679 1.166999 -7.107429 0 1.000000 1.000000 1.000000 -0.796392 0.102459 -0.596039
2419 1 -9.942843 1.073410 -6.555021 0 1.000000 1.000000 1.000000 -0.832448 0.086106 -0.547371
2420 1 -10.072446 0.523979 -6.425256 0 1.000000 1.000000 1.000000 -0.840898 0.050161 -0.538863
